ITEM: TIMESTEP
0
ITEM: NUMBER OF ATOMS
2916
ITEM: BOX BOUNDS pp pp pp
0.0000000000000000e+00 3.1788000000000000e+01
0.0000000000000000e+00 3.1788000000000000e+01
0.0000000000000000e+00 3.1788000000000000e+01
ITEM: ATOMS id type x y z c_peatom c_satom[1] c_satom[2] c_satom[3] c_satom[4] c_satom[5] c_satom[6] c_coord c_voro[1] c_stein[1] c_stein[2] c_stein[3] c_stein[4] c_stein[5] c_ptm_fcc[1] c_ptm_fcc[2] c_ptm_best[1] c_ptm_best[2] c_csp
1 1 0 0 0 -4.44936 198663 53284 74040.6 4162.62 -3854.28 134720 12 11.0154 0.190941 0.574524 0.403915 0.012857 0.600083 1 3.09273e-08 1 3.09273e-08 3.78653e-29
2 1 1.766 1.766 0 -4.44936 194441 183576 175201 8124.45 -10117.2 18936.4 12 11.0154 0.190941 0.574524 0.403915 0.012857 0.600083 1 2.02467e-08 1 2.02467e-08 1.26218e-29
3 1 1.766 0 1.766 -4.44936 95620.7 180630 160955 -43272.7 -62468.6 -26203.5 12 11.0154 0.190941 0.574524 0.403915 0.012857 0.600083 1 1.65314e-08 1 1.65314e-08 1.26218e-29
4 1 0 1.766 1.766 -4.44936 158068 198683 197155 -2006.84 8139.14 401.189 12 11.0154 0.190941 0.574524 0.403915 0.012857 0.600083 1 1.65314e-08 1 1.65314e-08 1.26218e-29
5 1 3.532 0 0 -4.44936 136725 179832 187434 34292.6 26537.2 -14664.6 12 11.0154 0.190941 0.574524 0.403915 0.012857 0.600083 1 2.02467e-08 1 2.02467e-08 2.52435e-29
6 1 5.298 1.766 0 -4.44936 194791 129996 198779 -16568.3 -114.22 -474.2 12 11.0154 0.190941 0.574524 0.403915 0.012857 0.600083 1 1.65314e-08 1 1.65314e-08 1.26218e-29
7 1 5.298 0 1.766 -4.44936 197020 105657 95190.3 12808.2 -13508.9 98218.9 12 11.0154 0.190941 0.574524 0.403915 0.012857 0.600083 1 1.65314e-08 1 1.65314e-08 1.26218e-29
8 1 3.532 1.766 1.766 -4.44936 176635 147794 106371 -33604.1 45239.5 68643.1 12 11.0154 0.190941 0.574524 0.403915 0.012857 0.600083 1 1.65314e-08 1 1.65314e-08 0
9 1 7.064 0 0 -4.44936 31025 173958 191076 -64532.3 35954.9 13831 12 11.0154 0.190941 0.574524 0.403915 0.012857 0.600083 1 2.02467e-08 1 2.02467e-08 2.52435e-29
10 1 8.83 1.766 0 -4.44936 11949.4 198420 182388 8227.25 55343.1 -2437.06 12 11.0154 0.190941 0.574524 0.403915 0.012857 0.600083 1 1.65314e-08 1 1.65314e-08 1.26218e-29
11 1 8.83 0 1.766 -4.44936 135764 103712 195362 77402.4 14680.1 -18031 12 11.0154 0.190941 0.574524 0.403915 0.012857 0.600083 1 1.65314e-08 1 1.65314e-08 1.26218e-29
12 1 7.064 1.766 1.766 -4.44936 144167 48699.9 197563 90535.7 -8158.42 13524.3 12 11.0154 0.190941 0.574524 0.403915 0.012857 0.600083 1 1.65314e-08 1 1.65314e-08 0
13 1 10.596 0 0 -4.44936 55102.7 -17073.8 197355 176108 14321 -17553.3 12 11.0154 0.190941 0.574524 0.403915 0.012857 0.600083 1 2.33789e-08 1 2.33789e-08 2.52435e-29
14 1 12.362 1.766 0 -4.44936 192025 196443 196924 3975.29 3542.83 -2084.26 12 11.0154 0.190941 0.574524 0.403915 0.012857 0.600083 1 1.65314e-08 1 1.65314e-08 1.26218e-29
15 1 12.362 0 1.766 -4.44936 193122 189334 197240 7312.76 -2954.09 3816.82 12 11.0154 0.190941 0.574524 0.403915 0.012857 0.600083 1 2.33789e-08 1 2.33789e-08 1.26218e-29
16 1 10.596 1.766 1.766 -4.44936 178890 189643 190476 -13483.1 12854.1 8712.87 12 11.0154 0.190941 0.574524 0.403915 0.012857 0.600083 1 1.65314e-08 1 1.65314e-08 0
17 1 14.128 0 0 -4.44936 198777 163269 177818 431.501 -331.529 27285.4 12 11.0154 0.190941 0.574524 0.403915 0.012857 0.600083 1 2.02467e-08 1 2.02467e-08 2.52435e-29
18 1 15.894 1.766 0 -4.44936 113877 134470 132055 73894.5 75268.8 -65508.2 12 11.0154 0.190941 0.574524 0.403915 0.012857 0.600083 1 2.33789e-08 1 2.33789e-08 1.26218e-29
19 1 15.894 0 1.766 -4.44936 190284 197696 177423 -3037.23 -13472.3 -4815.16 12 11.0154 0.190941 0.574524 0.403915 0.012857 0.600083 1 2.33789e-08 1 2.33789e-08 1.26218e-29
20 1 14.128 1.766 1.766 -4.44936 173934 195415 181594 9146.05 20666.1 -7606.77 12 11.0154 0.190941 0.574524 0.403915 0.012857 0.600083 1 1.65314e-08 1 1.65314e-08 0
21 1 17.66 0 0 -4.44936 102833 142628 181017 -73402.1 41286.1 31584.4 12 11.0154 0.190941 0.574524 0.403915 0.012857 0.600083 1 3.09273e-08 1 3.09273e-08 2.52435e-29
22 1 19.426 1.766 0 -4.44936 198200 150021 143234 -5328.27 -5687 -52043.9 12 11.0154 0.190941 0.574524 0.403915 0.012857 0.600083 1 2.02467e-08 1 2.02467e-08 1.26218e-29
23 1 19.426 0 1.766 -4.44936 166491 194466 198617 -11805 2304.84 842.607 12 11.0154 0.190941 0.574524 0.403915 0.012857 0.600083 1 2.86331e-08 1 2.86331e-08 1.26218e-29
24 1 17.66 1.766 1.766 -4.44936 157671 68189.7 192620 73271.7 -15916.2 28367.4 12 11.0154 0.190941 0.574524 0.403915 0.012857 0.600083 1 2.02467e-08 1 2.02467e-08 0
25 1 21.192 0 0 -4.44936 198762 196104 169650 228.406 753.335 -8832.53 12 11.0154 0.190941 0.574524 0.403915 0.012857 0.600083 1 2.86331e-08 1 2.86331e-08 2.52435e-29
26 1 22.958 1.766 0 -4.44936 198259 196812 182926 -1015.47 -2880.79 -5589.2 12 11.0154 0.190941 0.574524 0.403915 0.012857 0.600083 1 2.33789e-08 1 2.33789e-08 1.26218e-29
27 1 22.958 0 1.766 -4.44936 189425 153033 167067 -20689.5 17226.3 38091.4 12 11.0154 0.190941 0.574524 0.403915 0.012857 0.600083 1 1.65314e-08 1 1.65314e-08 1.26218e-29
28 1 21.192 1.766 1.766 -4.44936 198782 150275 173245 -110.519 -80.1902 -35195.7 12 11.0154 0.190941 0.574524 0.403915 0.012857 0.600083 1 1.16894e-08 1 1.16894e-08 0
29 1 24.724 0 0 -4.44936 197112 159180 145096 8132.34 9468.69 -46109.3 12 11.0154 0.190941 0.574524 0.403915 0.012857 0.600083 1 2.33789e-08 1 2.33789e-08 2.52435e-29
30 1 26.49 1.766 0 -4.44936 191857 -23993.9 196901 39276 -3609.24 20471.8 12 11.0154 0.190941 0.574524 0.403915 0.012857 0.600083 1 2.86331e-08 1 2.86331e-08 1.26218e-29
31 1 26.49 0 1.766 -4.44936 183625 173810 182804 19455 -15561.9 19974.9 12 11.0154 0.190941 0.574524 0.403915 0.012857 0.600083 1 1.65314e-08 1 1.65314e-08 1.26218e-29
32 1 24.724 1.766 1.766 -4.44936 197368 195923 132941 -2010.58 9648.29 13720.4 12 11.0154 0.190941 0.574524 0.403915 0.012857 0.600083 1 2.61384e-08 1 2.61384e-08 0
33 1 28.256 0 0 -4.44936 196403 198345 129850 1019.09 12805 -5485.97 12 11.0154 0.190941 0.574524 0.403915 0.012857 0.600083 1 2.86331e-08 1 2.86331e-08 2.52435e-29
34 1 30.022 1.766 0 -4.44936 131056 181540 156753 -34172.5 53352.3 26920 12 11.0154 0.190941 0.574524 0.403915 0.012857 0.600083 1 2.33789e-08 1 2.33789e-08 1.26218e-29
35 1 30.022 0 1.766 -4.44936 180264 191646 195222 11495.4 8118.89 -5040.04 12 11.0154 0.190941 0.574524 0.403915 0.012857 0.600083 1 2.61384e-08 1 2.61384e-08 1.26218e-29
36 1 28.256 1.766 1.766 -4.44936 122464 184513 -63360.4 32999.2 141443 -61158.8 12 11.0154 0.190941 0.574524 0.403915 0.012857 0.600083 1 0 1 0 0
37 1 0 3.532 0 -4.44936 -74323.5 2476.53 195836 -231543 28364.8 24048.1 12 11.0154 0.190941 0.574524 0.403915 0.012857 0.600083 1 1.16894e-08 1 1.16894e-08 2.52435e-29
38 1 1.766 5.298 0 -4.44936 169303 196932 195543 7385.71 -9770.83 2448.01 12 11.0154 0.190941 0.574524 0.403915 0.012857 0.600083 1 1.65314e-08 1 1.65314e-08 1.26218e-29
39 1 1.766 3.532 1.766 -4.44936 174893 182801 197074 19539 6387.94 -5224.65 12 11.0154 0.190941 0.574524 0.403915 0.012857 0.600083 1 1.65314e-08 1 1.65314e-08 0
40 1 0 5.298 1.766 -4.44936 186995 185616 198489 -12457.5 1859.6 1965.37 12 11.0154 0.190941 0.574524 0.403915 0.012857 0.600083 1 2.02467e-08 1 2.02467e-08 1.26218e-29
41 1 3.532 3.532 0 -4.44936 99076.6 113702 153191 -92102.8 67421.5 62280.6 12 11.0154 0.190941 0.574524 0.403915 0.012857 0.600083 1 1.65314e-08 1 1.65314e-08 1.26218e-29
42 1 5.298 5.298 0 -4.44936 167827 27396.6 193657 72836.5 12594.9 -29635.9 12 11.0154 0.190941 0.574524 0.403915 0.012857 0.600083 1 2.33789e-08 1 2.33789e-08 1.26218e-29
43 1 5.298 3.532 1.766 -4.44936 191154 197398 -24124.6 -3249.24 -41236.1 -17564.1 12 11.0154 0.190941 0.574524 0.403915 0.012857 0.600083 1 1.65314e-08 1 1.65314e-08 0
44 1 3.532 5.298 1.766 -4.44936 173949 140776 166400 -37953.7 -28357.6 -43340.2 12 11.0154 0.190941 0.574524 0.403915 0.012857 0.600083 1 1.65314e-08 1 1.65314e-08 0
45 1 7.064 3.532 0 -4.44936 142738 183078 198751 29666.4 -1312.49 694.76 12 11.0154 0.190941 0.574524 0.403915 0.012857 0.600083 1 1.65314e-08 1 1.65314e-08 1.26218e-29
46 1 8.83 5.298 0 -4.44936 190902 193537 1676.26 6429.05 39411.2 -32153.4 12 11.0154 0.190941 0.574524 0.403915 0.012857 0.600083 1 2.61384e-08 1 2.61384e-08 1.26218e-29
47 1 8.83 3.532 1.766 -4.44936 184747 181915 195139 15385.9 -7150.89 7839.29 12 11.0154 0.190941 0.574524 0.403915 0.012857 0.600083 1 1.65314e-08 1 1.65314e-08 0
48 1 7.064 5.298 1.766 -4.44936 197273 195607 99213.9 -2188.47 -12256.1 -17779 12 11.0154 0.190941 0.574524 0.403915 0.012857 0.600083 1 1.65314e-08 1 1.65314e-08 0
49 1 10.596 3.532 0 -4.44936 196381 105993 195487 -14924.6 2812.31 17484.7 12 11.0154 0.190941 0.574524 0.403915 0.012857 0.600083 1 2.33789e-08 1 2.33789e-08 1.26218e-29
50 1 12.362 5.298 0 -4.44936 92384.7 197839 110328 10014.3 -97011.8 9130.92 12 11.0154 0.190941 0.574524 0.403915 0.012857 0.600083 1 2.33789e-08 1 2.33789e-08 1.26218e-29
51 1 12.362 3.532 1.766 -4.44936 -9682.32 174318 170084 71413.4 -77347 26496.7 12 11.0154 0.190941 0.574524 0.403915 0.012857 0.600083 1 1.65314e-08 1 1.65314e-08 0
52 1 10.596 5.298 1.766 -4.44936 194493 123030 193623 -18025.3 -4704.03 -19768.9 12 11.0154 0.190941 0.574524 0.403915 0.012857 0.600083 1 1.65314e-08 1 1.65314e-08 0
53 1 14.128 3.532 0 -4.44936 197043 140132 158345 -10097.6 -8384.45 -48699.4 12 11.0154 0.190941 0.574524 0.403915 0.012857 0.600083 1 1.65314e-08 1 1.65314e-08 1.26218e-29
54 1 15.894 5.298 0 -4.44936 180389 195028 197517 8309.36 4823.87 -2179.29 12 11.0154 0.190941 0.574524 0.403915 0.012857 0.600083 1 2.02467e-08 1 2.02467e-08 1.26218e-29
55 1 15.894 3.532 1.766 -4.44936 195176 66720.8 196496 21822.6 -2871.38 17376.4 12 11.0154 0.190941 0.574524 0.403915 0.012857 0.600083 1 1.65314e-08 1 1.65314e-08 0
56 1 14.128 5.298 1.766 -4.44936 189321 179612 194845 -13467.5 -6103.22 -8687.58 12 11.0154 0.190941 0.574524 0.403915 0.012857 0.600083 1 1.65314e-08 1 1.65314e-08 0
57 1 17.66 3.532 0 -4.44936 176907 162556 198714 28150 1221.09 -1571.41 12 11.0154 0.190941 0.574524 0.403915 0.012857 0.600083 1 2.02467e-08 1 2.02467e-08 1.26218e-29
58 1 19.426 5.298 0 -4.44936 178366 198308 198251 -3110.22 3292.66 501.601 12 11.0154 0.190941 0.574524 0.403915 0.012857 0.600083 1 2.86331e-08 1 2.86331e-08 1.26218e-29
59 1 19.426 3.532 1.766 -4.44936 198759 166402 196250 854.706 239.011 -9054.72 12 11.0154 0.190941 0.574524 0.403915 0.012857 0.600083 1 1.65314e-08 1 1.65314e-08 0
60 1 17.66 5.298 1.766 -4.44936 139264 156025 175404 50446.1 37301.5 -31616 12 11.0154 0.190941 0.574524 0.403915 0.012857 0.600083 1 1.65314e-08 1 1.65314e-08 0
61 1 21.192 3.532 0 -4.44936 190176 191628 198775 -7846.34 241.586 220.274 12 11.0154 0.190941 0.574524 0.403915 0.012857 0.600083 1 2.02467e-08 1 2.02467e-08 1.26218e-29
62 1 22.958 5.298 0 -4.44936 -89154.2 198147 190277 -13525.5 -49486.9 -2324.6 12 11.0154 0.190941 0.574524 0.403915 0.012857 0.600083 1 2.33789e-08 1 2.33789e-08 1.26218e-29
63 1 22.958 3.532 1.766 -4.44936 188373 110655 196536 -30287.4 -4835.41 -14069.5 12 11.0154 0.190941 0.574524 0.403915 0.012857 0.600083 1 1.65314e-08 1 1.65314e-08 0
64 1 21.192 5.298 1.766 -4.44936 170243 198779 195936 -284.526 -9012.41 -89.8501 12 11.0154 0.190941 0.574524 0.403915 0.012857 0.600083 1 0 1 0 0
65 1 24.724 3.532 0 -4.44936 162898 192334 185645 15211.3 -21711.8 9203.68 12 11.0154 0.190941 0.574524 0.403915 0.012857 0.600083 1 2.61384e-08 1 2.61384e-08 1.26218e-29
66 1 26.49 5.298 0 -4.44936 156575 116178 194967 59046 -12689.6 17752.4 12 11.0154 0.190941 0.574524 0.403915 0.012857 0.600083 1 2.61384e-08 1 2.61384e-08 1.26218e-29
67 1 26.49 3.532 1.766 -4.44936 196728 139895 141588 -10998.5 -10839.3 -58034.2 12 11.0154 0.190941 0.574524 0.403915 0.012857 0.600083 1 1.65314e-08 1 1.65314e-08 0
68 1 24.724 5.298 1.766 -4.44936 178040 177095 190964 -21209.1 -12734.3 -13021 12 11.0154 0.190941 0.574524 0.403915 0.012857 0.600083 1 2.02467e-08 1 2.02467e-08 0
69 1 28.256 3.532 0 -4.44936 89083.1 172860 195044 53325.7 20250.4 -9843.92 12 11.0154 0.190941 0.574524 0.403915 0.012857 0.600083 1 1.65314e-08 1 1.65314e-08 1.26218e-29
70 1 30.022 5.298 0 -4.44936 108490 191268 121367 -26046.4 83605.9 24117.5 12 11.0154 0.190941 0.574524 0.403915 0.012857 0.600083 1 2.33789e-08 1 2.33789e-08 1.26218e-29
71 1 30.022 3.532 1.766 -4.44936 131059 95394.2 193185 -83676.3 19468.3 24054.5 12 11.0154 0.190941 0.574524 0.403915 0.012857 0.600083 1 2.33789e-08 1 2.33789e-08 0
72 1 28.256 5.298 1.766 -4.44936 180557 44236.5 197913 53071.1 3979.17 -11587.5 12 11.0154 0.190941 0.574524 0.403915 0.012857 0.600083 1 0 1 0 0
73 1 0 7.064 0 -4.44936 192891 135077 198611 19372.9 1002.63 -3297 12 11.0154 0.190941 0.574524 0.403915 0.012857 0.600083 1 2.02467e-08 1 2.02467e-08 2.52435e-29
74 1 1.766 8.83 0 -4.44936 40879.8 161726 158415 -76493.3 -79837.8 -38676.2 12 11.0154 0.190941 0.574524 0.403915 0.012857 0.600083 1 1.65314e-08 1 1.65314e-08 1.26218e-29
75 1 1.766 7.064 1.766 -4.44936 195512 178939 196374 -8055.66 -2806.42 -6912.82 12 11.0154 0.190941 0.574524 0.403915 0.012857 0.600083 1 1.65314e-08 1 1.65314e-08 0
76 1 0 8.83 1.766 -4.44936 28806.8 192816 168351 31844.2 -71920.7 13474.1 12 11.0154 0.190941 0.574524 0.403915 0.012857 0.600083 1 2.33789e-08 1 2.33789e-08 1.26218e-29
77 1 3.532 7.064 0 -4.44936 190394 187133 197193 9884.56 -3650.54 4302.08 12 11.0154 0.190941 0.574524 0.403915 0.012857 0.600083 1 1.65314e-08 1 1.65314e-08 1.26218e-29
78 1 5.298 8.83 0 -4.44936 196475 188262 188265 -4925.97 -4925.15 -10518.4 12 11.0154 0.190941 0.574524 0.403915 0.012857 0.600083 1 1.65314e-08 1 1.65314e-08 1.26218e-29
79 1 5.298 7.064 1.766 -4.44936 195061 180989 195080 8136.37 3711.13 -8115.57 12 11.0154 0.190941 0.574524 0.403915 0.012857 0.600083 1 1.65314e-08 1 1.65314e-08 0
80 1 3.532 8.83 1.766 -4.44936 134745 123927 119255 -69235.1 -71362.8 -77155.3 12 11.0154 0.190941 0.574524 0.403915 0.012857 0.600083 1 1.65314e-08 1 1.65314e-08 0
81 1 7.064 7.064 0 -4.44936 197701 49458.6 77427.8 -12702.5 11451.3 134614 12 11.0154 0.190941 0.574524 0.403915 0.012857 0.600083 1 1.65314e-08 1 1.65314e-08 1.26218e-29
82 1 8.83 8.83 0 -4.44936 173357 188626 156729 16069 -32698.6 20665.8 12 11.0154 0.190941 0.574524 0.403915 0.012857 0.600083 1 1.65314e-08 1 1.65314e-08 1.26218e-29
83 1 8.83 7.064 1.766 -4.44936 77458.1 179086 162817 -48883.8 66056.6 26615.5 12 11.0154 0.190941 0.574524 0.403915 0.012857 0.600083 1 1.65314e-08 1 1.65314e-08 0
84 1 7.064 8.83 1.766 -4.44936 55973 197233 127089 14874.1 -101185 10538.8 12 11.0154 0.190941 0.574524 0.403915 0.012857 0.600083 1 1.65314e-08 1 1.65314e-08 0
85 1 10.596 7.064 0 -4.44936 178212 197052 165417 5966.21 26197.8 -7598.47 12 11.0154 0.190941 0.574524 0.403915 0.012857 0.600083 1 1.65314e-08 1 1.65314e-08 1.26218e-29
86 1 12.362 8.83 0 -4.44936 169814 156640 187311 34939.8 18229.3 -21987.1 12 11.0154 0.190941 0.574524 0.403915 0.012857 0.600083 1 1.65314e-08 1 1.65314e-08 1.26218e-29
87 1 12.362 7.064 1.766 -4.44936 140965 195102 189454 -14586.3 -23222.6 -5858.71 12 11.0154 0.190941 0.574524 0.403915 0.012857 0.600083 1 1.65314e-08 1 1.65314e-08 0
88 1 10.596 8.83 1.766 -4.44936 183728 194626 194627 7909.32 7908.54 -4155.12 12 11.0154 0.190941 0.574524 0.403915 0.012857 0.600083 1 1.65314e-08 1 1.65314e-08 0
89 1 14.128 7.064 0 -4.44936 197835 183425 177146 -3813.71 4526.73 18228.2 12 11.0154 0.190941 0.574524 0.403915 0.012857 0.600083 1 1.65314e-08 1 1.65314e-08 1.26218e-29
90 1 15.894 8.83 0 -4.44936 197646 175422 172531 5150.62 -5460.04 24763.3 12 11.0154 0.190941 0.574524 0.403915 0.012857 0.600083 1 1.65314e-08 1 1.65314e-08 1.26218e-29
91 1 15.894 7.064 1.766 -4.44936 198781 192415 179951 -85.724 147.426 10950 12 11.0154 0.190941 0.574524 0.403915 0.012857 0.600083 1 1.65314e-08 1 1.65314e-08 0
92 1 14.128 8.83 1.766 -4.44936 195837 131453 178586 -14081 7711.97 36875.4 12 11.0154 0.190941 0.574524 0.403915 0.012857 0.600083 1 1.65314e-08 1 1.65314e-08 0
93 1 17.66 7.064 0 -4.44936 198436 185745 193172 -2124.87 -1393.9 -8552.32 12 11.0154 0.190941 0.574524 0.403915 0.012857 0.600083 1 2.02467e-08 1 2.02467e-08 1.26218e-29
94 1 19.426 8.83 0 -4.44936 118513 127092 187160 75858.1 30542.7 -28864.5 12 11.0154 0.190941 0.574524 0.403915 0.012857 0.600083 1 0 1 0 1.26218e-29
95 1 19.426 7.064 1.766 -4.44936 112612 183456 99903.3 -36340.5 -92305.6 -38928.3 12 11.0154 0.190941 0.574524 0.403915 0.012857 0.600083 1 1.65314e-08 1 1.65314e-08 0
96 1 17.66 8.83 1.766 -4.44936 166513 187214 170851 -19320.2 30021.4 17974.8 12 11.0154 0.190941 0.574524 0.403915 0.012857 0.600083 1 1.65314e-08 1 1.65314e-08 0
97 1 21.192 7.064 0 -4.44936 87346.8 181205 197727 44257.6 -10844 4306.8 12 11.0154 0.190941 0.574524 0.403915 0.012857 0.600083 1 1.65314e-08 1 1.65314e-08 1.26218e-29
98 1 22.958 8.83 0 -4.44936 186042 185552 177331 -12982.4 -16531.3 -16846 12 11.0154 0.190941 0.574524 0.403915 0.012857 0.600083 1 2.02467e-08 1 2.02467e-08 1.26218e-29
99 1 22.958 7.064 1.766 -4.44936 44918.3 135731 146489 -98494.5 -89699.4 -57420.3 12 11.0154 0.190941 0.574524 0.403915 0.012857 0.600083 1 2.33789e-08 1 2.33789e-08 0
100 1 21.192 8.83 1.766 -4.44936 198173 194493 193847 -1616.43 1733.98 4600.49 12 11.0154 0.190941 0.574524 0.403915 0.012857 0.600083 1 1.16894e-08 1 1.16894e-08 0
101 1 24.724 7.064 0 -4.44936 194023 -19691.6 187034 32244.1 -7477.17 50662.4 12 11.0154 0.190941 0.574524 0.403915 0.012857 0.600083 1 2.61384e-08 1 2.61384e-08 1.26218e-29
102 1 26.49 8.83 0 -4.44936 149223 149804 193512 49267.6 16161.5 -16066.5 12 11.0154 0.190941 0.574524 0.403915 0.012857 0.600083 1 1.65314e-08 1 1.65314e-08 1.26218e-29
103 1 26.49 7.064 1.766 -4.44936 198779 123199 193230 447.503 -121.285 20484.9 12 11.0154 0.190941 0.574524 0.403915 0.012857 0.600083 1 1.65314e-08 1 1.65314e-08 0
104 1 24.724 8.83 1.766 -4.44936 181519 191160 194755 -11470.4 8337.85 5540.09 12 11.0154 0.190941 0.574524 0.403915 0.012857 0.600083 1 2.61384e-08 1 2.61384e-08 0
105 1 28.256 7.064 0 -4.44936 198712 27282.6 137644 3460.8 -2066.33 102397 12 11.0154 0.190941 0.574524 0.403915 0.012857 0.600083 1 2.33789e-08 1 2.33789e-08 1.26218e-29
106 1 30.022 8.83 0 -4.44936 68325 161278 177071 69947.2 -53220.1 28535.1 12 11.0154 0.190941 0.574524 0.403915 0.012857 0.600083 1 2.33789e-08 1 2.33789e-08 1.26218e-29
107 1 30.022 7.064 1.766 -4.44936 140231 166949 185920 43172.1 -27441.9 20234.3 12 11.0154 0.190941 0.574524 0.403915 0.012857 0.600083 1 2.33789e-08 1 2.33789e-08 0
108 1 28.256 8.83 1.766 -4.44936 53233.5 -74901.3 198576 199585 -5469.2 7499.7 12 11.0154 0.190941 0.574524 0.403915 0.012857 0.600083 1 0 1 0 0
109 1 0 10.596 0 -4.44936 91606.5 146062 187667 75168.2 -34515.2 24207.5 12 11.0154 0.190941 0.574524 0.403915 0.012857 0.600083 1 2.86331e-08 1 2.86331e-08 2.52435e-29
110 1 1.766 12.362 0 -4.44936 -64277.7 164725 -56742.1 -94651.6 259264 93286.1 12 11.0154 0.190941 0.574524 0.403915 0.012857 0.600083 1 1.65314e-08 1 1.65314e-08 1.26218e-29
111 1 1.766 10.596 1.766 -4.44936 189391 198565 195877 1425.91 5222.98 -793.068 12 11.0154 0.190941 0.574524 0.403915 0.012857 0.600083 1 1.65314e-08 1 1.65314e-08 0
112 1 0 12.362 1.766 -4.44936 191591 129686 174302 22290.7 -13268 41127.7 12 11.0154 0.190941 0.574524 0.403915 0.012857 0.600083 1 2.02467e-08 1 2.02467e-08 1.26218e-29
113 1 3.532 10.596 0 -4.44936 179173 129012 141363 36988.1 33554.9 -63294.2 12 11.0154 0.190941 0.574524 0.403915 0.012857 0.600083 1 2.61384e-08 1 2.61384e-08 1.26218e-29
114 1 5.298 12.362 0 -4.44936 179446 130261 152039 36399.9 30063.9 -56594 12 11.0154 0.190941 0.574524 0.403915 0.012857 0.600083 1 1.65314e-08 1 1.65314e-08 1.26218e-29
115 1 5.298 10.596 1.766 -4.44936 181888 198218 174140 3086.44 -20403.4 3727.65 12 11.0154 0.190941 0.574524 0.403915 0.012857 0.600083 1 1.65314e-08 1 1.65314e-08 0
116 1 3.532 12.362 1.766 -4.44936 -16221.3 12498.8 111791 -200129 136760 127299 12 11.0154 0.190941 0.574524 0.403915 0.012857 0.600083 1 1.65314e-08 1 1.65314e-08 0
117 1 7.064 10.596 0 -4.44936 173173 173233 127040 -25579.3 -42863.1 -42813 12 11.0154 0.190941 0.574524 0.403915 0.012857 0.600083 1 1.65314e-08 1 1.65314e-08 1.26218e-29
118 1 8.83 12.362 0 -4.44936 195107 188547 -8750.22 -6132.82 -27615.8 -46088 12 11.0154 0.190941 0.574524 0.403915 0.012857 0.600083 1 1.65314e-08 1 1.65314e-08 1.26218e-29
119 1 8.83 10.596 1.766 -4.44936 198518 182684 110920 -2061.23 4815.51 37608.2 12 11.0154 0.190941 0.574524 0.403915 0.012857 0.600083 1 1.65314e-08 1 1.65314e-08 0
120 1 7.064 12.362 1.766 -4.44936 192835 162188 41611.4 14752.1 -30572.8 75838.8 12 11.0154 0.190941 0.574524 0.403915 0.012857 0.600083 1 1.65314e-08 1 1.65314e-08 0
121 1 10.596 10.596 0 -4.44936 126881 191581 196653 22754.1 12372.2 -3915.39 12 11.0154 0.190941 0.574524 0.403915 0.012857 0.600083 1 1.65314e-08 1 1.65314e-08 1.26218e-29
122 1 12.362 12.362 0 -4.44936 193593 159037 191462 14361.4 -6163.42 17057.1 12 11.0154 0.190941 0.574524 0.403915 0.012857 0.600083 1 1.65314e-08 1 1.65314e-08 1.26218e-29
123 1 12.362 10.596 1.766 -4.44936 195419 173206 167171 -9274.84 -10311.2 -28434.1 12 11.0154 0.190941 0.574524 0.403915 0.012857 0.600083 1 1.65314e-08 1 1.65314e-08 0
124 1 10.596 12.362 1.766 -4.44936 67647.9 188238 66899.4 -37184.9 -131508 -37290.8 12 11.0154 0.190941 0.574524 0.403915 0.012857 0.600083 1 1.65314e-08 1 1.65314e-08 0
125 1 14.128 10.596 0 -4.44936 127147 153818 183115 56753.6 -33500.4 26541.1 12 11.0154 0.190941 0.574524 0.403915 0.012857 0.600083 1 2.61384e-08 1 2.61384e-08 1.26218e-29
126 1 15.894 12.362 0 -4.44936 174087 183459 198286 19452.6 -3500.06 2757 12 11.0154 0.190941 0.574524 0.403915 0.012857 0.600083 1 2.33789e-08 1 2.33789e-08 1.26218e-29
127 1 15.894 10.596 1.766 -4.44936 198403 182464 148323 2486.93 4373.23 -28694.6 12 11.0154 0.190941 0.574524 0.403915 0.012857 0.600083 1 1.65314e-08 1 1.65314e-08 0
128 1 14.128 12.362 1.766 -4.44936 133470 145044 191492 -59243 -21820.5 -19792.8 12 11.0154 0.190941 0.574524 0.403915 0.012857 0.600083 1 1.65314e-08 1 1.65314e-08 0
129 1 17.66 10.596 0 -4.44936 129543 194011 179436 -18175.8 -36599.6 -9607.7 12 11.0154 0.190941 0.574524 0.403915 0.012857 0.600083 1 2.86331e-08 1 2.86331e-08 1.26218e-29
130 1 19.426 12.362 0 -4.44936 197991 198740 181257 -182.456 3723.21 858.812 12 11.0154 0.190941 0.574524 0.403915 0.012857 0.600083 1 2.61384e-08 1 2.61384e-08 1.26218e-29
131 1 19.426 10.596 1.766 -4.44936 -29479.5 145197 196066 110595 -24896.6 12062.7 12 11.0154 0.190941 0.574524 0.403915 0.012857 0.600083 1 2.33789e-08 1 2.33789e-08 0
132 1 17.66 12.362 1.766 -4.44936 15832.2 87326.8 192714 -142796 -33318.2 -26005.6 12 11.0154 0.190941 0.574524 0.403915 0.012857 0.600083 1 1.65314e-08 1 1.65314e-08 0
133 1 21.192 10.596 0 -4.44936 167612 190437 123849 16128.1 -48328.6 25006.5 12 11.0154 0.190941 0.574524 0.403915 0.012857 0.600083 1 0 1 0 1.26218e-29
134 1 22.958 12.362 0 -4.44936 163271 194399 186885 12476.3 -20554.5 7221.5 12 11.0154 0.190941 0.574524 0.403915 0.012857 0.600083 1 2.33789e-08 1 2.33789e-08 1.26218e-29
135 1 22.958 10.596 1.766 -4.44936 174190 193683 146590 11197.7 -35825.8 16313.2 12 11.0154 0.190941 0.574524 0.403915 0.012857 0.600083 1 0 1 0 0
136 1 21.192 12.362 1.766 -4.44936 193752 198439 168648 1314.11 -12311.2 3216.56 12 11.0154 0.190941 0.574524 0.403915 0.012857 0.600083 1 0 1 0 0
137 1 24.724 10.596 0 -4.44936 165399 114194 71504.7 53139.3 -65183.5 103760 12 11.0154 0.190941 0.574524 0.403915 0.012857 0.600083 1 2.61384e-08 1 2.61384e-08 1.26218e-29
138 1 26.49 12.362 0 -4.44936 185462 182167 73587 14876.2 -40835.5 45608 12 11.0154 0.190941 0.574524 0.403915 0.012857 0.600083 1 2.02467e-08 1 2.02467e-08 1.26218e-29
139 1 26.49 10.596 1.766 -4.44936 68900.3 -611.058 198143 -160927 9111.97 11290 12 11.0154 0.190941 0.574524 0.403915 0.012857 0.600083 1 1.65314e-08 1 1.65314e-08 0
140 1 24.724 12.362 1.766 -4.44936 198139 104615 178704 -7782.32 3593.55 43482.4 12 11.0154 0.190941 0.574524 0.403915 0.012857 0.600083 1 1.65314e-08 1 1.65314e-08 0
141 1 28.256 10.596 0 -4.44936 163144 197594 145438 6506.38 43601.3 -7960.16 12 11.0154 0.190941 0.574524 0.403915 0.012857 0.600083 1 0 1 0 1.26218e-29
142 1 30.022 12.362 0 -4.44936 166754 196858 81356 -7850.83 -61326.7 -15032.5 12 11.0154 0.190941 0.574524 0.403915 0.012857 0.600083 1 2.33789e-08 1 2.33789e-08 1.26218e-29
143 1 30.022 10.596 1.766 -4.44936 64752.4 -4570.11 198732 -165091 2591.9 3192.58 12 11.0154 0.190941 0.574524 0.403915 0.012857 0.600083 1 1.65314e-08 1 1.65314e-08 0
144 1 28.256 12.362 1.766 -4.44936 198484 198097 195752 451.614 -950.167 1440.19 12 11.0154 0.190941 0.574524 0.403915 0.012857 0.600083 1 0 1 0 0
145 1 0 14.128 0 -4.44936 193363 198186 191923 -1797.56 -6096.76 -2022.39 12 11.0154 0.190941 0.574524 0.403915 0.012857 0.600083 1 1.16894e-08 1 1.16894e-08 2.52435e-29
146 1 1.766 15.894 0 -4.44936 144846 107401 106844 70205 70418.4 -91659.1 12 11.0154 0.190941 0.574524 0.403915 0.012857 0.600083 1 1.65314e-08 1 1.65314e-08 1.26218e-29
147 1 1.766 14.128 1.766 -4.44936 195273 189054 192109 -5842.56 4838.72 8056.81 12 11.0154 0.190941 0.574524 0.403915 0.012857 0.600083 1 1.65314e-08 1 1.65314e-08 0
148 1 0 15.894 1.766 -4.44936 197690 155369 197490 6883.9 -1187.47 7488.77 12 11.0154 0.190941 0.574524 0.403915 0.012857 0.600083 1 2.33789e-08 1 2.33789e-08 1.26218e-29
149 1 3.532 14.128 0 -4.44936 157514 149925 129009 -44902.4 53659.7 58386 12 11.0154 0.190941 0.574524 0.403915 0.012857 0.600083 1 1.65314e-08 1 1.65314e-08 1.26218e-29
150 1 5.298 15.894 0 -4.44936 108459 198347 9627.78 6264.95 130710 -9066.2 12 11.0154 0.190941 0.574524 0.403915 0.012857 0.600083 1 1.65314e-08 1 1.65314e-08 1.26218e-29
151 1 5.298 14.128 1.766 -4.44936 173619 162275 161594 30309 -30590.4 36846 12 11.0154 0.190941 0.574524 0.403915 0.012857 0.600083 1 1.65314e-08 1 1.65314e-08 0
152 1 3.532 15.894 1.766 -4.44936 143827 197026 53159.1 9823.29 89457.5 -15990.8 12 11.0154 0.190941 0.574524 0.403915 0.012857 0.600083 1 1.65314e-08 1 1.65314e-08 0
153 1 7.064 14.128 0 -4.44936 182780 185578 198732 -14535.8 893.703 811.822 12 11.0154 0.190941 0.574524 0.403915 0.012857 0.600083 1 1.65314e-08 1 1.65314e-08 1.26218e-29
154 1 8.83 15.894 0 -4.44936 198293 198782 182523 0.720396 2818.12 -4.15621 12 11.0154 0.190941 0.574524 0.403915 0.012857 0.600083 1 2.02467e-08 1 2.02467e-08 1.26218e-29
155 1 8.83 14.128 1.766 -4.44936 164477 173563 197119 -29413.3 -7552.04 -6475.17 12 11.0154 0.190941 0.574524 0.403915 0.012857 0.600083 1 1.65314e-08 1 1.65314e-08 0
156 1 7.064 15.894 1.766 -4.44936 81329.1 185555 159007 -39414.4 -68350.1 -22936.7 12 11.0154 0.190941 0.574524 0.403915 0.012857 0.600083 1 1.65314e-08 1 1.65314e-08 0
157 1 10.596 14.128 0 -4.44936 197128 195668 198457 -2269.1 -732.849 -1005.57 12 11.0154 0.190941 0.574524 0.403915 0.012857 0.600083 1 2.33789e-08 1 2.33789e-08 1.26218e-29
158 1 12.362 15.894 0 -4.44936 193535 85911.2 198766 24335.8 -285.725 1325.21 12 11.0154 0.190941 0.574524 0.403915 0.012857 0.600083 1 2.02467e-08 1 2.02467e-08 1.26218e-29
159 1 12.362 14.128 1.766 -4.44936 159902 -28396.4 164852 93982 -36320.7 87796.5 12 11.0154 0.190941 0.574524 0.403915 0.012857 0.600083 1 1.65314e-08 1 1.65314e-08 0
160 1 10.596 15.894 1.766 -4.44936 194559 196420 186106 -3157.94 7315.97 5471.41 12 11.0154 0.190941 0.574524 0.403915 0.012857 0.600083 1 1.65314e-08 1 1.65314e-08 0
161 1 14.128 14.128 0 -4.44936 178896 192047 182953 11572.9 -17741.8 10325.1 12 11.0154 0.190941 0.574524 0.403915 0.012857 0.600083 1 1.65314e-08 1 1.65314e-08 1.26218e-29
162 1 15.894 15.894 0 -4.44936 179483 176849 172227 -20574.1 -22638.3 -24133.8 12 11.0154 0.190941 0.574524 0.403915 0.012857 0.600083 1 1.65314e-08 1 1.65314e-08 1.26218e-29
163 1 15.894 14.128 1.766 -4.44936 150785 184742 91577.2 25959.2 71732.2 -38796.5 12 11.0154 0.190941 0.574524 0.403915 0.012857 0.600083 1 1.65314e-08 1 1.65314e-08 0
164 1 14.128 15.894 1.766 -4.44936 197162 185144 132808 4699.77 -10336.8 29996.2 12 11.0154 0.190941 0.574524 0.403915 0.012857 0.600083 1 1.65314e-08 1 1.65314e-08 0
165 1 17.66 14.128 0 -4.44936 190662 190533 191046 8184.53 -7925.98 7988.56 12 11.0154 0.190941 0.574524 0.403915 0.012857 0.600083 1 2.02467e-08 1 2.02467e-08 1.26218e-29
166 1 19.426 15.894 0 -4.44936 170383 198191 57992 -4098.4 -63232.4 -9125.29 12 11.0154 0.190941 0.574524 0.403915 0.012857 0.600083 1 2.33789e-08 1 2.33789e-08 1.26218e-29
167 1 19.426 14.128 1.766 -4.44936 59953.8 194669 194746 -23895.1 -23671.9 -4074.41 12 11.0154 0.190941 0.574524 0.403915 0.012857 0.600083 1 1.65314e-08 1 1.65314e-08 0
168 1 17.66 15.894 1.766 -4.44936 198324 190198 197097 1982.98 878.674 -3803.51 12 11.0154 0.190941 0.574524 0.403915 0.012857 0.600083 1 1.65314e-08 1 1.65314e-08 0
169 1 21.192 14.128 0 -4.44936 197480 193613 191413 -2594.74 3097.97 6171.92 12 11.0154 0.190941 0.574524 0.403915 0.012857 0.600083 1 2.02467e-08 1 2.02467e-08 1.26218e-29
170 1 22.958 15.894 0 -4.44936 184524 198547 184524 -1828.83 -14257.9 -1828.79 12 11.0154 0.190941 0.574524 0.403915 0.012857 0.600083 1 2.33789e-08 1 2.33789e-08 1.26218e-29
171 1 22.958 14.128 1.766 -4.44936 -37679.2 195301 150039 28689.2 -107358 13025.5 12 11.0154 0.190941 0.574524 0.403915 0.012857 0.600083 1 1.65314e-08 1 1.65314e-08 0
172 1 21.192 15.894 1.766 -4.44936 172131 194865 198500 -10217.7 2742.48 1051.42 12 11.0154 0.190941 0.574524 0.403915 0.012857 0.600083 1 0 1 0 0
173 1 24.724 14.128 0 -4.44936 69435.5 124104 -200758 98282.2 227330 -172734 12 11.0154 0.190941 0.574524 0.403915 0.012857 0.600083 1 2.61384e-08 1 2.61384e-08 1.26218e-29
174 1 26.49 15.894 0 -4.44936 156313 127875 144095 54875.7 -48192.4 62271.3 12 11.0154 0.190941 0.574524 0.403915 0.012857 0.600083 1 1.65314e-08 1 1.65314e-08 1.26218e-29
175 1 26.49 14.128 1.766 -4.44936 177129 34286 195381 59681.4 8581.13 -23651.6 12 11.0154 0.190941 0.574524 0.403915 0.012857 0.600083 1 1.65314e-08 1 1.65314e-08 0
176 1 24.724 15.894 1.766 -4.44936 149345 191416 195355 -19083 -13016.4 -5024.41 12 11.0154 0.190941 0.574524 0.403915 0.012857 0.600083 1 1.65314e-08 1 1.65314e-08 0
177 1 28.256 14.128 0 -4.44936 191284 197339 185956 3289.45 9806.34 -4302.42 12 11.0154 0.190941 0.574524 0.403915 0.012857 0.600083 1 1.65314e-08 1 1.65314e-08 1.26218e-29
178 1 30.022 15.894 0 -4.44936 172900 195683 188777 -8955.8 -16091.7 -5568.02 12 11.0154 0.190941 0.574524 0.403915 0.012857 0.600083 1 2.33789e-08 1 2.33789e-08 1.26218e-29
179 1 30.022 14.128 1.766 -4.44936 176001 192122 187783 12317.8 -15829 8558.89 12 11.0154 0.190941 0.574524 0.403915 0.012857 0.600083 1 2.33789e-08 1 2.33789e-08 0
180 1 28.256 15.894 1.766 -4.44936 127783 169346 149581 -45715.3 -59103.6 -38056 12 11.0154 0.190941 0.574524 0.403915 0.012857 0.600083 1 1.16894e-08 1 1.16894e-08 0
181 1 0 17.66 0 -4.44936 191465 190391 93909.5 -7835.34 -27701 -29663.6 12 11.0154 0.190941 0.574524 0.403915 0.012857 0.600083 1 3.09273e-08 1 3.09273e-08 2.52435e-29
182 1 1.766 19.426 0 -4.44936 198142 118872 191899 -7152.78 -2099.21 -23452.1 12 11.0154 0.190941 0.574524 0.403915 0.012857 0.600083 1 1.65314e-08 1 1.65314e-08 1.26218e-29
183 1 1.766 17.66 1.766 -4.44936 197773 158070 144961 6408.88 7368.79 -46809.6 12 11.0154 0.190941 0.574524 0.403915 0.012857 0.600083 1 1.65314e-08 1 1.65314e-08 0
184 1 0 19.426 1.766 -4.44936 188804 175920 196061 -15103.4 -5210.59 -7887.15 12 11.0154 0.190941 0.574524 0.403915 0.012857 0.600083 1 2.02467e-08 1 2.02467e-08 1.26218e-29
185 1 3.532 17.66 0 -4.44936 167510 124224 177421 48286.6 25845.7 -39907.7 12 11.0154 0.190941 0.574524 0.403915 0.012857 0.600083 1 1.16894e-08 1 1.16894e-08 1.26218e-29
186 1 5.298 19.426 0 -4.44936 172205 198715 198436 1338.79 3033.36 -152.805 12 11.0154 0.190941 0.574524 0.403915 0.012857 0.600083 1 1.65314e-08 1 1.65314e-08 1.26218e-29
187 1 5.298 17.66 1.766 -4.44936 155047 146467 75688.5 -47832.9 -73372.4 -80247 12 11.0154 0.190941 0.574524 0.403915 0.012857 0.600083 1 2.02467e-08 1 2.02467e-08 0
188 1 3.532 19.426 1.766 -4.44936 197959 168163 195929 5021.26 1532.73 -9346.36 12 11.0154 0.190941 0.574524 0.403915 0.012857 0.600083 1 0 1 0 0
189 1 7.064 17.66 0 -4.44936 87758.7 106320 195877 -101318 17957.4 16387.7 12 11.0154 0.190941 0.574524 0.403915 0.012857 0.600083 1 2.02467e-08 1 2.02467e-08 1.26218e-29
190 1 8.83 19.426 0 -4.44936 185604 187910 166657 -11969.7 20575.3 18688.9 12 11.0154 0.190941 0.574524 0.403915 0.012857 0.600083 1 2.86331e-08 1 2.86331e-08 1.26218e-29
191 1 8.83 17.66 1.766 -4.44936 186772 179379 137545 -15265.2 27119 34469.9 12 11.0154 0.190941 0.574524 0.403915 0.012857 0.600083 1 2.02467e-08 1 2.02467e-08 0
192 1 7.064 19.426 1.766 -4.44936 -12334.6 140559 194496 110868 -30081.2 15797.2 12 11.0154 0.190941 0.574524 0.403915 0.012857 0.600083 1 2.33789e-08 1 2.33789e-08 0
193 1 10.596 17.66 0 -4.44936 180524 108951 161383 -40498.1 26130.7 57961.8 12 11.0154 0.190941 0.574524 0.403915 0.012857 0.600083 1 2.02467e-08 1 2.02467e-08 1.26218e-29
194 1 12.362 19.426 0 -4.44936 192218 86517.5 197806 27145 -2531.04 10467.7 12 11.0154 0.190941 0.574524 0.403915 0.012857 0.600083 1 2.86331e-08 1 2.86331e-08 1.26218e-29
195 1 12.362 17.66 1.766 -4.44936 137960 181375 194601 -32538.2 15946 8530.71 12 11.0154 0.190941 0.574524 0.403915 0.012857 0.600083 1 1.65314e-08 1 1.65314e-08 0
196 1 10.596 19.426 1.766 -4.44936 -33098.7 177072 49402.8 -70951.2 186113 56947.2 12 11.0154 0.190941 0.574524 0.403915 0.012857 0.600083 1 1.65314e-08 1 1.65314e-08 0
197 1 14.128 17.66 0 -4.44936 156519 198652 18171.2 -2346.86 87368.3 4851.51 12 11.0154 0.190941 0.574524 0.403915 0.012857 0.600083 1 1.16894e-08 1 1.16894e-08 1.26218e-29
198 1 15.894 19.426 0 -4.44936 183911 125040 188312 -33115.6 -12478 -27786.1 12 11.0154 0.190941 0.574524 0.403915 0.012857 0.600083 1 2.86331e-08 1 2.86331e-08 1.26218e-29
199 1 15.894 17.66 1.766 -4.44936 198267 106421 193213 -6896.36 -1693.41 -22679.3 12 11.0154 0.190941 0.574524 0.403915 0.012857 0.600083 1 1.65314e-08 1 1.65314e-08 0
200 1 14.128 19.426 1.766 -4.44936 127112 145052 162445 62055.1 -51031.9 44185.5 12 11.0154 0.190941 0.574524 0.403915 0.012857 0.600083 1 0 1 0 0
201 1 17.66 17.66 0 -4.44936 198234 181998 146843 3032.28 -5334.14 29525.6 12 11.0154 0.190941 0.574524 0.403915 0.012857 0.600083 1 3.09273e-08 1 3.09273e-08 1.26218e-29
202 1 19.426 19.426 0 -4.44936 171012 167999 197847 -29237.4 5094.39 5363.64 12 11.0154 0.190941 0.574524 0.403915 0.012857 0.600083 1 2.86331e-08 1 2.86331e-08 1.26218e-29
203 1 19.426 17.66 1.766 -4.44936 198689 171438 198301 1592.27 211.163 -3626.31 12 11.0154 0.190941 0.574524 0.403915 0.012857 0.600083 1 2.86331e-08 1 2.86331e-08 0
204 1 17.66 19.426 1.766 -4.44936 182083 177327 198330 -18928 -2747.71 -3114.53 12 11.0154 0.190941 0.574524 0.403915 0.012857 0.600083 1 2.33789e-08 1 2.33789e-08 0
205 1 21.192 17.66 0 -4.44936 23362.8 198263 131150 9542.57 108921 -5925.18 12 11.0154 0.190941 0.574524 0.403915 0.012857 0.600083 1 1.65314e-08 1 1.65314e-08 1.26218e-29
206 1 22.958 19.426 0 -4.44936 164585 182328 167828 -23720.7 -32535.1 -22568.1 12 11.0154 0.190941 0.574524 0.403915 0.012857 0.600083 1 2.61384e-08 1 2.61384e-08 1.26218e-29
207 1 22.958 17.66 1.766 -4.44936 14836.7 129863 196612 -112593 -19979.8 -12229.7 12 11.0154 0.190941 0.574524 0.403915 0.012857 0.600083 1 1.65314e-08 1 1.65314e-08 0
208 1 21.192 19.426 1.766 -4.44936 92985.9 -101690 -15737.9 178294 150650 -253884 12 11.0154 0.190941 0.574524 0.403915 0.012857 0.600083 1 0 1 0 0
209 1 24.724 17.66 0 -4.44936 162541 191130 147868 16652.4 42955.3 -19737.6 12 11.0154 0.190941 0.574524 0.403915 0.012857 0.600083 1 2.61384e-08 1 2.61384e-08 1.26218e-29
210 1 26.49 19.426 0 -4.44936 150218 79888.3 196077 -75986.8 -11460.5 -17931.9 12 11.0154 0.190941 0.574524 0.403915 0.012857 0.600083 1 1.16894e-08 1 1.16894e-08 1.26218e-29
211 1 26.49 17.66 1.766 -4.44936 197314 144468 132580 8930.14 -9859.17 59963.9 12 11.0154 0.190941 0.574524 0.403915 0.012857 0.600083 1 1.65314e-08 1 1.65314e-08 0
212 1 24.724 19.426 1.766 -4.44936 196563 123358 137172 -12938.1 -11693.5 -68168 12 11.0154 0.190941 0.574524 0.403915 0.012857 0.600083 1 1.65314e-08 1 1.65314e-08 0
213 1 28.256 17.66 0 -4.44936 181613 142308 166944 -31138.5 23380.2 42403 12 11.0154 0.190941 0.574524 0.403915 0.012857 0.600083 1 0 1 0 1.26218e-29
214 1 30.022 19.426 0 -4.44936 196373 191192 -33760.6 -4275.56 -23666.4 -42011 12 11.0154 0.190941 0.574524 0.403915 0.012857 0.600083 1 2.33789e-08 1 2.33789e-08 1.26218e-29
215 1 30.022 17.66 1.766 -4.44936 197607 105849 198262 10449.8 -781.324 6948.49 12 11.0154 0.190941 0.574524 0.403915 0.012857 0.600083 1 0 1 0 0
216 1 28.256 19.426 1.766 -4.44936 182871 114133 164393 36699.5 -23391.5 53953.5 12 11.0154 0.190941 0.574524 0.403915 0.012857 0.600083 1 1.16894e-08 1 1.16894e-08 0
217 1 0 21.192 0 -4.44936 189773 180203 82650.8 -12937.1 -32344.8 -46449.6 12 11.0154 0.190941 0.574524 0.403915 0.012857 0.600083 1 1.65314e-08 1 1.65314e-08 2.52435e-29
218 1 1.766 22.958 0 -4.44936 183235 187422 123869 13289.7 -34126.8 29172.8 12 11.0154 0.190941 0.574524 0.403915 0.012857 0.600083 1 2.33789e-08 1 2.33789e-08 1.26218e-29
219 1 1.766 21.192 1.766 -4.44936 164740 134489 197268 -46783.5 -7180.18 -9867.54 12 11.0154 0.190941 0.574524 0.403915 0.012857 0.600083 1 0 1 0 0
220 1 0 22.958 1.766 -4.44936 185466 136363 185252 -28830.3 -13422.8 -29061.1 12 11.0154 0.190941 0.574524 0.403915 0.012857 0.600083 1 1.65314e-08 1 1.65314e-08 1.26218e-29
221 1 3.532 21.192 0 -4.44936 194549 163846 194456 12160.8 4279.39 -12293.8 12 11.0154 0.190941 0.574524 0.403915 0.012857 0.600083 1 1.16894e-08 1 1.16894e-08 1.26218e-29
222 1 5.298 22.958 0 -4.44936 181063 91152.4 198767 -43670.3 -518.878 -1278.82 12 11.0154 0.190941 0.574524 0.403915 0.012857 0.600083 1 2.33789e-08 1 2.33789e-08 1.26218e-29
223 1 5.298 21.192 1.766 -4.44936 198711 136841 198173 2100.36 208.239 -6141.16 12 11.0154 0.190941 0.574524 0.403915 0.012857 0.600083 1 0 1 0 0
224 1 3.532 22.958 1.766 -4.44936 84227.4 198498 191632 -5705.15 28620 1425.36 12 11.0154 0.190941 0.574524 0.403915 0.012857 0.600083 1 0 1 0 0
225 1 7.064 21.192 0 -4.44936 193523 193397 191282 -5321.35 -6279.95 -6354.83 12 11.0154 0.190941 0.574524 0.403915 0.012857 0.600083 1 1.16894e-08 1 1.16894e-08 1.26218e-29
226 1 8.83 22.958 0 -4.44936 111828 194373 191772 -19580.9 24688.6 5559.57 12 11.0154 0.190941 0.574524 0.403915 0.012857 0.600083 1 2.33789e-08 1 2.33789e-08 1.26218e-29
227 1 8.83 21.192 1.766 -4.44936 195680 197937 159260 1618.49 -11071.5 5777.5 12 11.0154 0.190941 0.574524 0.403915 0.012857 0.600083 1 0 1 0 0
228 1 7.064 22.958 1.766 -4.44936 185396 196579 197150 5430.33 -4673.47 1895.9 12 11.0154 0.190941 0.574524 0.403915 0.012857 0.600083 1 0 1 0 0
229 1 10.596 21.192 0 -4.44936 197728 153407 178473 -6914.6 -4625.97 -30356.5 12 11.0154 0.190941 0.574524 0.403915 0.012857 0.600083 1 0 1 0 1.26218e-29
230 1 12.362 22.958 0 -4.44936 178406 162624 196223 -27143.1 7221.14 9619.47 12 11.0154 0.190941 0.574524 0.403915 0.012857 0.600083 1 2.33789e-08 1 2.33789e-08 1.26218e-29
231 1 12.362 21.192 1.766 -4.44936 192493 197257 163723 3096.74 -14849.2 7311.42 12 11.0154 0.190941 0.574524 0.403915 0.012857 0.600083 1 0 1 0 0
232 1 10.596 22.958 1.766 -4.44936 126929 187570 143603 -28383.1 -62966.7 -24872.7 12 11.0154 0.190941 0.574524 0.403915 0.012857 0.600083 1 0 1 0 0
233 1 14.128 21.192 0 -4.44936 134375 194546 198731 -16516.9 -1818.98 -466.465 12 11.0154 0.190941 0.574524 0.403915 0.012857 0.600083 1 1.16894e-08 1 1.16894e-08 1.26218e-29
234 1 15.894 22.958 0 -4.44936 171805 56284.3 130225 62001 43005.2 -98839.3 12 11.0154 0.190941 0.574524 0.403915 0.012857 0.600083 1 2.33789e-08 1 2.33789e-08 1.26218e-29
235 1 15.894 21.192 1.766 -4.44936 175468 142485 88981 36228.3 50595.1 -78622.4 12 11.0154 0.190941 0.574524 0.403915 0.012857 0.600083 1 1.65314e-08 1 1.65314e-08 0
236 1 14.128 22.958 1.766 -4.44936 194682 166891 186296 -11435.3 7155.11 19954.6 12 11.0154 0.190941 0.574524 0.403915 0.012857 0.600083 1 0 1 0 0
237 1 17.66 21.192 0 -4.44936 197604 196850 195967 -1508.42 1820.56 2331.97 12 11.0154 0.190941 0.574524 0.403915 0.012857 0.600083 1 2.86331e-08 1 2.86331e-08 1.26218e-29
238 1 19.426 22.958 0 -4.44936 197381 173950 177308 -5898.24 -5484.91 -23092 12 11.0154 0.190941 0.574524 0.403915 0.012857 0.600083 1 2.33789e-08 1 2.33789e-08 1.26218e-29
239 1 19.426 21.192 1.766 -4.44936 144485 178851 197743 -32896.4 7509.39 4549.69 12 11.0154 0.190941 0.574524 0.403915 0.012857 0.600083 1 2.02467e-08 1 2.02467e-08 0
240 1 17.66 22.958 1.766 -4.44936 197429 198736 161759 -248.461 -7076.65 -1299.87 12 11.0154 0.190941 0.574524 0.403915 0.012857 0.600083 1 2.33789e-08 1 2.33789e-08 0
241 1 21.192 21.192 0 -4.44936 97932.9 139222 189978 77502.2 29796.3 -22898.4 12 11.0154 0.190941 0.574524 0.403915 0.012857 0.600083 1 1.16894e-08 1 1.16894e-08 1.26218e-29
242 1 22.958 22.958 0 -4.44936 145776 181486 141081 30278.7 -55304 31591.2 12 11.0154 0.190941 0.574524 0.403915 0.012857 0.600083 1 0 1 0 1.26218e-29
243 1 22.958 21.192 1.766 -4.44936 56614.6 140862 198781 90743.5 -318.18 203.09 12 11.0154 0.190941 0.574524 0.403915 0.012857 0.600083 1 1.65314e-08 1 1.65314e-08 0
244 1 21.192 22.958 1.766 -4.44936 197808 172455 197034 5063.51 -1304.66 6783.4 12 11.0154 0.190941 0.574524 0.403915 0.012857 0.600083 1 1.16894e-08 1 1.16894e-08 0
245 1 24.724 21.192 0 -4.44936 150082 178100 192931 31736.5 -16879.5 10999.9 12 11.0154 0.190941 0.574524 0.403915 0.012857 0.600083 1 0 1 0 1.26218e-29
246 1 26.49 22.958 0 -4.44936 135272 197396 198170 -9382.91 6234.6 921.1 12 11.0154 0.190941 0.574524 0.403915 0.012857 0.600083 1 2.61384e-08 1 2.61384e-08 1.26218e-29
247 1 26.49 21.192 1.766 -4.44936 145967 82260 68959.2 78448.4 82804.8 -122993 12 11.0154 0.190941 0.574524 0.403915 0.012857 0.600083 1 1.65314e-08 1 1.65314e-08 0
248 1 24.724 22.958 1.766 -4.44936 198768 191798 172726 -306.741 592.49 13489.5 12 11.0154 0.190941 0.574524 0.403915 0.012857 0.600083 1 2.61384e-08 1 2.61384e-08 0
249 1 28.256 21.192 0 -4.44936 198734 190337 189079 633.433 678.983 -9052.34 12 11.0154 0.190941 0.574524 0.403915 0.012857 0.600083 1 1.65314e-08 1 1.65314e-08 1.26218e-29
250 1 30.022 22.958 0 -4.44936 182233 169715 197798 21932.6 4034.94 -5347.48 12 11.0154 0.190941 0.574524 0.403915 0.012857 0.600083 1 2.86331e-08 1 2.86331e-08 1.26218e-29
251 1 30.022 21.192 1.766 -4.44936 189905 198696 184695 -873.558 11182.4 1100.43 12 11.0154 0.190941 0.574524 0.403915 0.012857 0.600083 1 0 1 0 0
252 1 28.256 22.958 1.766 -4.44936 183475 189508 182496 -11914.6 15788.6 12289.6 12 11.0154 0.190941 0.574524 0.403915 0.012857 0.600083 1 2.02467e-08 1 2.02467e-08 0
253 1 0 24.724 0 -4.44936 192541 175189 186300 -12134.6 -8826.31 -17160.4 12 11.0154 0.190941 0.574524 0.403915 0.012857 0.600083 1 2.33789e-08 1 2.33789e-08 2.52435e-29
254 1 1.766 26.49 0 -4.44936 197933 156229 195488 6011.15 -1672.52 11839.6 12 11.0154 0.190941 0.574524 0.403915 0.012857 0.600083 1 2.33789e-08 1 2.33789e-08 1.26218e-29
255 1 1.766 24.724 1.766 -4.44936 198484 198782 198172 10.7954 -426.718 15.4362 12 11.0154 0.190941 0.574524 0.403915 0.012857 0.600083 1 1.65314e-08 1 1.65314e-08 0
256 1 0 26.49 1.766 -4.44936 127450 -234789 -67308.8 175862 137770 -339661 12 11.0154 0.190941 0.574524 0.403915 0.012857 0.600083 1 2.33789e-08 1 2.33789e-08 1.26218e-29
257 1 3.532 24.724 0 -4.44936 144559 198761 198778 -1061.59 -446.231 -8.73635 12 11.0154 0.190941 0.574524 0.403915 0.012857 0.600083 1 2.33789e-08 1 2.33789e-08 1.26218e-29
258 1 5.298 26.49 0 -4.44936 196738 190251 137485 4175.3 11192.1 -22867.2 12 11.0154 0.190941 0.574524 0.403915 0.012857 0.600083 1 1.65314e-08 1 1.65314e-08 1.26218e-29
259 1 5.298 24.724 1.766 -4.44936 198320 197389 183782 802.665 -2633.7 4571.35 12 11.0154 0.190941 0.574524 0.403915 0.012857 0.600083 1 2.86331e-08 1 2.86331e-08 0
260 1 3.532 26.49 1.766 -4.44936 81853.2 181648 198607 -44760.6 4527.51 1733.14 12 11.0154 0.190941 0.574524 0.403915 0.012857 0.600083 1 2.33789e-08 1 2.33789e-08 0
261 1 7.064 24.724 0 -4.44936 198742 197180 177908 254.18 917.552 -5782.51 12 11.0154 0.190941 0.574524 0.403915 0.012857 0.600083 1 2.33789e-08 1 2.33789e-08 1.26218e-29
262 1 8.83 26.49 0 -4.44936 166301 160253 60141.6 -35375.8 -67105.4 -73086.7 12 11.0154 0.190941 0.574524 0.403915 0.012857 0.600083 1 2.86331e-08 1 2.86331e-08 1.26218e-29
263 1 8.83 24.724 1.766 -4.44936 25449.3 190069 197210 -38861.3 16506.2 3700.7 12 11.0154 0.190941 0.574524 0.403915 0.012857 0.600083 1 2.86331e-08 1 2.86331e-08 0
264 1 7.064 26.49 1.766 -4.44936 197561 159158 52508.7 -6956.64 -13366 -76131 12 11.0154 0.190941 0.574524 0.403915 0.012857 0.600083 1 1.65314e-08 1 1.65314e-08 0
265 1 10.596 24.724 0 -4.44936 193565 198780 194888 92.7227 -4507.04 80.104 12 11.0154 0.190941 0.574524 0.403915 0.012857 0.600083 1 2.61384e-08 1 2.61384e-08 1.26218e-29
266 1 12.362 26.49 0 -4.44936 193782 189975 63510.9 -6635.79 26006 34516.3 12 11.0154 0.190941 0.574524 0.403915 0.012857 0.600083 1 1.65314e-08 1 1.65314e-08 1.26218e-29
267 1 12.362 24.724 1.766 -4.44936 158671 188422 196724 -20384.8 -9085.46 -4617.32 12 11.0154 0.190941 0.574524 0.403915 0.012857 0.600083 1 2.86331e-08 1 2.86331e-08 0
268 1 10.596 26.49 1.766 -4.44936 191670 49909.6 198653 32538 -957.312 4380.03 12 11.0154 0.190941 0.574524 0.403915 0.012857 0.600083 1 2.33789e-08 1 2.33789e-08 0
269 1 14.128 24.724 0 -4.44936 146896 195158 195344 -13711.6 13356.1 3529.59 12 11.0154 0.190941 0.574524 0.403915 0.012857 0.600083 1 2.33789e-08 1 2.33789e-08 1.26218e-29
270 1 15.894 26.49 0 -4.44936 162967 172941 188728 -30422.1 18975.8 16118.6 12 11.0154 0.190941 0.574524 0.403915 0.012857 0.600083 1 2.86331e-08 1 2.86331e-08 1.26218e-29
271 1 15.894 24.724 1.766 -4.44936 193588 198206 105271 1729.81 22038 -7339.9 12 11.0154 0.190941 0.574524 0.403915 0.012857 0.600083 1 2.86331e-08 1 2.86331e-08 0
272 1 14.128 26.49 1.766 -4.44936 182607 187623 133233 -13434.5 32561.2 27045.1 12 11.0154 0.190941 0.574524 0.403915 0.012857 0.600083 1 2.33789e-08 1 2.33789e-08 0
273 1 17.66 24.724 0 -4.44936 177202 196709 115216 6687.78 -42465.9 13160.4 12 11.0154 0.190941 0.574524 0.403915 0.012857 0.600083 1 3.30627e-08 1 3.30627e-08 1.26218e-29
274 1 19.426 26.49 0 -4.44936 99198.9 194748 -84922.3 -20043.4 -168084 -33830.7 12 11.0154 0.190941 0.574524 0.403915 0.012857 0.600083 1 2.33789e-08 1 2.33789e-08 1.26218e-29
275 1 19.426 24.724 1.766 -4.44936 89959.3 196673 91813.6 -15150.8 -107892 -15021.1 12 11.0154 0.190941 0.574524 0.403915 0.012857 0.600083 1 2.86331e-08 1 2.86331e-08 0
276 1 17.66 26.49 1.766 -4.44936 127405 138785 189252 65440 26080.8 -23911.3 12 11.0154 0.190941 0.574524 0.403915 0.012857 0.600083 1 2.33789e-08 1 2.33789e-08 0
277 1 21.192 24.724 0 -4.44936 176347 72552.5 198553 53216.1 2268.58 -5381.11 12 11.0154 0.190941 0.574524 0.403915 0.012857 0.600083 1 2.61384e-08 1 2.61384e-08 1.26218e-29
278 1 22.958 26.49 0 -4.44936 192519 148149 197193 17808.1 3154.6 -8969.34 12 11.0154 0.190941 0.574524 0.403915 0.012857 0.600083 1 0 1 0 1.26218e-29
279 1 22.958 24.724 1.766 -4.44936 -103217 172944 196341 88334.6 27153 -7942.25 12 11.0154 0.190941 0.574524 0.403915 0.012857 0.600083 1 1.65314e-08 1 1.65314e-08 0
280 1 21.192 26.49 1.766 -4.44936 194810 131364 190917 -16363 -5588.94 -23027.2 12 11.0154 0.190941 0.574524 0.403915 0.012857 0.600083 1 1.65314e-08 1 1.65314e-08 0
281 1 24.724 24.724 0 -4.44936 133835 196861 149270 11168.3 -56706.5 9751.32 12 11.0154 0.190941 0.574524 0.403915 0.012857 0.600083 1 3.09273e-08 1 3.09273e-08 1.26218e-29
282 1 26.49 26.49 0 -4.44936 -13775.7 105105 181387 -141109 -60806.2 -40367 12 11.0154 0.190941 0.574524 0.403915 0.012857 0.600083 1 2.86331e-08 1 2.86331e-08 1.26218e-29
283 1 26.49 24.724 1.766 -4.44936 190698 177745 196523 -13040.3 -4273.54 -6894.06 12 11.0154 0.190941 0.574524 0.403915 0.012857 0.600083 1 2.86331e-08 1 2.86331e-08 0
284 1 24.724 26.49 1.766 -4.44936 190304 110383 170768 27375.3 -15410.7 49763.9 12 11.0154 0.190941 0.574524 0.403915 0.012857 0.600083 1 2.86331e-08 1 2.86331e-08 0
285 1 28.256 24.724 0 -4.44936 167036 191479 65654.7 15226.3 -65010 31180.3 12 11.0154 0.190941 0.574524 0.403915 0.012857 0.600083 1 2.61384e-08 1 2.61384e-08 1.26218e-29
286 1 30.022 26.49 0 -4.44936 197438 198711 110795 308.269 10872.9 -2494.62 12 11.0154 0.190941 0.574524 0.403915 0.012857 0.600083 1 2.02467e-08 1 2.02467e-08 1.26218e-29
287 1 30.022 24.724 1.766 -4.44936 130072 155389 197581 54603.7 9082.08 -7217.51 12 11.0154 0.190941 0.574524 0.403915 0.012857 0.600083 1 1.16894e-08 1 1.16894e-08 0
288 1 28.256 26.49 1.766 -4.44936 186578 114444 192867 32081.7 -8496.37 22335.8 12 11.0154 0.190941 0.574524 0.403915 0.012857 0.600083 1 1.16894e-08 1 1.16894e-08 0
289 1 0 28.256 0 -4.44936 195967 194187 198775 3596.38 -142.288 181.783 12 11.0154 0.190941 0.574524 0.403915 0.012857 0.600083 1 1.65314e-08 1 1.65314e-08 2.52435e-29
290 1 1.766 30.022 0 -4.44936 96521.3 187805 191397 -33504 27481 9003.71 12 11.0154 0.190941 0.574524 0.403915 0.012857 0.600083 1 2.02467e-08 1 2.02467e-08 1.26218e-29
291 1 1.766 28.256 1.766 -4.44936 196361 123503 188233 13500.3 5053.83 -28180.6 12 11.0154 0.190941 0.574524 0.403915 0.012857 0.600083 1 0 1 0 0
292 1 0 30.022 1.766 -4.44936 175443 91046.7 181439 -50144.1 20118.7 43225.4 12 11.0154 0.190941 0.574524 0.403915 0.012857 0.600083 1 2.61384e-08 1 2.61384e-08 1.26218e-29
293 1 3.532 28.256 0 -4.44936 8970.63 197597 198781 15000.2 -482.216 38.108 12 11.0154 0.190941 0.574524 0.403915 0.012857 0.600083 1 1.65314e-08 1 1.65314e-08 1.26218e-29
294 1 5.298 30.022 0 -4.44936 195567 103418 99922.5 -17510.2 17828.3 97095.8 12 11.0154 0.190941 0.574524 0.403915 0.012857 0.600083 1 2.61384e-08 1 2.61384e-08 1.26218e-29
295 1 5.298 28.256 1.766 -4.44936 192325 198066 153261 2149.62 17144 -5707.76 12 11.0154 0.190941 0.574524 0.403915 0.012857 0.600083 1 0 1 0 0
296 1 3.532 30.022 1.766 -4.44936 163287 129591 76994.9 49557.2 65747.9 -91796.5 12 11.0154 0.190941 0.574524 0.403915 0.012857 0.600083 1 0 1 0 0
297 1 7.064 28.256 0 -4.44936 194472 120307 110673 18391.4 -19487.6 83152.1 12 11.0154 0.190941 0.574524 0.403915 0.012857 0.600083 1 1.65314e-08 1 1.65314e-08 1.26218e-29
298 1 8.83 30.022 0 -4.44936 141460 154144 174944 -50584.2 -36965.4 -32620.3 12 11.0154 0.190941 0.574524 0.403915 0.012857 0.600083 1 2.33789e-08 1 2.33789e-08 1.26218e-29
299 1 8.83 28.256 1.766 -4.44936 -51837.8 196415 46261.3 24357.2 195511 -19001.3 12 11.0154 0.190941 0.574524 0.403915 0.012857 0.600083 1 0 1 0 0
300 1 7.064 30.022 1.766 -4.44936 196104 155784 157987 -10730.7 -10452.3 -41882.1 12 11.0154 0.190941 0.574524 0.403915 0.012857 0.600083 1 1.65314e-08 1 1.65314e-08 0
301 1 10.596 28.256 0 -4.44936 188885 108000 19863 29974.9 -42081 127446 12 11.0154 0.190941 0.574524 0.403915 0.012857 0.600083 1 1.65314e-08 1 1.65314e-08 1.26218e-29
302 1 12.362 30.022 0 -4.44936 197948 194011 198541 -1994.25 448.508 1072.95 12 11.0154 0.190941 0.574524 0.403915 0.012857 0.600083 1 2.02467e-08 1 2.02467e-08 1.26218e-29
303 1 12.362 28.256 1.766 -4.44936 117637 171922 122049 -46685.9 78907.9 45398.9 12 11.0154 0.190941 0.574524 0.403915 0.012857 0.600083 1 1.16894e-08 1 1.16894e-08 0
304 1 10.596 30.022 1.766 -4.44936 194540 143191 -16149.5 -15356.9 30196.1 109308 12 11.0154 0.190941 0.574524 0.403915 0.012857 0.600083 1 2.33789e-08 1 2.33789e-08 0
305 1 14.128 28.256 0 -4.44936 101648 150019 173892 -68822.8 -49169.4 -34838.1 12 11.0154 0.190941 0.574524 0.403915 0.012857 0.600083 1 1.65314e-08 1 1.65314e-08 1.26218e-29
306 1 15.894 30.022 0 -4.44936 187419 175175 -5308.03 16377.8 48155.8 -69411 12 11.0154 0.190941 0.574524 0.403915 0.012857 0.600083 1 2.33789e-08 1 2.33789e-08 1.26218e-29
307 1 15.894 28.256 1.766 -4.44936 193850 107762 198006 -21188.2 -1956.22 -8403.49 12 11.0154 0.190941 0.574524 0.403915 0.012857 0.600083 1 1.16894e-08 1 1.16894e-08 0
308 1 14.128 30.022 1.766 -4.44936 -8508.18 189476 115182 43921.7 -131642 27892.9 12 11.0154 0.190941 0.574524 0.403915 0.012857 0.600083 1 0 1 0 0
309 1 17.66 28.256 0 -4.44936 191113 194348 141954 -5831.58 20876.3 15874.3 12 11.0154 0.190941 0.574524 0.403915 0.012857 0.600083 1 2.33789e-08 1 2.33789e-08 1.26218e-29
310 1 19.426 30.022 0 -4.44936 153531 198535 184106 3345.18 -25770.6 1905.08 12 11.0154 0.190941 0.574524 0.403915 0.012857 0.600083 1 2.61384e-08 1 2.61384e-08 1.26218e-29
311 1 19.426 28.256 1.766 -4.44936 -61564.2 182190 185534 65724.7 58727.7 -14825.9 12 11.0154 0.190941 0.574524 0.403915 0.012857 0.600083 1 1.16894e-08 1 1.16894e-08 0
312 1 17.66 30.022 1.766 -4.44936 12938.2 192919 161208 -33009.8 -83564 -14842.7 12 11.0154 0.190941 0.574524 0.403915 0.012857 0.600083 1 2.61384e-08 1 2.61384e-08 0
313 1 21.192 28.256 0 -4.44936 183718 135905 180245 30776.3 16710.7 -34140.2 12 11.0154 0.190941 0.574524 0.403915 0.012857 0.600083 1 1.16894e-08 1 1.16894e-08 1.26218e-29
314 1 22.958 30.022 0 -4.44936 154764 198187 182213 -5116.87 -27006.3 -3139.37 12 11.0154 0.190941 0.574524 0.403915 0.012857 0.600083 1 1.65314e-08 1 1.65314e-08 1.26218e-29
315 1 22.958 28.256 1.766 -4.44936 62524 193290 193940 -27356.6 -25686.8 -5157.16 12 11.0154 0.190941 0.574524 0.403915 0.012857 0.600083 1 1.16894e-08 1 1.16894e-08 0
316 1 21.192 30.022 1.766 -4.44936 110879 158202 128854 59725.6 78402.1 -53270.1 12 11.0154 0.190941 0.574524 0.403915 0.012857 0.600083 1 1.65314e-08 1 1.65314e-08 0
317 1 24.724 28.256 0 -4.44936 184731 164114 127773 -22071 31587.4 49616.2 12 11.0154 0.190941 0.574524 0.403915 0.012857 0.600083 1 0 1 0 1.26218e-29
318 1 26.49 30.022 0 -4.44936 169772 144909 197430 39533.1 6262.03 -8533.51 12 11.0154 0.190941 0.574524 0.403915 0.012857 0.600083 1 2.61384e-08 1 2.61384e-08 1.26218e-29
319 1 26.49 28.256 1.766 -4.44936 193296 37750.1 184340 29721.2 -8900.65 48224.4 12 11.0154 0.190941 0.574524 0.403915 0.012857 0.600083 1 1.16894e-08 1 1.16894e-08 0
320 1 24.724 30.022 1.766 -4.44936 198580 78091.8 183787 4934.46 -1739.33 42541.6 12 11.0154 0.190941 0.574524 0.403915 0.012857 0.600083 1 1.65314e-08 1 1.65314e-08 0
321 1 28.256 28.256 0 -4.44936 153691 132071 198159 54845.9 -5300.79 6447.55 12 11.0154 0.190941 0.574524 0.403915 0.012857 0.600083 1 1.16894e-08 1 1.16894e-08 1.26218e-29
322 1 30.022 30.022 0 -4.44936 54070.1 198782 139630 148.441 -92519.8 94.9038 12 11.0154 0.190941 0.574524 0.403915 0.012857 0.600083 1 2.02467e-08 1 2.02467e-08 1.26218e-29
323 1 30.022 28.256 1.766 -4.44936 190167 198733 169392 652.121 -15911.6 1204.52 12 11.0154 0.190941 0.574524 0.403915 0.012857 0.600083 1 0 1 0 0
324 1 28.256 30.022 1.766 -4.44936 124245 190845 185048 -24322.1 31995.5 10440.5 12 11.0154 0.190941 0.574524 0.403915 0.012857 0.600083 1 1.16894e-08 1 1.16894e-08 0
325 1 0 0 3.532 -4.44936 188532 198231 142558 2376.88 -24005.5 5566.93 12 11.0154 0.190941 0.574524 0.403915 0.012857 0.600083 1 1.16894e-08 1 1.16894e-08 2.52435e-29
326 1 1.766 1.766 3.532 -4.44936 176230 196760 197940 -6753.28 4357.57 1304.9 12 11.0154 0.190941 0.574524 0.403915 0.012857 0.600083 1 1.65314e-08 1 1.65314e-08 0
327 1 1.766 0 5.298 -4.44936 185999 198731 154561 -807.618 -23775.2 -1502.13 12 11.0154 0.190941 0.574524 0.403915 0.012857 0.600083 1 2.02467e-08 1 2.02467e-08 1.26218e-29
328 1 0 1.766 5.298 -4.44936 47500.9 180609 198354 -52433.3 8050.25 2790.18 12 11.0154 0.190941 0.574524 0.403915 0.012857 0.600083 1 1.65314e-08 1 1.65314e-08 1.26218e-29
329 1 3.532 0 3.532 -4.44936 80254.4 174432 197621 53723.3 11729 -5316.25 12 11.0154 0.190941 0.574524 0.403915 0.012857 0.600083 1 1.65314e-08 1 1.65314e-08 1.26218e-29
330 1 5.298 1.766 3.532 -4.44936 91792.4 156363 178492 67367.7 46592.3 -29337.6 12 11.0154 0.190941 0.574524 0.403915 0.012857 0.600083 1 1.65314e-08 1 1.65314e-08 0
331 1 5.298 0 5.298 -4.44936 197124 -17005.8 104605 18913.7 -12495 142556 12 11.0154 0.190941 0.574524 0.403915 0.012857 0.600083 1 2.33789e-08 1 2.33789e-08 1.26218e-29
332 1 3.532 1.766 5.298 -4.44936 86887.4 193711 195163 23819.7 -20122.1 4283.52 12 11.0154 0.190941 0.574524 0.403915 0.012857 0.600083 1 1.65314e-08 1 1.65314e-08 0
333 1 7.064 0 3.532 -4.44936 163487 173428 193456 -29914.4 -13710.9 -11620.6 12 11.0154 0.190941 0.574524 0.403915 0.012857 0.600083 1 1.65314e-08 1 1.65314e-08 1.26218e-29
334 1 8.83 1.766 3.532 -4.44936 169136 165008 136885 31642.6 42836.8 -45722 12 11.0154 0.190941 0.574524 0.403915 0.012857 0.600083 1 1.65314e-08 1 1.65314e-08 0
335 1 8.83 0 5.298 -4.44936 185059 198115 196003 -3025.9 6175.26 1361.66 12 11.0154 0.190941 0.574524 0.403915 0.012857 0.600083 1 2.33789e-08 1 2.33789e-08 1.26218e-29
336 1 7.064 1.766 5.298 -4.44936 196402 156281 60139 -10056.7 -18163.8 -76762.2 12 11.0154 0.190941 0.574524 0.403915 0.012857 0.600083 1 1.65314e-08 1 1.65314e-08 0
337 1 10.596 0 3.532 -4.44936 190074 -1520.51 165824 -41764.3 -16941.1 -81249.7 12 11.0154 0.190941 0.574524 0.403915 0.012857 0.600083 1 1.65314e-08 1 1.65314e-08 1.26218e-29
338 1 12.362 1.766 3.532 -4.44936 198645 -111157 191861 -6505.33 972.082 46313.7 12 11.0154 0.190941 0.574524 0.403915 0.012857 0.600083 1 1.65314e-08 1 1.65314e-08 0
339 1 12.362 0 5.298 -4.44936 120587 176594 -33075 -41653.3 -134648 -71725 12 11.0154 0.190941 0.574524 0.403915 0.012857 0.600083 1 1.65314e-08 1 1.65314e-08 1.26218e-29
340 1 10.596 1.766 5.298 -4.44936 169939 114198 197634 49393 5753.61 -9852.85 12 11.0154 0.190941 0.574524 0.403915 0.012857 0.600083 1 1.65314e-08 1 1.65314e-08 0
341 1 14.128 0 3.532 -4.44936 159344 184599 191406 -23650.8 -17055.7 -10228.3 12 11.0154 0.190941 0.574524 0.403915 0.012857 0.600083 1 1.65314e-08 1 1.65314e-08 1.26218e-29
342 1 15.894 1.766 3.532 -4.44936 191164 122525 179598 24101.8 -12088.7 38247.9 12 11.0154 0.190941 0.574524 0.403915 0.012857 0.600083 1 1.65314e-08 1 1.65314e-08 0
343 1 15.894 0 5.298 -4.44936 160875 193379 139261 -14311.7 -47500 -17933.5 12 11.0154 0.190941 0.574524 0.403915 0.012857 0.600083 1 2.02467e-08 1 2.02467e-08 1.26218e-29
344 1 14.128 1.766 5.298 -4.44936 160104 145715 193181 45304.6 14718.4 -17240.3 12 11.0154 0.190941 0.574524 0.403915 0.012857 0.600083 1 1.65314e-08 1 1.65314e-08 0
345 1 17.66 0 3.532 -4.44936 167700 193128 196594 -13256.9 -8246.68 -3517.29 12 11.0154 0.190941 0.574524 0.403915 0.012857 0.600083 1 2.61384e-08 1 2.61384e-08 1.26218e-29
346 1 19.426 1.766 3.532 -4.44936 165272 198486 196257 3151.61 -9197.84 865.059 12 11.0154 0.190941 0.574524 0.403915 0.012857 0.600083 1 1.65314e-08 1 1.65314e-08 0
347 1 19.426 0 5.298 -4.44936 167175 183245 193184 22160.5 -13302.2 9326.38 12 11.0154 0.190941 0.574524 0.403915 0.012857 0.600083 1 1.16894e-08 1 1.16894e-08 1.26218e-29
348 1 17.66 1.766 5.298 -4.44936 159032 187006 167322 -21635.2 35362.5 19247.4 12 11.0154 0.190941 0.574524 0.403915 0.012857 0.600083 1 2.33789e-08 1 2.33789e-08 0
349 1 21.192 0 3.532 -4.44936 196828 184540 182486 -5274.81 5642.34 15234.1 12 11.0154 0.190941 0.574524 0.403915 0.012857 0.600083 1 1.16894e-08 1 1.16894e-08 1.26218e-29
350 1 22.958 1.766 3.532 -4.44936 197770 145304 175430 7357.21 -4861.66 35338.6 12 11.0154 0.190941 0.574524 0.403915 0.012857 0.600083 1 1.65314e-08 1 1.65314e-08 0
351 1 22.958 0 5.298 -4.44936 194593 173687 161132 -10253.3 12558.9 30737.9 12 11.0154 0.190941 0.574524 0.403915 0.012857 0.600083 1 2.86331e-08 1 2.86331e-08 1.26218e-29
352 1 21.192 1.766 5.298 -4.44936 174864 179854 122847 -21277.2 -42617.1 -37911.7 12 11.0154 0.190941 0.574524 0.403915 0.012857 0.600083 1 0 1 0 0
353 1 24.724 0 3.532 -4.44936 123405 119347 198775 77379.6 -703.998 722.7 12 11.0154 0.190941 0.574524 0.403915 0.012857 0.600083 1 2.33789e-08 1 2.33789e-08 1.26218e-29
354 1 26.49 1.766 3.532 -4.44936 181575 145559 141003 -30262.1 31530.9 55454.3 12 11.0154 0.190941 0.574524 0.403915 0.012857 0.600083 1 2.33789e-08 1 2.33789e-08 0
355 1 26.49 0 5.298 -4.44936 134632 164325 196659 47014.9 11669.6 -8552.54 12 11.0154 0.190941 0.574524 0.403915 0.012857 0.600083 1 2.33789e-08 1 2.33789e-08 1.26218e-29
356 1 24.724 1.766 5.298 -4.44936 198635 96734.1 198646 -3872.62 141.454 3727.49 12 11.0154 0.190941 0.574524 0.403915 0.012857 0.600083 1 1.16894e-08 1 1.16894e-08 0
357 1 28.256 0 3.532 -4.44936 191805 169866 193477 14203.9 6083.78 -12385.3 12 11.0154 0.190941 0.574524 0.403915 0.012857 0.600083 1 0 1 0 1.26218e-29
358 1 30.022 1.766 3.532 -4.44936 171488 127260 174982 44182.5 25487.2 -41258.3 12 11.0154 0.190941 0.574524 0.403915 0.012857 0.600083 1 1.65314e-08 1 1.65314e-08 0
359 1 30.022 0 5.298 -4.44936 90520.7 168311 54679.1 -57435.6 124903 66264.5 12 11.0154 0.190941 0.574524 0.403915 0.012857 0.600083 1 2.86331e-08 1 2.86331e-08 1.26218e-29
360 1 28.256 1.766 5.298 -4.44936 184286 192510 194305 9535.41 -8056.21 5299.39 12 11.0154 0.190941 0.574524 0.403915 0.012857 0.600083 1 0 1 0 0
361 1 0 3.532 3.532 -4.44936 189731 169384 156601 16312.2 19539.3 -35214.3 12 11.0154 0.190941 0.574524 0.403915 0.012857 0.600083 1 1.65314e-08 1 1.65314e-08 1.26218e-29
362 1 1.766 5.298 3.532 -4.44936 128719 186683 187608 -29114.7 -27980.5 -11627.4 12 11.0154 0.190941 0.574524 0.403915 0.012857 0.600083 1 1.65314e-08 1 1.65314e-08 0
363 1 1.766 3.532 5.298 -4.44936 191277 169588 101167 14802.3 -27066.8 53383.6 12 11.0154 0.190941 0.574524 0.403915 0.012857 0.600083 1 1.65314e-08 1 1.65314e-08 0
364 1 0 5.298 5.298 -4.44936 184546 193482 197884 -8685.91 -3575.13 -2181.36 12 11.0154 0.190941 0.574524 0.403915 0.012857 0.600083 1 1.65314e-08 1 1.65314e-08 1.26218e-29
365 1 3.532 3.532 3.532 -4.44936 163807 156027 194781 38670.1 -11829.9 13079.7 12 11.0154 0.190941 0.574524 0.403915 0.012857 0.600083 1 1.65314e-08 1 1.65314e-08 0
366 1 5.298 5.298 3.532 -4.44936 198513 186065 134762 -1849 -4148.53 -28533.6 12 11.0154 0.190941 0.574524 0.403915 0.012857 0.600083 1 1.65314e-08 1 1.65314e-08 0
367 1 5.298 3.532 5.298 -4.44936 131884 91483.3 168996 -84723.5 -44639 -56533.3 12 11.0154 0.190941 0.574524 0.403915 0.012857 0.600083 1 1.65314e-08 1 1.65314e-08 0
368 1 3.532 5.298 5.298 -4.44936 178266 -87670.2 171492 76659.9 23661.7 -88415.9 12 11.0154 0.190941 0.574524 0.403915 0.012857 0.600083 1 1.65314e-08 1 1.65314e-08 0
369 1 7.064 3.532 3.532 -4.44936 124181 160392 196949 -53515.9 -11693.3 -8388.32 12 11.0154 0.190941 0.574524 0.403915 0.012857 0.600083 1 1.65314e-08 1 1.65314e-08 0
370 1 8.83 5.298 3.532 -4.44936 198520 62567.8 142831 5970.96 -3826.81 87300.3 12 11.0154 0.190941 0.574524 0.403915 0.012857 0.600083 1 1.65314e-08 1 1.65314e-08 0
371 1 8.83 3.532 5.298 -4.44936 164443 186831 165534 -20257.8 33789.3 19933.4 12 11.0154 0.190941 0.574524 0.403915 0.012857 0.600083 1 1.65314e-08 1 1.65314e-08 0
372 1 7.064 5.298 5.298 -4.44936 198633 154686 197795 2567.1 384.117 -6598.07 12 11.0154 0.190941 0.574524 0.403915 0.012857 0.600083 1 1.65314e-08 1 1.65314e-08 0
373 1 10.596 3.532 3.532 -4.44936 143898 198467 190465 4159.09 -21364.4 1619 12 11.0154 0.190941 0.574524 0.403915 0.012857 0.600083 1 1.65314e-08 1 1.65314e-08 0
374 1 12.362 5.298 3.532 -4.44936 39428.3 198766 134120 -1575.1 101509 1003.35 12 11.0154 0.190941 0.574524 0.403915 0.012857 0.600083 1 1.65314e-08 1 1.65314e-08 0
375 1 12.362 3.532 5.298 -4.44936 187108 190137 177428 -10045.8 15788.8 13586.5 12 11.0154 0.190941 0.574524 0.403915 0.012857 0.600083 1 1.65314e-08 1 1.65314e-08 0
376 1 10.596 5.298 5.298 -4.44936 186565 144508 -44138.6 25749.7 54476.3 -114823 12 11.0154 0.190941 0.574524 0.403915 0.012857 0.600083 1 1.65314e-08 1 1.65314e-08 0
377 1 14.128 3.532 3.532 -4.44936 139273 196130 198608 -12561.7 -3221.27 -679.976 12 11.0154 0.190941 0.574524 0.403915 0.012857 0.600083 1 1.65314e-08 1 1.65314e-08 0
378 1 15.894 5.298 3.532 -4.44936 51945.6 198620 122626 -4871.91 -105747 -3508.6 12 11.0154 0.190941 0.574524 0.403915 0.012857 0.600083 1 1.65314e-08 1 1.65314e-08 0
379 1 15.894 3.532 5.298 -4.44936 198316 163726 183827 -4042.22 2640.15 22896.4 12 11.0154 0.190941 0.574524 0.403915 0.012857 0.600083 1 1.65314e-08 1 1.65314e-08 0
380 1 14.128 5.298 5.298 -4.44936 172279 160442 167167 31876.6 -28946.4 34815.8 12 11.0154 0.190941 0.574524 0.403915 0.012857 0.600083 1 1.65314e-08 1 1.65314e-08 0
381 1 17.66 3.532 3.532 -4.44936 154469 197602 161093 -7231.67 -40866.9 -6669.28 12 11.0154 0.190941 0.574524 0.403915 0.012857 0.600083 1 2.61384e-08 1 2.61384e-08 0
382 1 19.426 5.298 3.532 -4.44936 196817 179134 195812 -6213.2 -2415.73 -7639.13 12 11.0154 0.190941 0.574524 0.403915 0.012857 0.600083 1 1.65314e-08 1 1.65314e-08 0
383 1 19.426 3.532 5.298 -4.44936 143896 181814 172321 30516.9 -38109.2 21188.9 12 11.0154 0.190941 0.574524 0.403915 0.012857 0.600083 1 2.33789e-08 1 2.33789e-08 0
384 1 17.66 5.298 5.298 -4.44936 196641 189839 147176 4375.94 -10511.7 21483.1 12 11.0154 0.190941 0.574524 0.403915 0.012857 0.600083 1 1.65314e-08 1 1.65314e-08 0
385 1 21.192 3.532 3.532 -4.44936 115401 198764 168570 -1226.65 -50190.5 -738.374 12 11.0154 0.190941 0.574524 0.403915 0.012857 0.600083 1 1.16894e-08 1 1.16894e-08 0
386 1 22.958 5.298 3.532 -4.44936 150771 173965 187696 -34517.8 23070.3 16586.7 12 11.0154 0.190941 0.574524 0.403915 0.012857 0.600083 1 1.16894e-08 1 1.16894e-08 0
387 1 22.958 3.532 5.298 -4.44936 181731 198702 198752 1168.29 710.58 -48.6862 12 11.0154 0.190941 0.574524 0.403915 0.012857 0.600083 1 2.33789e-08 1 2.33789e-08 0
388 1 21.192 5.298 5.298 -4.44936 173418 190383 194840 14595.6 -9998.78 5753.7 12 11.0154 0.190941 0.574524 0.403915 0.012857 0.600083 1 0 1 0 0
389 1 24.724 3.532 3.532 -4.44936 198106 197926 197279 760.441 1007.66 -1134.08 12 11.0154 0.190941 0.574524 0.403915 0.012857 0.600083 1 2.33789e-08 1 2.33789e-08 0
390 1 26.49 5.298 3.532 -4.44936 190029 176467 198479 13975.6 -1628.39 2600.05 12 11.0154 0.190941 0.574524 0.403915 0.012857 0.600083 1 1.65314e-08 1 1.65314e-08 0
391 1 26.49 3.532 5.298 -4.44936 99857.8 161930 195813 60378.7 -17138.5 10460.6 12 11.0154 0.190941 0.574524 0.403915 0.012857 0.600083 1 1.65314e-08 1 1.65314e-08 0
392 1 24.724 5.298 5.298 -4.44936 133679 123710 143039 69909.8 -60241.6 64689.6 12 11.0154 0.190941 0.574524 0.403915 0.012857 0.600083 1 2.33789e-08 1 2.33789e-08 0
393 1 28.256 3.532 3.532 -4.44936 105438 195169 198643 18364.8 -3601.82 708.634 12 11.0154 0.190941 0.574524 0.403915 0.012857 0.600083 1 1.16894e-08 1 1.16894e-08 0
394 1 30.022 5.298 3.532 -4.44936 198593 187030 191719 -1489.19 -1154.45 -9110.42 12 11.0154 0.190941 0.574524 0.403915 0.012857 0.600083 1 2.33789e-08 1 2.33789e-08 0
395 1 30.022 3.532 5.298 -4.44936 126476 175068 196874 41408.9 11745.3 -6726.43 12 11.0154 0.190941 0.574524 0.403915 0.012857 0.600083 1 2.33789e-08 1 2.33789e-08 0
396 1 28.256 5.298 5.298 -4.44936 -29903.6 175645 168985 -72739.9 82547.5 26256.6 12 11.0154 0.190941 0.574524 0.403915 0.012857 0.600083 1 0 1 0 0
397 1 0 7.064 3.532 -4.44936 173717 62316.7 192914 -58485.6 -12127.9 -28298.1 12 11.0154 0.190941 0.574524 0.403915 0.012857 0.600083 1 1.65314e-08 1 1.65314e-08 1.26218e-29
398 1 1.766 8.83 3.532 -4.44936 188648 190265 143091 9290.69 -23757.1 21779.2 12 11.0154 0.190941 0.574524 0.403915 0.012857 0.600083 1 1.65314e-08 1 1.65314e-08 0
399 1 1.766 7.064 5.298 -4.44936 55778.5 124298 189382 103206 -36663.8 26460.4 12 11.0154 0.190941 0.574524 0.403915 0.012857 0.600083 1 1.65314e-08 1 1.65314e-08 0
400 1 0 8.83 5.298 -4.44936 183343 148476 1132.55 -27869.1 -55241.2 -99713.9 12 11.0154 0.190941 0.574524 0.403915 0.012857 0.600083 1 1.65314e-08 1 1.65314e-08 1.26218e-29
401 1 3.532 7.064 3.532 -4.44936 195386 179842 156064 8019.96 12044.6 -28443.9 12 11.0154 0.190941 0.574524 0.403915 0.012857 0.600083 1 1.65314e-08 1 1.65314e-08 0
402 1 5.298 8.83 3.532 -4.44936 183049 195438 151617 -7253.2 -27240.6 -12558.4 12 11.0154 0.190941 0.574524 0.403915 0.012857 0.600083 1 1.65314e-08 1 1.65314e-08 0
403 1 5.298 7.064 5.298 -4.44936 153461 191302 104876 -18412.3 65237.2 26503.7 12 11.0154 0.190941 0.574524 0.403915 0.012857 0.600083 1 1.65314e-08 1 1.65314e-08 0
404 1 3.532 8.83 5.298 -4.44936 198754 197340 195936 -201.231 -282.755 -2025.56 12 11.0154 0.190941 0.574524 0.403915 0.012857 0.600083 1 1.65314e-08 1 1.65314e-08 0
405 1 7.064 7.064 3.532 -4.44936 198400 164456 103965 3619.98 -6016.38 57050.3 12 11.0154 0.190941 0.574524 0.403915 0.012857 0.600083 1 1.65314e-08 1 1.65314e-08 0
406 1 8.83 8.83 3.532 -4.44936 184081 188517 185755 12284.4 -13838.4 11563.9 12 11.0154 0.190941 0.574524 0.403915 0.012857 0.600083 1 1.65314e-08 1 1.65314e-08 0
407 1 8.83 7.064 5.298 -4.44936 173995 194691 179380 10070.4 21929.6 -8909.59 12 11.0154 0.190941 0.574524 0.403915 0.012857 0.600083 1 1.65314e-08 1 1.65314e-08 0
408 1 7.064 8.83 5.298 -4.44936 175912 145300 182788 34973.7 -19125.7 29247.2 12 11.0154 0.190941 0.574524 0.403915 0.012857 0.600083 1 1.65314e-08 1 1.65314e-08 0
409 1 10.596 7.064 3.532 -4.44936 180399 198777 130977 -302.146 35305.2 580.281 12 11.0154 0.190941 0.574524 0.403915 0.012857 0.600083 1 1.65314e-08 1 1.65314e-08 0
410 1 12.362 8.83 3.532 -4.44936 197001 189806 177660 3997.72 -6132.42 13769.2 12 11.0154 0.190941 0.574524 0.403915 0.012857 0.600083 1 1.65314e-08 1 1.65314e-08 0
411 1 12.362 7.064 5.298 -4.44936 110434 169835 196041 -50570.4 -15561.5 -8907.41 12 11.0154 0.190941 0.574524 0.403915 0.012857 0.600083 1 1.65314e-08 1 1.65314e-08 0
412 1 10.596 8.83 5.298 -4.44936 135708 188626 197434 25309.6 -9221.28 3700.23 12 11.0154 0.190941 0.574524 0.403915 0.012857 0.600083 1 1.65314e-08 1 1.65314e-08 0
413 1 14.128 7.064 3.532 -4.44936 80113.1 198638 154936 4129.24 -72132.7 2509.95 12 11.0154 0.190941 0.574524 0.403915 0.012857 0.600083 1 1.65314e-08 1 1.65314e-08 0
414 1 15.894 8.83 3.532 -4.44936 193892 -67298.5 197211 -36072.7 -2772.08 -20447.5 12 11.0154 0.190941 0.574524 0.403915 0.012857 0.600083 1 1.65314e-08 1 1.65314e-08 0
415 1 15.894 7.064 5.298 -4.44936 186081 192196 92385.2 9145.88 -36760.2 26471.3 12 11.0154 0.190941 0.574524 0.403915 0.012857 0.600083 1 1.65314e-08 1 1.65314e-08 0
416 1 14.128 8.83 5.298 -4.44936 141845 198683 112311 2369.82 70166.9 -2920.48 12 11.0154 0.190941 0.574524 0.403915 0.012857 0.600083 1 1.65314e-08 1 1.65314e-08 0
417 1 17.66 7.064 3.532 -4.44936 170412 197914 128282 -4962.55 -44722.5 -7822.87 12 11.0154 0.190941 0.574524 0.403915 0.012857 0.600083 1 2.61384e-08 1 2.61384e-08 0
418 1 19.426 8.83 3.532 -4.44936 190693 146769 192056 -20512.2 7376.44 18704.5 12 11.0154 0.190941 0.574524 0.403915 0.012857 0.600083 1 1.65314e-08 1 1.65314e-08 0
419 1 19.426 7.064 5.298 -4.44936 161076 194962 179335 12001.2 -27079 8618.88 12 11.0154 0.190941 0.574524 0.403915 0.012857 0.600083 1 1.65314e-08 1 1.65314e-08 0
420 1 17.66 8.83 5.298 -4.44936 112193 142346 198738 69905.5 -1950.57 1574.74 12 11.0154 0.190941 0.574524 0.403915 0.012857 0.600083 1 2.33789e-08 1 2.33789e-08 0
421 1 21.192 7.064 3.532 -4.44936 121107 198671 154672 2941.06 -58534.3 2216.33 12 11.0154 0.190941 0.574524 0.403915 0.012857 0.600083 1 0 1 0 0
422 1 22.958 8.83 3.532 -4.44936 197996 178289 192689 4014.12 -2188.81 11174.2 12 11.0154 0.190941 0.574524 0.403915 0.012857 0.600083 1 2.33789e-08 1 2.33789e-08 0
423 1 22.958 7.064 5.298 -4.44936 -15232.7 167072 196980 -82380 19637.5 7559 12 11.0154 0.190941 0.574524 0.403915 0.012857 0.600083 1 2.33789e-08 1 2.33789e-08 0
424 1 21.192 8.83 5.298 -4.44936 181117 176618 155999 19786.9 27491 -30793.4 12 11.0154 0.190941 0.574524 0.403915 0.012857 0.600083 1 0 1 0 0
425 1 24.724 7.064 3.532 -4.44936 177078 198183 189736 -3606.55 14012 2328.35 12 11.0154 0.190941 0.574524 0.403915 0.012857 0.600083 1 1.65314e-08 1 1.65314e-08 0
426 1 26.49 8.83 3.532 -4.44936 195971 196623 178545 -2463.3 -7541.95 -6609.69 12 11.0154 0.190941 0.574524 0.403915 0.012857 0.600083 1 2.33789e-08 1 2.33789e-08 0
427 1 26.49 7.064 5.298 -4.44936 85853.6 191767 181523 -28145.1 44147.9 11003 12 11.0154 0.190941 0.574524 0.403915 0.012857 0.600083 1 2.33789e-08 1 2.33789e-08 0
428 1 24.724 8.83 5.298 -4.44936 143829 50785.5 162469 -90182.5 -44671 -73308.5 12 11.0154 0.190941 0.574524 0.403915 0.012857 0.600083 1 2.33789e-08 1 2.33789e-08 0
429 1 28.256 7.064 3.532 -4.44936 146886 198613 145459 -2963.39 -52604.7 -3003.87 12 11.0154 0.190941 0.574524 0.403915 0.012857 0.600083 1 0 1 0 0
430 1 30.022 8.83 3.532 -4.44936 196396 194328 198190 3260.21 -1188.39 1623.68 12 11.0154 0.190941 0.574524 0.403915 0.012857 0.600083 1 1.16894e-08 1 1.16894e-08 0
431 1 30.022 7.064 5.298 -4.44936 102978 141005 197433 74399.2 11366.3 -8826.82 12 11.0154 0.190941 0.574524 0.403915 0.012857 0.600083 1 2.33789e-08 1 2.33789e-08 0
432 1 28.256 8.83 5.298 -4.44936 197439 198141 189937 -927.757 3447.06 2380.56 12 11.0154 0.190941 0.574524 0.403915 0.012857 0.600083 1 1.16894e-08 1 1.16894e-08 0
433 1 0 10.596 3.532 -4.44936 137828 196753 174103 -11122 38784.8 7076.94 12 11.0154 0.190941 0.574524 0.403915 0.012857 0.600083 1 2.33789e-08 1 2.33789e-08 1.26218e-29
434 1 1.766 12.362 3.532 -4.44936 166990 174256 179948 27923.5 -24470 21492.5 12 11.0154 0.190941 0.574524 0.403915 0.012857 0.600083 1 1.65314e-08 1 1.65314e-08 0
435 1 1.766 10.596 5.298 -4.44936 194338 81675.6 95227.3 22812.1 21451.6 -110122 12 11.0154 0.190941 0.574524 0.403915 0.012857 0.600083 1 1.65314e-08 1 1.65314e-08 0
436 1 0 12.362 5.298 -4.44936 197143 107307 196528 -12242.5 1921.58 14357.9 12 11.0154 0.190941 0.574524 0.403915 0.012857 0.600083 1 1.65314e-08 1 1.65314e-08 1.26218e-29
437 1 3.532 10.596 3.532 -4.44936 162527 53336.2 196857 -72616.2 8355.02 16734.6 12 11.0154 0.190941 0.574524 0.403915 0.012857 0.600083 1 1.65314e-08 1 1.65314e-08 0
438 1 5.298 12.362 3.532 -4.44936 198776 184512 198741 -297.14 15.9871 767.794 12 11.0154 0.190941 0.574524 0.403915 0.012857 0.600083 1 1.65314e-08 1 1.65314e-08 0
439 1 5.298 10.596 5.298 -4.44936 -20121.4 198594 181719 -6421.96 -61115.1 -1792.93 12 11.0154 0.190941 0.574524 0.403915 0.012857 0.600083 1 1.65314e-08 1 1.65314e-08 0
440 1 3.532 12.362 5.298 -4.44936 110182 178499 128046 -42392 79165.9 37877.9 12 11.0154 0.190941 0.574524 0.403915 0.012857 0.600083 1 1.65314e-08 1 1.65314e-08 0
441 1 7.064 10.596 3.532 -4.44936 194871 196936 196370 2687.18 -3071.44 2110.29 12 11.0154 0.190941 0.574524 0.403915 0.012857 0.600083 1 1.65314e-08 1 1.65314e-08 0
442 1 8.83 12.362 3.532 -4.44936 92815.2 198387 186038 6465.34 36749 -2242.16 12 11.0154 0.190941 0.574524 0.403915 0.012857 0.600083 1 1.65314e-08 1 1.65314e-08 0
443 1 8.83 10.596 5.298 -4.44936 68682.2 198538 167809 5633.67 -63478.5 2748.79 12 11.0154 0.190941 0.574524 0.403915 0.012857 0.600083 1 1.65314e-08 1 1.65314e-08 0
444 1 7.064 12.362 5.298 -4.44936 175357 191808 172532 -12781.7 24797.4 13530.6 12 11.0154 0.190941 0.574524 0.403915 0.012857 0.600083 1 1.65314e-08 1 1.65314e-08 0
445 1 10.596 10.596 3.532 -4.44936 -36726.8 3207.87 133552 214615 123945 -112948 12 11.0154 0.190941 0.574524 0.403915 0.012857 0.600083 1 1.65314e-08 1 1.65314e-08 0
446 1 12.362 12.362 3.532 -4.44936 175794 194603 195069 -9800.94 9238.55 3938.9 12 11.0154 0.190941 0.574524 0.403915 0.012857 0.600083 1 1.65314e-08 1 1.65314e-08 0
447 1 12.362 10.596 5.298 -4.44936 198765 191386 191123 -357.214 363.506 7525.98 12 11.0154 0.190941 0.574524 0.403915 0.012857 0.600083 1 1.65314e-08 1 1.65314e-08 0
448 1 10.596 12.362 5.298 -4.44936 180917 191356 190778 -11517.8 11958.3 7709.56 12 11.0154 0.190941 0.574524 0.403915 0.012857 0.600083 1 1.65314e-08 1 1.65314e-08 0
449 1 14.128 10.596 3.532 -4.44936 188936 198209 -32884.8 -2374.38 47758.8 11517.6 12 11.0154 0.190941 0.574524 0.403915 0.012857 0.600083 1 1.65314e-08 1 1.65314e-08 0
450 1 15.894 12.362 3.532 -4.44936 196048 100892 198719 16360.6 416.318 -2490.95 12 11.0154 0.190941 0.574524 0.403915 0.012857 0.600083 1 1.65314e-08 1 1.65314e-08 0
451 1 15.894 10.596 5.298 -4.44936 196206 196130 180687 -2613.38 -6826.92 -6926.77 12 11.0154 0.190941 0.574524 0.403915 0.012857 0.600083 1 1.65314e-08 1 1.65314e-08 0
452 1 14.128 12.362 5.298 -4.44936 191046 188243 156977 9029.62 17983.6 -20990.4 12 11.0154 0.190941 0.574524 0.403915 0.012857 0.600083 1 1.65314e-08 1 1.65314e-08 0
453 1 17.66 10.596 3.532 -4.44936 198595 198476 166671 -238.9 2448.27 3133.35 12 11.0154 0.190941 0.574524 0.403915 0.012857 0.600083 1 1.65314e-08 1 1.65314e-08 0
454 1 19.426 12.362 3.532 -4.44936 166328 179110 183690 -25267.4 22131.6 17230.6 12 11.0154 0.190941 0.574524 0.403915 0.012857 0.600083 1 1.65314e-08 1 1.65314e-08 0
455 1 19.426 10.596 5.298 -4.44936 23822 153835 188566 88678.4 -42278.4 21428.8 12 11.0154 0.190941 0.574524 0.403915 0.012857 0.600083 1 0 1 0 0
456 1 17.66 12.362 5.298 -4.44936 144502 191066 192043 -20465.2 19125.3 7210.8 12 11.0154 0.190941 0.574524 0.403915 0.012857 0.600083 1 2.33789e-08 1 2.33789e-08 0
457 1 21.192 10.596 3.532 -4.44936 59109.8 109251 134155 111826 95008.4 -76066.5 12 11.0154 0.190941 0.574524 0.403915 0.012857 0.600083 1 0 1 0 0
458 1 22.958 12.362 3.532 -4.44936 174639 125340 167015 42108.7 -27693.9 48301.2 12 11.0154 0.190941 0.574524 0.403915 0.012857 0.600083 1 2.33789e-08 1 2.33789e-08 0
459 1 22.958 10.596 5.298 -4.44936 198689 185027 172168 1130.82 1572.97 -19132.7 12 11.0154 0.190941 0.574524 0.403915 0.012857 0.600083 1 1.65314e-08 1 1.65314e-08 0
460 1 21.192 12.362 5.298 -4.44936 197160 198290 180715 -893.389 5413.08 2981.86 12 11.0154 0.190941 0.574524 0.403915 0.012857 0.600083 1 0 1 0 0
461 1 24.724 10.596 3.532 -4.44936 15351.6 191560 111660 -36396.4 126416 25083.5 12 11.0154 0.190941 0.574524 0.403915 0.012857 0.600083 1 1.65314e-08 1 1.65314e-08 0
462 1 26.49 12.362 3.532 -4.44936 195883 164211 169917 10011.8 9148.32 -31589.1 12 11.0154 0.190941 0.574524 0.403915 0.012857 0.600083 1 2.33789e-08 1 2.33789e-08 0
463 1 26.49 10.596 5.298 -4.44936 161353 198211 135036 4622.94 48846.3 -6033.11 12 11.0154 0.190941 0.574524 0.403915 0.012857 0.600083 1 1.16894e-08 1 1.16894e-08 0
464 1 24.724 12.362 5.298 -4.44936 198181 80532 192255 -8429.86 -1980.56 -27782.3 12 11.0154 0.190941 0.574524 0.403915 0.012857 0.600083 1 2.61384e-08 1 2.61384e-08 0
465 1 28.256 10.596 3.532 -4.44936 146488 141678 148077 54645.9 51493.2 -53809.5 12 11.0154 0.190941 0.574524 0.403915 0.012857 0.600083 1 0 1 0 0
466 1 30.022 12.362 3.532 -4.44936 166010 167102 197487 32221.3 -6515.36 6405.85 12 11.0154 0.190941 0.574524 0.403915 0.012857 0.600083 1 1.65314e-08 1 1.65314e-08 0
467 1 30.022 10.596 5.298 -4.44936 186645 198121 -21055.6 -2832.92 51653.2 12057 12 11.0154 0.190941 0.574524 0.403915 0.012857 0.600083 1 2.33789e-08 1 2.33789e-08 0
468 1 28.256 12.362 5.298 -4.44936 150784 196270 4038.11 -10979.5 -96681.9 -22115.8 12 11.0154 0.190941 0.574524 0.403915 0.012857 0.600083 1 1.16894e-08 1 1.16894e-08 0
469 1 0 14.128 3.532 -4.44936 102783 75067.6 -150770 108979 -183185 207954 12 11.0154 0.190941 0.574524 0.403915 0.012857 0.600083 1 1.65314e-08 1 1.65314e-08 1.26218e-29
470 1 1.766 15.894 3.532 -4.44936 116171 192270 188874 -23193.1 28608.9 8031.99 12 11.0154 0.190941 0.574524 0.403915 0.012857 0.600083 1 1.65314e-08 1 1.65314e-08 0
471 1 1.766 14.128 5.298 -4.44936 106979 -105036 198618 -167008 -3878.05 -7054.9 12 11.0154 0.190941 0.574524 0.403915 0.012857 0.600083 1 1.65314e-08 1 1.65314e-08 0
472 1 0 15.894 5.298 -4.44936 198134 179393 197469 -3543.19 922.057 5045.68 12 11.0154 0.190941 0.574524 0.403915 0.012857 0.600083 1 1.65314e-08 1 1.65314e-08 1.26218e-29
473 1 3.532 14.128 3.532 -4.44936 189705 192438 112794 -7588.43 -27938 -23355.8 12 11.0154 0.190941 0.574524 0.403915 0.012857 0.600083 1 1.65314e-08 1 1.65314e-08 0
474 1 5.298 15.894 3.532 -4.44936 167341 173845 128137 28000.9 47128.9 -41972.5 12 11.0154 0.190941 0.574524 0.403915 0.012857 0.600083 1 1.65314e-08 1 1.65314e-08 0
475 1 5.298 14.128 5.298 -4.44936 154905 198564 198774 3090.84 -595.713 41.9635 12 11.0154 0.190941 0.574524 0.403915 0.012857 0.600083 1 1.65314e-08 1 1.65314e-08 0
476 1 3.532 15.894 5.298 -4.44936 198650 196958 114818 -491.375 3333.63 12376.2 12 11.0154 0.190941 0.574524 0.403915 0.012857 0.600083 1 1.65314e-08 1 1.65314e-08 0
477 1 7.064 14.128 3.532 -4.44936 189328 194754 194220 6170.75 -6566.99 4286.31 12 11.0154 0.190941 0.574524 0.403915 0.012857 0.600083 1 1.65314e-08 1 1.65314e-08 0
478 1 8.83 15.894 3.532 -4.44936 185076 193286 198487 8679.52 -2010.34 1273.07 12 11.0154 0.190941 0.574524 0.403915 0.012857 0.600083 1 1.65314e-08 1 1.65314e-08 0
479 1 8.83 14.128 5.298 -4.44936 192954 197958 198657 -2190.93 853.877 320.981 12 11.0154 0.190941 0.574524 0.403915 0.012857 0.600083 1 1.65314e-08 1 1.65314e-08 0
480 1 7.064 15.894 5.298 -4.44936 198392 96752.2 161547 6304.03 -3808.28 61636.5 12 11.0154 0.190941 0.574524 0.403915 0.012857 0.600083 1 1.65314e-08 1 1.65314e-08 0
481 1 10.596 14.128 3.532 -4.44936 187623 198759 124345 -501.032 28820.8 1294.05 12 11.0154 0.190941 0.574524 0.403915 0.012857 0.600083 1 1.65314e-08 1 1.65314e-08 0
482 1 12.362 15.894 3.532 -4.44936 192198 191684 115918 -6836.07 -23357.4 -24252 12 11.0154 0.190941 0.574524 0.403915 0.012857 0.600083 1 1.65314e-08 1 1.65314e-08 0
483 1 12.362 14.128 5.298 -4.44936 168870 116034 198518 -49750.8 2810.3 4674.23 12 11.0154 0.190941 0.574524 0.403915 0.012857 0.600083 1 1.65314e-08 1 1.65314e-08 0
484 1 10.596 15.894 5.298 -4.44936 198702 115749 160654 2579.45 -1747.93 56266.1 12 11.0154 0.190941 0.574524 0.403915 0.012857 0.600083 1 1.65314e-08 1 1.65314e-08 0
485 1 14.128 14.128 3.532 -4.44936 109834 198066 190674 7981.11 26854.5 -2409.6 12 11.0154 0.190941 0.574524 0.403915 0.012857 0.600083 1 1.65314e-08 1 1.65314e-08 0
486 1 15.894 15.894 3.532 -4.44936 187147 134497 196458 27348.2 5200.24 -12223.6 12 11.0154 0.190941 0.574524 0.403915 0.012857 0.600083 1 1.65314e-08 1 1.65314e-08 0
487 1 15.894 14.128 5.298 -4.44936 186354 198682 198670 -1114.39 -1177.38 -105.573 12 11.0154 0.190941 0.574524 0.403915 0.012857 0.600083 1 1.65314e-08 1 1.65314e-08 0
488 1 14.128 15.894 5.298 -4.44936 196467 124788 189503 -13088.4 4634.96 26203.3 12 11.0154 0.190941 0.574524 0.403915 0.012857 0.600083 1 1.65314e-08 1 1.65314e-08 0
489 1 17.66 14.128 3.532 -4.44936 47717.9 198343 195359 -8144.88 -22740.3 -1226.08 12 11.0154 0.190941 0.574524 0.403915 0.012857 0.600083 1 2.61384e-08 1 2.61384e-08 0
490 1 19.426 15.894 3.532 -4.44936 159585 171885 198652 -32469.7 2258.72 1871.07 12 11.0154 0.190941 0.574524 0.403915 0.012857 0.600083 1 0 1 0 0
491 1 19.426 14.128 5.298 -4.44936 189636 189094 198657 9413.09 -1069.48 1100.71 12 11.0154 0.190941 0.574524 0.403915 0.012857 0.600083 1 2.33789e-08 1 2.33789e-08 0
492 1 17.66 15.894 5.298 -4.44936 115195 179133 198620 40526 3678.96 -1783.7 12 11.0154 0.190941 0.574524 0.403915 0.012857 0.600083 1 1.65314e-08 1 1.65314e-08 0
493 1 21.192 14.128 3.532 -4.44936 194271 68591 -124540 24234.3 -38190.7 205167 12 11.0154 0.190941 0.574524 0.403915 0.012857 0.600083 1 1.16894e-08 1 1.16894e-08 0
494 1 22.958 15.894 3.532 -4.44936 195308 195585 77128.6 -3332.47 -20556.5 -19721.6 12 11.0154 0.190941 0.574524 0.403915 0.012857 0.600083 1 2.33789e-08 1 2.33789e-08 0
495 1 22.958 14.128 5.298 -4.44936 192920 197882 198281 2296.25 1713.86 -671.374 12 11.0154 0.190941 0.574524 0.403915 0.012857 0.600083 1 2.33789e-08 1 2.33789e-08 0
496 1 21.192 15.894 5.298 -4.44936 196977 191892 168660 3526.96 7374.44 -14406.2 12 11.0154 0.190941 0.574524 0.403915 0.012857 0.600083 1 1.16894e-08 1 1.16894e-08 0
497 1 24.724 14.128 3.532 -4.44936 178933 193792 188256 -9952.39 14454.7 7247.62 12 11.0154 0.190941 0.574524 0.403915 0.012857 0.600083 1 2.33789e-08 1 2.33789e-08 0
498 1 26.49 15.894 3.532 -4.44936 195453 93930 188615 -18684.2 5818 32649.4 12 11.0154 0.190941 0.574524 0.403915 0.012857 0.600083 1 2.33789e-08 1 2.33789e-08 0
499 1 26.49 14.128 5.298 -4.44936 196820 197649 198296 -1490.86 -976.564 -741.894 12 11.0154 0.190941 0.574524 0.403915 0.012857 0.600083 1 1.65314e-08 1 1.65314e-08 0
500 1 24.724 15.894 5.298 -4.44936 198749 81389.5 149764 1974.73 1276.04 -75857.1 12 11.0154 0.190941 0.574524 0.403915 0.012857 0.600083 1 2.33789e-08 1 2.33789e-08 0
501 1 28.256 14.128 3.532 -4.44936 115831 178501 134204 -41016.7 -73190.1 -36190.1 12 11.0154 0.190941 0.574524 0.403915 0.012857 0.600083 1 1.16894e-08 1 1.16894e-08 0
502 1 30.022 15.894 3.532 -4.44936 197256 189461 179910 -3771.11 5365.87 13262.8 12 11.0154 0.190941 0.574524 0.403915 0.012857 0.600083 1 2.33789e-08 1 2.33789e-08 0
503 1 30.022 14.128 5.298 -4.44936 184896 193723 194491 8381.24 7718.74 -4658.8 12 11.0154 0.190941 0.574524 0.403915 0.012857 0.600083 1 2.33789e-08 1 2.33789e-08 0
504 1 28.256 15.894 5.298 -4.44936 45967.1 182319 130856 50158.1 -101883 33440.8 12 11.0154 0.190941 0.574524 0.403915 0.012857 0.600083 1 0 1 0 0
505 1 0 17.66 3.532 -4.44936 186850 192954 187156 -8338.6 11777.8 8231.17 12 11.0154 0.190941 0.574524 0.403915 0.012857 0.600083 1 2.02467e-08 1 2.02467e-08 1.26218e-29
506 1 1.766 19.426 3.532 -4.44936 116624 155345 198229 59738.5 6739.13 -4900.14 12 11.0154 0.190941 0.574524 0.403915 0.012857 0.600083 1 2.33789e-08 1 2.33789e-08 0
507 1 1.766 17.66 5.298 -4.44936 198600 154900 182853 -2823.89 1701.37 26438.8 12 11.0154 0.190941 0.574524 0.403915 0.012857 0.600083 1 1.65314e-08 1 1.65314e-08 0
508 1 0 19.426 5.298 -4.44936 192223 132107 139250 20911.6 -19759.7 63002.2 12 11.0154 0.190941 0.574524 0.403915 0.012857 0.600083 1 2.33789e-08 1 2.33789e-08 1.26218e-29
509 1 3.532 17.66 3.532 -4.44936 110089 144175 116135 69593.4 -85616.7 67179.2 12 11.0154 0.190941 0.574524 0.403915 0.012857 0.600083 1 1.65314e-08 1 1.65314e-08 0
510 1 5.298 19.426 3.532 -4.44936 180395 198459 179444 2435.97 18856.6 -2498.14 12 11.0154 0.190941 0.574524 0.403915 0.012857 0.600083 1 2.33789e-08 1 2.33789e-08 0
511 1 5.298 17.66 5.298 -4.44936 186113 149493 190793 -24989.2 -10060.8 -19843.9 12 11.0154 0.190941 0.574524 0.403915 0.012857 0.600083 1 1.65314e-08 1 1.65314e-08 0
512 1 3.532 19.426 5.298 -4.44936 178209 189232 174436 14017 -22380.1 15248.4 12 11.0154 0.190941 0.574524 0.403915 0.012857 0.600083 1 0 1 0 0
513 1 7.064 17.66 3.532 -4.44936 194057 153671 111618 14599.5 20293.9 -62705.8 12 11.0154 0.190941 0.574524 0.403915 0.012857 0.600083 1 1.65314e-08 1 1.65314e-08 0
514 1 8.83 19.426 3.532 -4.44936 161164 158096 -133753 39122.1 111845 -116317 12 11.0154 0.190941 0.574524 0.403915 0.012857 0.600083 1 2.33789e-08 1 2.33789e-08 0
515 1 8.83 17.66 5.298 -4.44936 184750 185494 148198 13654.6 -26641.7 25925.4 12 11.0154 0.190941 0.574524 0.403915 0.012857 0.600083 1 1.65314e-08 1 1.65314e-08 0
516 1 7.064 19.426 5.298 -4.44936 151388 194143 191028 14826.9 -19169.7 5997.09 12 11.0154 0.190941 0.574524 0.403915 0.012857 0.600083 1 1.65314e-08 1 1.65314e-08 0
517 1 10.596 17.66 3.532 -4.44936 178916 137543 180072 34879.2 19279.1 -33849 12 11.0154 0.190941 0.574524 0.403915 0.012857 0.600083 1 2.02467e-08 1 2.02467e-08 0
518 1 12.362 19.426 3.532 -4.44936 162163 151480 192971 -41618.9 14587.6 16579.4 12 11.0154 0.190941 0.574524 0.403915 0.012857 0.600083 1 2.33789e-08 1 2.33789e-08 0
519 1 12.362 17.66 5.298 -4.44936 198449 197234 145021 717.499 4228.09 -9123.05 12 11.0154 0.190941 0.574524 0.403915 0.012857 0.600083 1 1.65314e-08 1 1.65314e-08 0
520 1 10.596 19.426 5.298 -4.44936 151706 96843.2 193035 69273.5 -16448.6 24204.7 12 11.0154 0.190941 0.574524 0.403915 0.012857 0.600083 1 0 1 0 0
521 1 14.128 17.66 3.532 -4.44936 189396 170898 153636 -16177.4 20584.3 35480.5 12 11.0154 0.190941 0.574524 0.403915 0.012857 0.600083 1 1.65314e-08 1 1.65314e-08 0
522 1 15.894 19.426 3.532 -4.44936 129117 198752 197924 -1448.42 7728.89 160.694 12 11.0154 0.190941 0.574524 0.403915 0.012857 0.600083 1 0 1 0 0
523 1 15.894 17.66 5.298 -4.44936 150527 188925 143790 21809.7 51513.5 -23282.5 12 11.0154 0.190941 0.574524 0.403915 0.012857 0.600083 1 2.02467e-08 1 2.02467e-08 0
524 1 14.128 19.426 5.298 -4.44936 197536 192433 70853.3 2812.45 -12624.2 28500.2 12 11.0154 0.190941 0.574524 0.403915 0.012857 0.600083 1 0 1 0 0
525 1 17.66 17.66 3.532 -4.44936 142649 198624 195882 -2976.94 -12759.1 -676.655 12 11.0154 0.190941 0.574524 0.403915 0.012857 0.600083 1 2.02467e-08 1 2.02467e-08 0
526 1 19.426 19.426 3.532 -4.44936 164262 198476 104940 -3251.34 -56915.5 -5360.79 12 11.0154 0.190941 0.574524 0.403915 0.012857 0.600083 1 1.65314e-08 1 1.65314e-08 0
527 1 19.426 17.66 5.298 -4.44936 44432.6 172740 147538 -63400.5 -88934.9 -36530.9 12 11.0154 0.190941 0.574524 0.403915 0.012857 0.600083 1 2.02467e-08 1 2.02467e-08 0
528 1 17.66 19.426 5.298 -4.44936 50987.9 80910 147422 -131988 87124.8 77807 12 11.0154 0.190941 0.574524 0.403915 0.012857 0.600083 1 2.33789e-08 1 2.33789e-08 0
529 1 21.192 17.66 3.532 -4.44936 196742 55494.3 160639 17097.6 -8821.43 73928.5 12 11.0154 0.190941 0.574524 0.403915 0.012857 0.600083 1 1.65314e-08 1 1.65314e-08 0
530 1 22.958 19.426 3.532 -4.44936 149804 120898 168354 -61762.2 -38604.3 -48681 12 11.0154 0.190941 0.574524 0.403915 0.012857 0.600083 1 0 1 0 0
531 1 22.958 17.66 5.298 -4.44936 186177 135068 184254 -28339.2 13532.3 30424 12 11.0154 0.190941 0.574524 0.403915 0.012857 0.600083 1 2.86331e-08 1 2.86331e-08 0
532 1 21.192 19.426 5.298 -4.44936 190339 186230 198540 10294.3 1429.71 -1743.29 12 11.0154 0.190941 0.574524 0.403915 0.012857 0.600083 1 1.65314e-08 1 1.65314e-08 0
533 1 24.724 17.66 3.532 -4.44936 158882 194511 115665 13053.9 -57587.9 18840.8 12 11.0154 0.190941 0.574524 0.403915 0.012857 0.600083 1 2.33789e-08 1 2.33789e-08 0
534 1 26.49 19.426 3.532 -4.44936 184709 62675.7 167886 -43765.4 -20851.7 -64846.9 12 11.0154 0.190941 0.574524 0.403915 0.012857 0.600083 1 1.16894e-08 1 1.16894e-08 0
535 1 26.49 17.66 5.298 -4.44936 51923.7 121032 193933 106856 26685.8 -19416.9 12 11.0154 0.190941 0.574524 0.403915 0.012857 0.600083 1 2.86331e-08 1 2.86331e-08 0
536 1 24.724 19.426 5.298 -4.44936 198593 83198 139461 -4676.86 -3350.52 -82804.6 12 11.0154 0.190941 0.574524 0.403915 0.012857 0.600083 1 2.61384e-08 1 2.61384e-08 0
537 1 28.256 17.66 3.532 -4.44936 175624 196237 195915 7676.31 -8148.3 2700.97 12 11.0154 0.190941 0.574524 0.403915 0.012857 0.600083 1 0 1 0 0
538 1 30.022 19.426 3.532 -4.44936 97723.3 108276 194575 -95636.8 -20618.7 -19512.5 12 11.0154 0.190941 0.574524 0.403915 0.012857 0.600083 1 2.02467e-08 1 2.02467e-08 0
539 1 30.022 17.66 5.298 -4.44936 195808 -18381.4 195487 -25412.2 -3130.21 -26749.7 12 11.0154 0.190941 0.574524 0.403915 0.012857 0.600083 1 1.16894e-08 1 1.16894e-08 0
540 1 28.256 19.426 5.298 -4.44936 195633 92866.3 171985 -18262.4 -9185.79 -53274.6 12 11.0154 0.190941 0.574524 0.403915 0.012857 0.600083 1 1.65314e-08 1 1.65314e-08 0
541 1 0 21.192 3.532 -4.44936 98183.5 198576 197431 -4557.35 -11659.6 -528.205 12 11.0154 0.190941 0.574524 0.403915 0.012857 0.600083 1 1.65314e-08 1 1.65314e-08 1.26218e-29
542 1 1.766 22.958 3.532 -4.44936 184042 195972 164813 -6436.14 -22376 -9770.65 12 11.0154 0.190941 0.574524 0.403915 0.012857 0.600083 1 2.33789e-08 1 2.33789e-08 0
543 1 1.766 21.192 5.298 -4.44936 173231 185726 148884 18264.4 -35706.4 25523.7 12 11.0154 0.190941 0.574524 0.403915 0.012857 0.600083 1 0 1 0 0
544 1 0 22.958 5.298 -4.44936 90241.3 191890 151769 27351.5 -71434.1 18000.9 12 11.0154 0.190941 0.574524 0.403915 0.012857 0.600083 1 2.02467e-08 1 2.02467e-08 1.26218e-29
545 1 3.532 21.192 3.532 -4.44936 184439 195398 191174 6967.16 10446.3 -5074.48 12 11.0154 0.190941 0.574524 0.403915 0.012857 0.600083 1 1.16894e-08 1 1.16894e-08 0
546 1 5.298 22.958 3.532 -4.44936 180653 163628 198300 -25244.8 2954.76 4114.63 12 11.0154 0.190941 0.574524 0.403915 0.012857 0.600083 1 1.65314e-08 1 1.65314e-08 0
547 1 5.298 21.192 5.298 -4.44936 193525 194291 197502 -4859.13 2594.46 2398 12 11.0154 0.190941 0.574524 0.403915 0.012857 0.600083 1 0 1 0 0
548 1 3.532 22.958 5.298 -4.44936 88760.6 141657 170746 79277.4 -55538.3 40018.9 12 11.0154 0.190941 0.574524 0.403915 0.012857 0.600083 1 2.33789e-08 1 2.33789e-08 0
549 1 7.064 21.192 3.532 -4.44936 49909.2 187446 88839.7 41080.9 -127935 35303.3 12 11.0154 0.190941 0.574524 0.403915 0.012857 0.600083 1 1.16894e-08 1 1.16894e-08 0
550 1 8.83 22.958 3.532 -4.44936 198348 128776 36149.3 5513.55 -8403.67 106701 12 11.0154 0.190941 0.574524 0.403915 0.012857 0.600083 1 2.33789e-08 1 2.33789e-08 0
551 1 8.83 21.192 5.298 -4.44936 91789.1 197114 102387 13357.8 101556 -12679 12 11.0154 0.190941 0.574524 0.403915 0.012857 0.600083 1 0 1 0 0
552 1 7.064 22.958 5.298 -4.44936 173243 184009 138155 -19424.2 -39349.1 -29927.7 12 11.0154 0.190941 0.574524 0.403915 0.012857 0.600083 1 2.33789e-08 1 2.33789e-08 0
553 1 10.596 21.192 3.532 -4.44936 198322 191793 103407 -1791.97 6619.83 25817.8 12 11.0154 0.190941 0.574524 0.403915 0.012857 0.600083 1 1.16894e-08 1 1.16894e-08 0
554 1 12.362 22.958 3.532 -4.44936 180892 195755 1279.28 -7358.98 59441.4 24451.3 12 11.0154 0.190941 0.574524 0.403915 0.012857 0.600083 1 1.65314e-08 1 1.65314e-08 0
555 1 12.362 21.192 5.298 -4.44936 78919.3 179169 125084 -48485.3 -93987.5 -38018.6 12 11.0154 0.190941 0.574524 0.403915 0.012857 0.600083 1 0 1 0 0
556 1 10.596 22.958 5.298 -4.44936 186972 162353 183446 -20741.4 -13457.6 -23635.9 12 11.0154 0.190941 0.574524 0.403915 0.012857 0.600083 1 2.33789e-08 1 2.33789e-08 0
557 1 14.128 21.192 3.532 -4.44936 192541 159412 196345 -15675.4 3900.26 9795.77 12 11.0154 0.190941 0.574524 0.403915 0.012857 0.600083 1 1.16894e-08 1 1.16894e-08 0
558 1 15.894 22.958 3.532 -4.44936 182355 183511 196571 15838.3 -6025.92 5809.94 12 11.0154 0.190941 0.574524 0.403915 0.012857 0.600083 1 1.65314e-08 1 1.65314e-08 0
559 1 15.894 21.192 5.298 -4.44936 195650 56425.1 172941 -21116.8 8996.92 60651.8 12 11.0154 0.190941 0.574524 0.403915 0.012857 0.600083 1 0 1 0 0
560 1 14.128 22.958 5.298 -4.44936 185356 197867 117431 -3504.37 -33048.2 -8626.33 12 11.0154 0.190941 0.574524 0.403915 0.012857 0.600083 1 2.33789e-08 1 2.33789e-08 0
561 1 17.66 21.192 3.532 -4.44936 184499 161986 197448 -22925 4364.45 7005.24 12 11.0154 0.190941 0.574524 0.403915 0.012857 0.600083 1 0 1 0 0
562 1 19.426 22.958 3.532 -4.44936 184745 38056.7 177310 -47498.8 17361 58745.9 12 11.0154 0.190941 0.574524 0.403915 0.012857 0.600083 1 1.16894e-08 1 1.16894e-08 0
563 1 19.426 21.192 5.298 -4.44936 197992 186714 198477 -3086.85 -490.724 -1918.42 12 11.0154 0.190941 0.574524 0.403915 0.012857 0.600083 1 1.65314e-08 1 1.65314e-08 0
564 1 17.66 22.958 5.298 -4.44936 193625 192939 -2448.46 -5489.36 -32214.2 -34290 12 11.0154 0.190941 0.574524 0.403915 0.012857 0.600083 1 2.33789e-08 1 2.33789e-08 0
565 1 21.192 21.192 3.532 -4.44936 150945 179313 196550 -30518 -10333.7 -6592.44 12 11.0154 0.190941 0.574524 0.403915 0.012857 0.600083 1 2.33789e-08 1 2.33789e-08 0
566 1 22.958 22.958 3.532 -4.44936 51041.7 170341 149167 64821.4 85616.2 -37564.3 12 11.0154 0.190941 0.574524 0.403915 0.012857 0.600083 1 1.16894e-08 1 1.16894e-08 0
567 1 22.958 21.192 5.298 -4.44936 174169 189355 198655 15232.2 -1764.93 1092.26 12 11.0154 0.190941 0.574524 0.403915 0.012857 0.600083 1 1.16894e-08 1 1.16894e-08 0
568 1 21.192 22.958 5.298 -4.44936 193178 198408 198286 -1446.85 -1666.47 -430.266 12 11.0154 0.190941 0.574524 0.403915 0.012857 0.600083 1 1.16894e-08 1 1.16894e-08 0
569 1 24.724 21.192 3.532 -4.44936 180054 197309 146961 5252.83 -31152.8 8737.74 12 11.0154 0.190941 0.574524 0.403915 0.012857 0.600083 1 1.65314e-08 1 1.65314e-08 0
570 1 26.49 22.958 3.532 -4.44936 194255 135512 194326 -16923.7 -4491.42 -16791.4 12 11.0154 0.190941 0.574524 0.403915 0.012857 0.600083 1 2.33789e-08 1 2.33789e-08 0
571 1 26.49 21.192 5.298 -4.44936 196837 195874 176289 -2378.16 6614.66 8086.88 12 11.0154 0.190941 0.574524 0.403915 0.012857 0.600083 1 0 1 0 0
572 1 24.724 22.958 5.298 -4.44936 193272 160948 182834 -14438.9 9374.25 24563.5 12 11.0154 0.190941 0.574524 0.403915 0.012857 0.600083 1 2.61384e-08 1 2.61384e-08 0
573 1 28.256 21.192 3.532 -4.44936 61914.4 103281 186201 114328 41496.1 -34662.6 12 11.0154 0.190941 0.574524 0.403915 0.012857 0.600083 1 2.33789e-08 1 2.33789e-08 0
574 1 30.022 22.958 3.532 -4.44936 181609 142031 192512 31218.5 10377 -18863.9 12 11.0154 0.190941 0.574524 0.403915 0.012857 0.600083 1 1.16894e-08 1 1.16894e-08 0
575 1 30.022 21.192 5.298 -4.44936 188291 192205 198744 8306.59 -629.268 498.246 12 11.0154 0.190941 0.574524 0.403915 0.012857 0.600083 1 0 1 0 0
576 1 28.256 22.958 5.298 -4.44936 180964 22350.7 185718 56068.8 -15257.1 48009.5 12 11.0154 0.190941 0.574524 0.403915 0.012857 0.600083 1 1.16894e-08 1 1.16894e-08 0
577 1 0 24.724 3.532 -4.44936 103974 123647 168079 -84400 53952.4 48029.5 12 11.0154 0.190941 0.574524 0.403915 0.012857 0.600083 1 2.33789e-08 1 2.33789e-08 1.26218e-29
578 1 1.766 26.49 3.532 -4.44936 143864 94451.2 90776.9 -75694.1 -77015.4 -106152 12 11.0154 0.190941 0.574524 0.403915 0.012857 0.600083 1 2.33789e-08 1 2.33789e-08 0
579 1 1.766 24.724 5.298 -4.44936 196997 160475 165589 -8268.52 -7696.81 -35658 12 11.0154 0.190941 0.574524 0.403915 0.012857 0.600083 1 1.16894e-08 1 1.16894e-08 0
580 1 0 26.49 5.298 -4.44936 189495 -60834.5 182859 -49102.3 12160.3 64294.6 12 11.0154 0.190941 0.574524 0.403915 0.012857 0.600083 1 2.33789e-08 1 2.33789e-08 1.26218e-29
581 1 3.532 24.724 3.532 -4.44936 152629 110969 198520 -63662.1 3478.61 4798.25 12 11.0154 0.190941 0.574524 0.403915 0.012857 0.600083 1 2.86331e-08 1 2.86331e-08 0
582 1 5.298 26.49 3.532 -4.44936 188471 191817 138194 8474.42 24995 -20542 12 11.0154 0.190941 0.574524 0.403915 0.012857 0.600083 1 2.33789e-08 1 2.33789e-08 0
583 1 5.298 24.724 5.298 -4.44936 126502 171321 89991.9 44551.6 -88675.4 54657.4 12 11.0154 0.190941 0.574524 0.403915 0.012857 0.600083 1 2.86331e-08 1 2.86331e-08 0
584 1 3.532 26.49 5.298 -4.44936 195142 196731 171160 -2732.23 -10026.8 -7526.68 12 11.0154 0.190941 0.574524 0.403915 0.012857 0.600083 1 1.65314e-08 1 1.65314e-08 0
585 1 7.064 24.724 3.532 -4.44936 139540 140774 197153 58621.8 -9824.34 9721.44 12 11.0154 0.190941 0.574524 0.403915 0.012857 0.600083 1 2.33789e-08 1 2.33789e-08 0
586 1 8.83 26.49 3.532 -4.44936 40281.8 19995.2 190319 -168338 36624.4 38897.6 12 11.0154 0.190941 0.574524 0.403915 0.012857 0.600083 1 2.33789e-08 1 2.33789e-08 0
587 1 8.83 24.724 5.298 -4.44936 116279 180323 122825 -39024.7 -79162.2 -37444.7 12 11.0154 0.190941 0.574524 0.403915 0.012857 0.600083 1 1.65314e-08 1 1.65314e-08 0
588 1 7.064 26.49 5.298 -4.44936 190650 149000 198746 -20120.7 538.477 1332.28 12 11.0154 0.190941 0.574524 0.403915 0.012857 0.600083 1 0 1 0 0
589 1 10.596 24.724 3.532 -4.44936 198549 182007 187761 -1974.95 -1600.77 -13597.1 12 11.0154 0.190941 0.574524 0.403915 0.012857 0.600083 1 2.86331e-08 1 2.86331e-08 0
590 1 12.362 26.49 3.532 -4.44936 186895 152540 196808 -23445.1 -4844.34 -9554.71 12 11.0154 0.190941 0.574524 0.403915 0.012857 0.600083 1 2.33789e-08 1 2.33789e-08 0
591 1 12.362 24.724 5.298 -4.44936 182012 178968 193997 18228.5 8958.2 -9737.44 12 11.0154 0.190941 0.574524 0.403915 0.012857 0.600083 1 2.86331e-08 1 2.86331e-08 0
592 1 10.596 26.49 5.298 -4.44936 195731 191935 173067 4570.63 8857.61 -13269 12 11.0154 0.190941 0.574524 0.403915 0.012857 0.600083 1 0 1 0 0
593 1 14.128 24.724 3.532 -4.44936 93778.6 168235 193991 -56634.7 22429.6 12097.6 12 11.0154 0.190941 0.574524 0.403915 0.012857 0.600083 1 2.86331e-08 1 2.86331e-08 0
594 1 15.894 26.49 3.532 -4.44936 198586 197569 48011.5 487.074 5430.95 -13521.8 12 11.0154 0.190941 0.574524 0.403915 0.012857 0.600083 1 1.65314e-08 1 1.65314e-08 0
595 1 15.894 24.724 5.298 -4.44936 149430 192618 197204 17442 -8824.96 3118.91 12 11.0154 0.190941 0.574524 0.403915 0.012857 0.600083 1 2.86331e-08 1 2.86331e-08 0
596 1 14.128 26.49 5.298 -4.44936 165658 178364 185636 26006.2 -20867.6 16383.7 12 11.0154 0.190941 0.574524 0.403915 0.012857 0.600083 1 1.65314e-08 1 1.65314e-08 0
597 1 17.66 24.724 3.532 -4.44936 168042 191510 103015 14951.7 -54257.3 26390.4 12 11.0154 0.190941 0.574524 0.403915 0.012857 0.600083 1 2.33789e-08 1 2.33789e-08 0
598 1 19.426 26.49 3.532 -4.44936 195883 194817 156107 -3390.68 -11123.3 -13008.6 12 11.0154 0.190941 0.574524 0.403915 0.012857 0.600083 1 2.02467e-08 1 2.02467e-08 0
599 1 19.426 24.724 5.298 -4.44936 187541 198662 159518 -1162.59 -21008.9 -2172.82 12 11.0154 0.190941 0.574524 0.403915 0.012857 0.600083 1 1.65314e-08 1 1.65314e-08 0
600 1 17.66 26.49 5.298 -4.44936 196323 127865 198758 13206.5 -240.359 1290.69 12 11.0154 0.190941 0.574524 0.403915 0.012857 0.600083 1 2.33789e-08 1 2.33789e-08 0
601 1 21.192 24.724 3.532 -4.44936 51518.4 150628 124065 84209.6 -104895 59982.3 12 11.0154 0.190941 0.574524 0.403915 0.012857 0.600083 1 1.65314e-08 1 1.65314e-08 0
602 1 22.958 26.49 3.532 -4.44936 181159 192823 198422 -10247.3 2520.11 1465.4 12 11.0154 0.190941 0.574524 0.403915 0.012857 0.600083 1 1.16894e-08 1 1.16894e-08 0
603 1 22.958 24.724 5.298 -4.44936 158802 140736 158016 -48173.3 -40370.8 -48644.7 12 11.0154 0.190941 0.574524 0.403915 0.012857 0.600083 1 1.65314e-08 1 1.65314e-08 0
604 1 21.192 26.49 5.298 -4.44936 157824 197952 165831 -5829.03 -36737.1 -5228.28 12 11.0154 0.190941 0.574524 0.403915 0.012857 0.600083 1 1.16894e-08 1 1.16894e-08 0
605 1 24.724 24.724 3.532 -4.44936 167035 198754 167760 937.854 -31382.4 927.096 12 11.0154 0.190941 0.574524 0.403915 0.012857 0.600083 1 2.86331e-08 1 2.86331e-08 0
606 1 26.49 26.49 3.532 -4.44936 198742 193254 194786 470.42 -399.977 4700.06 12 11.0154 0.190941 0.574524 0.403915 0.012857 0.600083 1 2.33789e-08 1 2.33789e-08 0
607 1 26.49 24.724 5.298 -4.44936 120483 19490.2 126466 -118484 -75248 -113867 12 11.0154 0.190941 0.574524 0.403915 0.012857 0.600083 1 2.86331e-08 1 2.86331e-08 0
608 1 24.724 26.49 5.298 -4.44936 96942.3 185750 198305 -36429.7 -6970.15 -2493.34 12 11.0154 0.190941 0.574524 0.403915 0.012857 0.600083 1 2.33789e-08 1 2.33789e-08 0
609 1 28.256 24.724 3.532 -4.44936 198600 -27461.8 117702 6410.31 3837.49 -135439 12 11.0154 0.190941 0.574524 0.403915 0.012857 0.600083 1 1.65314e-08 1 1.65314e-08 0
610 1 30.022 26.49 3.532 -4.44936 132045 195908 194046 -13848.4 -17777.8 -3689.03 12 11.0154 0.190941 0.574524 0.403915 0.012857 0.600083 1 2.02467e-08 1 2.02467e-08 0
611 1 30.022 24.724 5.298 -4.44936 173379 197785 152166 -5033.41 34411.6 6818.52 12 11.0154 0.190941 0.574524 0.403915 0.012857 0.600083 1 1.65314e-08 1 1.65314e-08 0
612 1 28.256 26.49 5.298 -4.44936 142647 16030.3 198309 -101285 5150.35 9292.91 12 11.0154 0.190941 0.574524 0.403915 0.012857 0.600083 1 1.16894e-08 1 1.16894e-08 0
613 1 0 28.256 3.532 -4.44936 5695.6 198780 179272 -652.493 -61377.2 -207.411 12 11.0154 0.190941 0.574524 0.403915 0.012857 0.600083 1 0 1 0 1.26218e-29
614 1 1.766 30.022 3.532 -4.44936 92700.2 187063 167330 -35258 57762.7 19198.4 12 11.0154 0.190941 0.574524 0.403915 0.012857 0.600083 1 2.33789e-08 1 2.33789e-08 0
615 1 1.766 28.256 5.298 -4.44936 196753 165905 186435 8166.65 -5004.62 20147.3 12 11.0154 0.190941 0.574524 0.403915 0.012857 0.600083 1 0 1 0 0
616 1 0 30.022 5.298 -4.44936 197598 198254 103615 790.741 -10616.6 7088.17 12 11.0154 0.190941 0.574524 0.403915 0.012857 0.600083 1 2.33789e-08 1 2.33789e-08 1.26218e-29
617 1 3.532 28.256 3.532 -4.44936 145007 166675 150839 -41551.9 -50775.3 -39234.4 12 11.0154 0.190941 0.574524 0.403915 0.012857 0.600083 1 0 1 0 0
618 1 5.298 30.022 3.532 -4.44936 140235 50743.1 184419 -93097.5 -28998.8 -46112.3 12 11.0154 0.190941 0.574524 0.403915 0.012857 0.600083 1 2.33789e-08 1 2.33789e-08 0
619 1 5.298 28.256 5.298 -4.44936 198435 180827 198354 -2494.87 385.301 2772.91 12 11.0154 0.190941 0.574524 0.403915 0.012857 0.600083 1 1.16894e-08 1 1.16894e-08 0
620 1 3.532 30.022 5.298 -4.44936 197290 195540 127852 -2199.58 10288.2 15164.6 12 11.0154 0.190941 0.574524 0.403915 0.012857 0.600083 1 2.33789e-08 1 2.33789e-08 0
621 1 7.064 28.256 3.532 -4.44936 190444 182924 186958 -11498.6 9928.74 13693 12 11.0154 0.190941 0.574524 0.403915 0.012857 0.600083 1 0 1 0 0
622 1 8.83 30.022 3.532 -4.44936 188687 177015 197013 14823.5 4226.1 -6205.56 12 11.0154 0.190941 0.574524 0.403915 0.012857 0.600083 1 1.65314e-08 1 1.65314e-08 0
623 1 8.83 28.256 5.298 -4.44936 185658 198483 197098 -1979.43 -4701.34 -709.08 12 11.0154 0.190941 0.574524 0.403915 0.012857 0.600083 1 0 1 0 0
624 1 7.064 30.022 5.298 -4.44936 185373 197575 197932 -4023.34 3375.99 1012.95 12 11.0154 0.190941 0.574524 0.403915 0.012857 0.600083 1 2.33789e-08 1 2.33789e-08 0
625 1 10.596 28.256 3.532 -4.44936 179801 151691 162790 29896.9 26137.1 -41169.2 12 11.0154 0.190941 0.574524 0.403915 0.012857 0.600083 1 0 1 0 0
626 1 12.362 30.022 3.532 -4.44936 198638 149156 138240 2672.73 -2952.1 54812.8 12 11.0154 0.190941 0.574524 0.403915 0.012857 0.600083 1 2.33789e-08 1 2.33789e-08 0
627 1 12.362 28.256 5.298 -4.44936 193822 192424 140207 5615.81 17045.2 -19298.5 12 11.0154 0.190941 0.574524 0.403915 0.012857 0.600083 1 0 1 0 0
628 1 10.596 30.022 5.298 -4.44936 103143 137468 58923.2 -76576.7 115655 92602.8 12 11.0154 0.190941 0.574524 0.403915 0.012857 0.600083 1 2.33789e-08 1 2.33789e-08 0
629 1 14.128 28.256 3.532 -4.44936 126419 172015 197057 -44010.8 -11171.1 -6794.2 12 11.0154 0.190941 0.574524 0.403915 0.012857 0.600083 1 0 1 0 0
630 1 15.894 30.022 3.532 -4.44936 23882.5 148109 -38985 94141.9 203925 -109765 12 11.0154 0.190941 0.574524 0.403915 0.012857 0.600083 1 2.33789e-08 1 2.33789e-08 0
631 1 15.894 28.256 5.298 -4.44936 191758 148281 197834 -18833.7 2579.92 6917.77 12 11.0154 0.190941 0.574524 0.403915 0.012857 0.600083 1 0 1 0 0
632 1 14.128 30.022 5.298 -4.44936 131221 170422 174983 43772 40097.9 -25979.1 12 11.0154 0.190941 0.574524 0.403915 0.012857 0.600083 1 2.33789e-08 1 2.33789e-08 0
633 1 17.66 28.256 3.532 -4.44936 172534 194301 185029 -10844.7 -18999.9 -7850.06 12 11.0154 0.190941 0.574524 0.403915 0.012857 0.600083 1 0 1 0 0
634 1 19.426 30.022 3.532 -4.44936 191009 194657 178177 5662.12 -12655.2 9218.91 12 11.0154 0.190941 0.574524 0.403915 0.012857 0.600083 1 1.16894e-08 1 1.16894e-08 0
635 1 19.426 28.256 5.298 -4.44936 -134024 178866 155678 81413.4 -119772 29299.6 12 11.0154 0.190941 0.574524 0.403915 0.012857 0.600083 1 1.16894e-08 1 1.16894e-08 0
636 1 17.66 30.022 5.298 -4.44936 198765 189334 139308 401.005 1006.1 -23704.8 12 11.0154 0.190941 0.574524 0.403915 0.012857 0.600083 1 2.33789e-08 1 2.33789e-08 0
637 1 21.192 28.256 3.532 -4.44936 198667 180628 59662.4 -1442.78 3994.06 50254.5 12 11.0154 0.190941 0.574524 0.403915 0.012857 0.600083 1 2.33789e-08 1 2.33789e-08 0
638 1 22.958 30.022 3.532 -4.44936 195399 176563 168783 8670.03 10074.2 -25818 12 11.0154 0.190941 0.574524 0.403915 0.012857 0.600083 1 1.16894e-08 1 1.16894e-08 0
639 1 22.958 28.256 5.298 -4.44936 182956 161818 105818 -24186.8 38357 58620.2 12 11.0154 0.190941 0.574524 0.403915 0.012857 0.600083 1 1.16894e-08 1 1.16894e-08 0
640 1 21.192 30.022 5.298 -4.44936 166438 62882.3 187786 66299.2 18858.9 -38656.9 12 11.0154 0.190941 0.574524 0.403915 0.012857 0.600083 1 1.16894e-08 1 1.16894e-08 0
641 1 24.724 28.256 3.532 -4.44936 73423 147132 99737.9 80465.7 -111427 71523.3 12 11.0154 0.190941 0.574524 0.403915 0.012857 0.600083 1 1.65314e-08 1 1.65314e-08 0
642 1 26.49 30.022 3.532 -4.44936 163520 115873 196532 -54070 -8908.14 -13659.5 12 11.0154 0.190941 0.574524 0.403915 0.012857 0.600083 1 2.02467e-08 1 2.02467e-08 0
643 1 26.49 28.256 5.298 -4.44936 192294 86293.5 192629 27015.9 6318.41 -26308.5 12 11.0154 0.190941 0.574524 0.403915 0.012857 0.600083 1 1.65314e-08 1 1.65314e-08 0
644 1 24.724 30.022 5.298 -4.44936 178876 177439 31688.1 -20611.7 57672.6 59717.8 12 11.0154 0.190941 0.574524 0.403915 0.012857 0.600083 1 2.61384e-08 1 2.61384e-08 0
645 1 28.256 28.256 3.532 -4.44936 113115 198779 173883 -486.057 -46184.4 -262.042 12 11.0154 0.190941 0.574524 0.403915 0.012857 0.600083 1 2.33789e-08 1 2.33789e-08 0
646 1 30.022 30.022 3.532 -4.44936 177656 198270 198351 3287.77 3018.7 -469.782 12 11.0154 0.190941 0.574524 0.403915 0.012857 0.600083 1 1.16894e-08 1 1.16894e-08 0
647 1 30.022 28.256 5.298 -4.44936 129110 187813 191956 27644.5 -21807.1 8652.69 12 11.0154 0.190941 0.574524 0.403915 0.012857 0.600083 1 1.16894e-08 1 1.16894e-08 0
648 1 28.256 30.022 5.298 -4.44936 197611 198725 123564 -257.285 9384.4 2062.18 12 11.0154 0.190941 0.574524 0.403915 0.012857 0.600083 1 1.16894e-08 1 1.16894e-08 0
649 1 0 0 7.064 -4.44936 165122 181260 174390 24285.9 -28653.9 20673.8 12 11.0154 0.190941 0.574524 0.403915 0.012857 0.600083 1 2.33789e-08 1 2.33789e-08 2.52435e-29
650 1 1.766 1.766 7.064 -4.44936 180649 190287 10165.5 12410.8 -58481.7 40027.5 12 11.0154 0.190941 0.574524 0.403915 0.012857 0.600083 1 1.65314e-08 1 1.65314e-08 0
651 1 1.766 0 8.83 -4.44936 188876 198740 133937 -643.328 25345.1 1645.94 12 11.0154 0.190941 0.574524 0.403915 0.012857 0.600083 1 1.65314e-08 1 1.65314e-08 1.26218e-29
652 1 0 1.766 8.83 -4.44936 178731 196930 195375 -6093.19 -8265.37 -2511.66 12 11.0154 0.190941 0.574524 0.403915 0.012857 0.600083 1 1.65314e-08 1 1.65314e-08 1.26218e-29
653 1 3.532 0 7.064 -4.44936 196126 104433 188235 -15828.9 -5292.27 -31544.9 12 11.0154 0.190941 0.574524 0.403915 0.012857 0.600083 1 1.65314e-08 1 1.65314e-08 1.26218e-29
654 1 5.298 1.766 7.064 -4.44936 111980 196528 127027 13986.3 -78920.6 12716.4 12 11.0154 0.190941 0.574524 0.403915 0.012857 0.600083 1 1.65314e-08 1 1.65314e-08 0
655 1 5.298 0 8.83 -4.44936 150699 116858 171277 -62763 -36366.8 -47469.5 12 11.0154 0.190941 0.574524 0.403915 0.012857 0.600083 1 2.61384e-08 1 2.61384e-08 1.26218e-29
656 1 3.532 1.766 8.83 -4.44936 150055 -64467.3 109895 113258 -65812 152969 12 11.0154 0.190941 0.574524 0.403915 0.012857 0.600083 1 1.65314e-08 1 1.65314e-08 0
657 1 7.064 0 7.064 -4.44936 40760.2 174031 197090 62539.9 -16349.7 6470.69 12 11.0154 0.190941 0.574524 0.403915 0.012857 0.600083 1 2.33789e-08 1 2.33789e-08 1.26218e-29
658 1 8.83 1.766 7.064 -4.44936 195818 121316 197833 -15152.7 1677.29 8574.9 12 11.0154 0.190941 0.574524 0.403915 0.012857 0.600083 1 1.65314e-08 1 1.65314e-08 0
659 1 8.83 0 8.83 -4.44936 198139 174013 198115 3990 654.883 -4065.41 12 11.0154 0.190941 0.574524 0.403915 0.012857 0.600083 1 2.61384e-08 1 2.61384e-08 1.26218e-29
660 1 7.064 1.766 8.83 -4.44936 54973.1 178576 174810 53905 -58714.9 22008.6 12 11.0154 0.190941 0.574524 0.403915 0.012857 0.600083 1 1.65314e-08 1 1.65314e-08 0
661 1 10.596 0 7.064 -4.44936 119282 197914 197742 8309.19 9093.44 -950.427 12 11.0154 0.190941 0.574524 0.403915 0.012857 0.600083 1 2.61384e-08 1 2.61384e-08 1.26218e-29
662 1 12.362 1.766 7.064 -4.44936 181814 123388 115761 35766.9 37532.5 -79115.9 12 11.0154 0.190941 0.574524 0.403915 0.012857 0.600083 1 1.65314e-08 1 1.65314e-08 0
663 1 12.362 0 8.83 -4.44936 66623 194200 162134 24607.1 -69594.4 12958 12 11.0154 0.190941 0.574524 0.403915 0.012857 0.600083 1 1.65314e-08 1 1.65314e-08 1.26218e-29
664 1 10.596 1.766 8.83 -4.44936 185656 153644 172399 24340.5 18609.1 -34509.1 12 11.0154 0.190941 0.574524 0.403915 0.012857 0.600083 1 1.65314e-08 1 1.65314e-08 0
665 1 14.128 0 7.064 -4.44936 195135 198289 196204 1340.85 3066.16 -1127.2 12 11.0154 0.190941 0.574524 0.403915 0.012857 0.600083 1 1.65314e-08 1 1.65314e-08 1.26218e-29
666 1 15.894 1.766 7.064 -4.44936 196321 184103 174750 6010.69 7690.82 -18781.6 12 11.0154 0.190941 0.574524 0.403915 0.012857 0.600083 1 1.65314e-08 1 1.65314e-08 0
667 1 15.894 0 8.83 -4.44936 193460 196438 196391 -3532.23 3567.43 2367.58 12 11.0154 0.190941 0.574524 0.403915 0.012857 0.600083 1 1.65314e-08 1 1.65314e-08 1.26218e-29
668 1 14.128 1.766 8.83 -4.44936 198764 39147.7 67198 1677.98 1523.44 -144932 12 11.0154 0.190941 0.574524 0.403915 0.012857 0.600083 1 1.65314e-08 1 1.65314e-08 0
669 1 17.66 0 7.064 -4.44936 114755 196632 112838 13441.3 -84979.9 13593.8 12 11.0154 0.190941 0.574524 0.403915 0.012857 0.600083 1 2.86331e-08 1 2.86331e-08 1.26218e-29
670 1 19.426 1.766 7.064 -4.44936 181311 -60519.5 195221 -67307.7 7887.43 30386.2 12 11.0154 0.190941 0.574524 0.403915 0.012857 0.600083 1 1.65314e-08 1 1.65314e-08 0
671 1 19.426 0 8.83 -4.44936 165249 188234 197772 -18807.2 5820.75 3264.56 12 11.0154 0.190941 0.574524 0.403915 0.012857 0.600083 1 2.02467e-08 1 2.02467e-08 1.26218e-29
672 1 17.66 1.766 8.83 -4.44936 192305 163363 191587 -15146.6 -6826.57 -15963.3 12 11.0154 0.190941 0.574524 0.403915 0.012857 0.600083 1 1.65314e-08 1 1.65314e-08 0
673 1 21.192 0 7.064 -4.44936 -7630.72 198633 -29677.5 5552.21 217156 -5841.21 12 11.0154 0.190941 0.574524 0.403915 0.012857 0.600083 1 1.65314e-08 1 1.65314e-08 1.26218e-29
674 1 22.958 1.766 7.064 -4.44936 173834 131487 189825 -40974 14948.7 24551.6 12 11.0154 0.190941 0.574524 0.403915 0.012857 0.600083 1 1.65314e-08 1 1.65314e-08 0
675 1 22.958 0 8.83 -4.44936 176544 198501 198325 2497.61 3188.73 -358.137 12 11.0154 0.190941 0.574524 0.403915 0.012857 0.600083 1 2.86331e-08 1 2.86331e-08 1.26218e-29
676 1 21.192 1.766 8.83 -4.44936 161965 191038 185108 16885.5 -22437.8 10290.6 12 11.0154 0.190941 0.574524 0.403915 0.012857 0.600083 1 0 1 0 0
677 1 24.724 0 7.064 -4.44936 -64368.2 197108 177526 -20986.3 -74789.5 -5964.48 12 11.0154 0.190941 0.574524 0.403915 0.012857 0.600083 1 2.33789e-08 1 2.33789e-08 1.26218e-29
678 1 26.49 1.766 7.064 -4.44936 192194 142466 143786 -19261.1 -19034 -55652.5 12 11.0154 0.190941 0.574524 0.403915 0.012857 0.600083 1 2.33789e-08 1 2.33789e-08 0
679 1 26.49 0 8.83 -4.44936 144243 134171 168275 59361.3 -40790.1 44397.1 12 11.0154 0.190941 0.574524 0.403915 0.012857 0.600083 1 2.61384e-08 1 2.61384e-08 1.26218e-29
680 1 24.724 1.766 8.83 -4.44936 188028 191536 29346.8 8827.65 42685.9 -35040 12 11.0154 0.190941 0.574524 0.403915 0.012857 0.600083 1 1.65314e-08 1 1.65314e-08 0
681 1 28.256 0 7.064 -4.44936 186598 162188 198713 -21115.6 914.09 1584.14 12 11.0154 0.190941 0.574524 0.403915 0.012857 0.600083 1 0 1 0 1.26218e-29
682 1 30.022 1.766 7.064 -4.44936 172360 196514 174670 -7741.48 -25240.6 -7395.28 12 11.0154 0.190941 0.574524 0.403915 0.012857 0.600083 1 2.33789e-08 1 2.33789e-08 0
683 1 30.022 0 8.83 -4.44936 107357 187075 159746 32716.2 59739.6 -21377.7 12 11.0154 0.190941 0.574524 0.403915 0.012857 0.600083 1 2.02467e-08 1 2.02467e-08 1.26218e-29
684 1 28.256 1.766 8.83 -4.44936 195750 195359 -53018.8 3221.39 -27630.4 29357.1 12 11.0154 0.190941 0.574524 0.403915 0.012857 0.600083 1 0 1 0 0
685 1 0 3.532 7.064 -4.44936 188539 186099 166854 -11398 -18084.3 -20123.4 12 11.0154 0.190941 0.574524 0.403915 0.012857 0.600083 1 1.65314e-08 1 1.65314e-08 1.26218e-29
686 1 1.766 5.298 7.064 -4.44936 110610 166487 130281 -53362.1 77716.7 47034.4 12 11.0154 0.190941 0.574524 0.403915 0.012857 0.600083 1 1.65314e-08 1 1.65314e-08 0
687 1 1.766 3.532 8.83 -4.44936 -11265.8 178810 178299 64769.1 -65592.6 20225.7 12 11.0154 0.190941 0.574524 0.403915 0.012857 0.600083 1 1.65314e-08 1 1.65314e-08 0
688 1 0 5.298 8.83 -4.44936 159785 175077 198758 -30404 972.935 758.55 12 11.0154 0.190941 0.574524 0.403915 0.012857 0.600083 1 2.33789e-08 1 2.33789e-08 1.26218e-29
689 1 3.532 3.532 7.064 -4.44936 -11617.9 83644.7 131037 -155643 119388 88317.2 12 11.0154 0.190941 0.574524 0.403915 0.012857 0.600083 1 1.65314e-08 1 1.65314e-08 0
690 1 5.298 5.298 7.064 -4.44936 170319 46751.5 184499 -65782.3 -20163 -46599.1 12 11.0154 0.190941 0.574524 0.403915 0.012857 0.600083 1 1.65314e-08 1 1.65314e-08 0
691 1 5.298 3.532 8.83 -4.44936 193519 123667 186112 -19882.5 -8165.68 -30849.6 12 11.0154 0.190941 0.574524 0.403915 0.012857 0.600083 1 1.65314e-08 1 1.65314e-08 0
692 1 3.532 5.298 8.83 -4.44936 197314 193742 196729 -2719.8 -1735.89 -3216.81 12 11.0154 0.190941 0.574524 0.403915 0.012857 0.600083 1 1.65314e-08 1 1.65314e-08 0
693 1 7.064 3.532 7.064 -4.44936 198099 198755 161238 135.049 -5065.46 1000.95 12 11.0154 0.190941 0.574524 0.403915 0.012857 0.600083 1 1.65314e-08 1 1.65314e-08 0
694 1 8.83 5.298 7.064 -4.44936 175923 190640 193982 13642.1 10474.4 -6251.04 12 11.0154 0.190941 0.574524 0.403915 0.012857 0.600083 1 1.65314e-08 1 1.65314e-08 0
695 1 8.83 3.532 8.83 -4.44936 163531 192687 191864 -14657.8 15616.5 6493.59 12 11.0154 0.190941 0.574524 0.403915 0.012857 0.600083 1 1.65314e-08 1 1.65314e-08 0
696 1 7.064 5.298 8.83 -4.44936 135796 198688 198224 2435.65 5927.15 -229.201 12 11.0154 0.190941 0.574524 0.403915 0.012857 0.600083 1 1.65314e-08 1 1.65314e-08 0
697 1 10.596 3.532 7.064 -4.44936 163990 171587 181225 -30760.1 24715.2 21850.9 12 11.0154 0.190941 0.574524 0.403915 0.012857 0.600083 1 1.65314e-08 1 1.65314e-08 0
698 1 12.362 5.298 7.064 -4.44936 135519 198775 131247 643.411 -65364.1 664.78 12 11.0154 0.190941 0.574524 0.403915 0.012857 0.600083 1 1.65314e-08 1 1.65314e-08 0
699 1 12.362 3.532 8.83 -4.44936 190746 75111.6 197063 -31523.9 3716.43 14579.8 12 11.0154 0.190941 0.574524 0.403915 0.012857 0.600083 1 1.65314e-08 1 1.65314e-08 0
700 1 10.596 5.298 8.83 -4.44936 190263 169576 148663 -15773.3 -20662.6 -38259.7 12 11.0154 0.190941 0.574524 0.403915 0.012857 0.600083 1 1.65314e-08 1 1.65314e-08 0
701 1 14.128 3.532 7.064 -4.44936 196782 198583 189452 630.62 4319.2 -1362.17 12 11.0154 0.190941 0.574524 0.403915 0.012857 0.600083 1 1.65314e-08 1 1.65314e-08 0
702 1 15.894 5.298 7.064 -4.44936 113382 120105 146307 -81969.6 -66943.1 -64254 12 11.0154 0.190941 0.574524 0.403915 0.012857 0.600083 1 1.65314e-08 1 1.65314e-08 0
703 1 15.894 3.532 8.83 -4.44936 -52514.7 70818.2 -13420 -179323 -230923 -164785 12 11.0154 0.190941 0.574524 0.403915 0.012857 0.600083 1 1.65314e-08 1 1.65314e-08 0
704 1 14.128 5.298 8.83 -4.44936 198702 5526.22 192936 3932.57 -683.988 33612.8 12 11.0154 0.190941 0.574524 0.403915 0.012857 0.600083 1 1.65314e-08 1 1.65314e-08 0
705 1 17.66 3.532 7.064 -4.44936 104510 198776 144966 758.002 -71227.7 572.711 12 11.0154 0.190941 0.574524 0.403915 0.012857 0.600083 1 1.65314e-08 1 1.65314e-08 0
706 1 19.426 5.298 7.064 -4.44936 198699 196916 181748 394.063 -1190.58 5638.05 12 11.0154 0.190941 0.574524 0.403915 0.012857 0.600083 1 1.65314e-08 1 1.65314e-08 0
707 1 19.426 3.532 8.83 -4.44936 193209 178711 -144591 -10575.7 -43743.1 -83016.7 12 11.0154 0.190941 0.574524 0.403915 0.012857 0.600083 1 1.65314e-08 1 1.65314e-08 0
708 1 17.66 5.298 8.83 -4.44936 193101 177078 193902 11104.5 -5265.28 10291.3 12 11.0154 0.190941 0.574524 0.403915 0.012857 0.600083 1 1.65314e-08 1 1.65314e-08 0
709 1 21.192 3.532 7.064 -4.44936 153533 179049 184366 29881.6 -25540.6 16866.6 12 11.0154 0.190941 0.574524 0.403915 0.012857 0.600083 1 1.16894e-08 1 1.16894e-08 0
710 1 22.958 5.298 7.064 -4.44936 198188 166182 147654 -4399.04 -5509.1 -40826.3 12 11.0154 0.190941 0.574524 0.403915 0.012857 0.600083 1 2.33789e-08 1 2.33789e-08 0
711 1 22.958 3.532 8.83 -4.44936 198592 188364 65336.8 -1406.96 -5035.5 -37285.7 12 11.0154 0.190941 0.574524 0.403915 0.012857 0.600083 1 2.33789e-08 1 2.33789e-08 0
712 1 21.192 5.298 8.83 -4.44936 170889 -37997.7 117805 -81268.5 -47525.9 -138469 12 11.0154 0.190941 0.574524 0.403915 0.012857 0.600083 1 0 1 0 0
713 1 24.724 3.532 7.064 -4.44936 198677 198347 196068 -213.78 533.809 1086.87 12 11.0154 0.190941 0.574524 0.403915 0.012857 0.600083 1 2.33789e-08 1 2.33789e-08 0
714 1 26.49 5.298 7.064 -4.44936 198339 149690 160045 -4663.93 4142.96 43608.2 12 11.0154 0.190941 0.574524 0.403915 0.012857 0.600083 1 1.16894e-08 1 1.16894e-08 0
715 1 26.49 3.532 8.83 -4.44936 183210 173638 198754 -19787.3 662.628 841.999 12 11.0154 0.190941 0.574524 0.403915 0.012857 0.600083 1 2.33789e-08 1 2.33789e-08 0
716 1 24.724 5.298 8.83 -4.44936 193448 198292 143748 -1616.99 17133.3 5193.92 12 11.0154 0.190941 0.574524 0.403915 0.012857 0.600083 1 2.33789e-08 1 2.33789e-08 0
717 1 28.256 3.532 7.064 -4.44936 196029 187674 198411 -5530.21 1010.02 2028.78 12 11.0154 0.190941 0.574524 0.403915 0.012857 0.600083 1 0 1 0 0
718 1 30.022 5.298 7.064 -4.44936 100808 189215 138855 30616 -76624.2 23944.4 12 11.0154 0.190941 0.574524 0.403915 0.012857 0.600083 1 0 1 0 0
719 1 30.022 3.532 8.83 -4.44936 160639 165386 67134.3 35690.8 -70862.2 66306.2 12 11.0154 0.190941 0.574524 0.403915 0.012857 0.600083 1 1.16894e-08 1 1.16894e-08 0
720 1 28.256 5.298 8.83 -4.44936 198265 193455 40670.5 1659.48 9041.1 -29021.1 12 11.0154 0.190941 0.574524 0.403915 0.012857 0.600083 1 0 1 0 0
721 1 0 7.064 7.064 -4.44936 191556 171495 183430 14041.5 -10532.1 20466.8 12 11.0154 0.190941 0.574524 0.403915 0.012857 0.600083 1 1.65314e-08 1 1.65314e-08 1.26218e-29
722 1 1.766 8.83 7.064 -4.44936 178250 157962 181637 -28950.4 18762.3 26454.8 12 11.0154 0.190941 0.574524 0.403915 0.012857 0.600083 1 1.65314e-08 1 1.65314e-08 0
723 1 1.766 7.064 8.83 -4.44936 179394 198478 191071 2427.98 12227.2 -1531.21 12 11.0154 0.190941 0.574524 0.403915 0.012857 0.600083 1 1.65314e-08 1 1.65314e-08 0
724 1 0 8.83 8.83 -4.44936 174710 198581 197394 -2198.15 -5780.82 -527.887 12 11.0154 0.190941 0.574524 0.403915 0.012857 0.600083 1 2.33789e-08 1 2.33789e-08 1.26218e-29
725 1 3.532 7.064 7.064 -4.44936 198764 117155 187189 1197.36 451.244 -30762.4 12 11.0154 0.190941 0.574524 0.403915 0.012857 0.600083 1 1.65314e-08 1 1.65314e-08 0
726 1 5.298 8.83 7.064 -4.44936 187445 193560 171517 7694.05 -17581.2 11931.9 12 11.0154 0.190941 0.574524 0.403915 0.012857 0.600083 1 1.65314e-08 1 1.65314e-08 0
727 1 5.298 7.064 8.83 -4.44936 94423.9 137065 63188.1 80253.8 -118955 91479.2 12 11.0154 0.190941 0.574524 0.403915 0.012857 0.600083 1 1.65314e-08 1 1.65314e-08 0
728 1 3.532 8.83 8.83 -4.44936 190274 163955 198636 -17214.1 1113.09 2251.99 12 11.0154 0.190941 0.574524 0.403915 0.012857 0.600083 1 1.65314e-08 1 1.65314e-08 0
729 1 7.064 7.064 7.064 -4.44936 197891 195753 192155 1642.68 -2429.75 4480.42 12 11.0154 0.190941 0.574524 0.403915 0.012857 0.600083 1 1.65314e-08 1 1.65314e-08 0
730 1 8.83 8.83 7.064 -4.44936 193461 132690 197848 18753.5 2229.53 -7857.4 12 11.0154 0.190941 0.574524 0.403915 0.012857 0.600083 1 1.65314e-08 1 1.65314e-08 0
731 1 8.83 7.064 8.83 -4.44936 186518 129806 159752 29084.6 -21878.2 51885.5 12 11.0154 0.190941 0.574524 0.403915 0.012857 0.600083 1 1.65314e-08 1 1.65314e-08 0
732 1 7.064 8.83 8.83 -4.44936 197326 187530 113769 -4047.64 11125.8 30928.3 12 11.0154 0.190941 0.574524 0.403915 0.012857 0.600083 1 1.65314e-08 1 1.65314e-08 0
733 1 10.596 7.064 7.064 -4.44936 192111 192199 104952 6627.12 -25019.1 24854.1 12 11.0154 0.190941 0.574524 0.403915 0.012857 0.600083 1 1.65314e-08 1 1.65314e-08 0
734 1 12.362 8.83 7.064 -4.44936 -156199 -87842.7 197653 -318977 -20019.1 -17988.7 12 11.0154 0.190941 0.574524 0.403915 0.012857 0.600083 1 1.65314e-08 1 1.65314e-08 0
735 1 12.362 7.064 8.83 -4.44936 160758 196392 13608 -9532.31 83910.9 21035.8 12 11.0154 0.190941 0.574524 0.403915 0.012857 0.600083 1 1.65314e-08 1 1.65314e-08 0
736 1 10.596 8.83 8.83 -4.44936 194573 190013 139297 -6074.79 -15822.3 -22838.6 12 11.0154 0.190941 0.574524 0.403915 0.012857 0.600083 1 1.65314e-08 1 1.65314e-08 0
737 1 14.128 7.064 7.064 -4.44936 195523 35204.9 -47977 -23088.7 28357.9 200908 12 11.0154 0.190941 0.574524 0.403915 0.012857 0.600083 1 1.65314e-08 1 1.65314e-08 0
738 1 15.894 8.83 7.064 -4.44936 197668 166367 198757 -6009.88 166.928 900.35 12 11.0154 0.190941 0.574524 0.403915 0.012857 0.600083 1 1.65314e-08 1 1.65314e-08 0
739 1 15.894 7.064 8.83 -4.44936 183908 180628 191476 -16432.4 -10424.9 -11516.9 12 11.0154 0.190941 0.574524 0.403915 0.012857 0.600083 1 1.65314e-08 1 1.65314e-08 0
740 1 14.128 8.83 8.83 -4.44936 198587 181352 81113.6 1845.51 4795.08 -45287.6 12 11.0154 0.190941 0.574524 0.403915 0.012857 0.600083 1 1.65314e-08 1 1.65314e-08 0
741 1 17.66 7.064 7.064 -4.44936 198703 180306 195592 -1210.96 -503.207 -7677.6 12 11.0154 0.190941 0.574524 0.403915 0.012857 0.600083 1 2.02467e-08 1 2.02467e-08 0
742 1 19.426 8.83 7.064 -4.44936 186700 47220.3 198781 -42791.8 132.279 468.511 12 11.0154 0.190941 0.574524 0.403915 0.012857 0.600083 1 2.33789e-08 1 2.33789e-08 0
743 1 19.426 7.064 8.83 -4.44936 172950 35529.6 193758 64939.9 -11392.4 28639.3 12 11.0154 0.190941 0.574524 0.403915 0.012857 0.600083 1 0 1 0 0
744 1 17.66 8.83 8.83 -4.44936 198709 78425.8 177972 -2959 -1230.41 -50046.3 12 11.0154 0.190941 0.574524 0.403915 0.012857 0.600083 1 1.65314e-08 1 1.65314e-08 0
745 1 21.192 7.064 7.064 -4.44936 171111 195085 198378 -10114.4 -3342.08 -1221.61 12 11.0154 0.190941 0.574524 0.403915 0.012857 0.600083 1 0 1 0 0
746 1 22.958 8.83 7.064 -4.44936 197039 191904 154719 -3462.28 -8763.15 -17409 12 11.0154 0.190941 0.574524 0.403915 0.012857 0.600083 1 1.65314e-08 1 1.65314e-08 0
747 1 22.958 7.064 8.83 -4.44936 183238 182918 197172 15703 -5002.97 5054.32 12 11.0154 0.190941 0.574524 0.403915 0.012857 0.600083 1 1.65314e-08 1 1.65314e-08 0
748 1 21.192 8.83 8.83 -4.44936 161877 -32019.1 198474 92292 3372.15 -8432.96 12 11.0154 0.190941 0.574524 0.403915 0.012857 0.600083 1 0 1 0 0
749 1 24.724 7.064 7.064 -4.44936 184950 191920 163438 9742.87 -22111 15573.9 12 11.0154 0.190941 0.574524 0.403915 0.012857 0.600083 1 2.33789e-08 1 2.33789e-08 0
750 1 26.49 8.83 7.064 -4.44936 194555 93536.2 195549 -21091.2 3696.8 18447.1 12 11.0154 0.190941 0.574524 0.403915 0.012857 0.600083 1 1.65314e-08 1 1.65314e-08 0
751 1 26.49 7.064 8.83 -4.44936 180944 190366 130834 -12252.3 -34814.6 -23912.7 12 11.0154 0.190941 0.574524 0.403915 0.012857 0.600083 1 0 1 0 0
752 1 24.724 8.83 8.83 -4.44936 2725.27 16792.4 170383 188892 74617.3 -71890.6 12 11.0154 0.190941 0.574524 0.403915 0.012857 0.600083 1 1.65314e-08 1 1.65314e-08 0
753 1 28.256 7.064 7.064 -4.44936 122847 51113.3 195310 105892 -16236 22641.4 12 11.0154 0.190941 0.574524 0.403915 0.012857 0.600083 1 0 1 0 0
754 1 30.022 8.83 7.064 -4.44936 191029 178340 128150 -12589.4 23401.4 37998.1 12 11.0154 0.190941 0.574524 0.403915 0.012857 0.600083 1 0 1 0 0
755 1 30.022 7.064 8.83 -4.44936 179477 124948 197034 37754.3 -5809.44 11361.2 12 11.0154 0.190941 0.574524 0.403915 0.012857 0.600083 1 0 1 0 0
756 1 28.256 8.83 8.83 -4.44936 193611 198782 192980 -47.3111 -5477.24 -50.1166 12 11.0154 0.190941 0.574524 0.403915 0.012857 0.600083 1 0 1 0 0
757 1 0 10.596 7.064 -4.44936 198576 173504 198761 -2282.42 66.4865 736.346 12 11.0154 0.190941 0.574524 0.403915 0.012857 0.600083 1 1.65314e-08 1 1.65314e-08 1.26218e-29
758 1 1.766 12.362 7.064 -4.44936 178626 198012 190894 -3939.57 12609.1 2464.47 12 11.0154 0.190941 0.574524 0.403915 0.012857 0.600083 1 1.65314e-08 1 1.65314e-08 0
759 1 1.766 10.596 8.83 -4.44936 195411 195843 192126 -3147.28 -4736.54 -4422.61 12 11.0154 0.190941 0.574524 0.403915 0.012857 0.600083 1 1.65314e-08 1 1.65314e-08 0
760 1 0 12.362 8.83 -4.44936 180024 159766 174990 27052.8 21125.7 -30467.6 12 11.0154 0.190941 0.574524 0.403915 0.012857 0.600083 1 2.02467e-08 1 2.02467e-08 1.26218e-29
761 1 3.532 10.596 7.064 -4.44936 198782 160567 152869 -86.1754 94.457 41887.7 12 11.0154 0.190941 0.574524 0.403915 0.012857 0.600083 1 1.65314e-08 1 1.65314e-08 0
762 1 5.298 12.362 7.064 -4.44936 189143 118513 194511 27815.6 6416.18 -18515.6 12 11.0154 0.190941 0.574524 0.403915 0.012857 0.600083 1 1.65314e-08 1 1.65314e-08 0
763 1 5.298 10.596 8.83 -4.44936 180806 187032 165610 14533.1 -24418.8 19742.4 12 11.0154 0.190941 0.574524 0.403915 0.012857 0.600083 1 1.65314e-08 1 1.65314e-08 0
764 1 3.532 12.362 8.83 -4.44936 197114 189146 198782 -4008.99 -4.21571 -10.1329 12 11.0154 0.190941 0.574524 0.403915 0.012857 0.600083 1 1.65314e-08 1 1.65314e-08 0
765 1 7.064 10.596 7.064 -4.44936 198376 195368 180988 1177.99 -2689.25 7794.49 12 11.0154 0.190941 0.574524 0.403915 0.012857 0.600083 1 1.65314e-08 1 1.65314e-08 0
766 1 8.83 12.362 7.064 -4.44936 178967 152583 194387 -30256.2 9331.97 14249.1 12 11.0154 0.190941 0.574524 0.403915 0.012857 0.600083 1 1.65314e-08 1 1.65314e-08 0
767 1 8.83 10.596 8.83 -4.44936 122299 198756 181287 -1406.49 36579.8 672.686 12 11.0154 0.190941 0.574524 0.403915 0.012857 0.600083 1 1.65314e-08 1 1.65314e-08 0
768 1 7.064 12.362 8.83 -4.44936 136400 198609 197014 3281.36 -10501 552.367 12 11.0154 0.190941 0.574524 0.403915 0.012857 0.600083 1 1.65314e-08 1 1.65314e-08 0
769 1 10.596 10.596 7.064 -4.44936 84957.4 177293 185776 -49456.3 -38475.8 -16717.6 12 11.0154 0.190941 0.574524 0.403915 0.012857 0.600083 1 1.65314e-08 1 1.65314e-08 0
770 1 12.362 12.362 7.064 -4.44936 174021 197267 186320 -6124.5 -17566.3 -4344.97 12 11.0154 0.190941 0.574524 0.403915 0.012857 0.600083 1 1.65314e-08 1 1.65314e-08 0
771 1 12.362 10.596 8.83 -4.44936 191353 182317 197473 11060.1 3118.45 -4642.45 12 11.0154 0.190941 0.574524 0.403915 0.012857 0.600083 1 1.65314e-08 1 1.65314e-08 0
772 1 10.596 12.362 8.83 -4.44936 191031 195355 180136 -5153.98 -12021.9 -7993.91 12 11.0154 0.190941 0.574524 0.403915 0.012857 0.600083 1 1.65314e-08 1 1.65314e-08 0
773 1 14.128 10.596 7.064 -4.44936 198302 139077 -4996.48 5354.95 9893.06 -110302 12 11.0154 0.190941 0.574524 0.403915 0.012857 0.600083 1 1.65314e-08 1 1.65314e-08 0
774 1 15.894 12.362 7.064 -4.44936 181576 197868 106179 3966.49 39916.8 -9201.89 12 11.0154 0.190941 0.574524 0.403915 0.012857 0.600083 1 1.65314e-08 1 1.65314e-08 0
775 1 15.894 10.596 8.83 -4.44936 174027 188305 196900 -16104.5 6825.43 4440.4 12 11.0154 0.190941 0.574524 0.403915 0.012857 0.600083 1 1.65314e-08 1 1.65314e-08 0
776 1 14.128 12.362 8.83 -4.44936 190037 196991 187588 3957.94 -9894.2 4477.95 12 11.0154 0.190941 0.574524 0.403915 0.012857 0.600083 1 1.65314e-08 1 1.65314e-08 0
777 1 17.66 10.596 7.064 -4.44936 117279 -51668.8 198184 142872 -6983.87 12242.5 12 11.0154 0.190941 0.574524 0.403915 0.012857 0.600083 1 1.65314e-08 1 1.65314e-08 0
778 1 19.426 12.362 7.064 -4.44936 196458 198779 197548 88.7909 1693.34 -64.6878 12 11.0154 0.190941 0.574524 0.403915 0.012857 0.600083 1 1.65314e-08 1 1.65314e-08 0
779 1 19.426 10.596 8.83 -4.44936 179810 196818 183126 -6103.69 17234.5 5544.65 12 11.0154 0.190941 0.574524 0.403915 0.012857 0.600083 1 1.65314e-08 1 1.65314e-08 0
780 1 17.66 12.362 8.83 -4.44936 28624.2 195998 122076 -21763.9 -114246 -14612.5 12 11.0154 0.190941 0.574524 0.403915 0.012857 0.600083 1 1.65314e-08 1 1.65314e-08 0
781 1 21.192 10.596 7.064 -4.44936 198527 176300 -25136.5 -2393.98 -7555.2 -70951.9 12 11.0154 0.190941 0.574524 0.403915 0.012857 0.600083 1 0 1 0 0
782 1 22.958 12.362 7.064 -4.44936 179404 136309 174191 34793.9 -21829.4 39195.2 12 11.0154 0.190941 0.574524 0.403915 0.012857 0.600083 1 1.65314e-08 1 1.65314e-08 0
783 1 22.958 10.596 8.83 -4.44936 184774 196590 195163 -5541.26 7120.26 2816.54 12 11.0154 0.190941 0.574524 0.403915 0.012857 0.600083 1 1.16894e-08 1 1.16894e-08 0
784 1 21.192 12.362 8.83 -4.44936 191627 180907 185951 11308.8 9581.2 -15144.2 12 11.0154 0.190941 0.574524 0.403915 0.012857 0.600083 1 0 1 0 0
785 1 24.724 10.596 7.064 -4.44936 149879 195765 179208 -12147.2 -30939.1 -7685.15 12 11.0154 0.190941 0.574524 0.403915 0.012857 0.600083 1 2.61384e-08 1 2.61384e-08 0
786 1 26.49 12.362 7.064 -4.44936 86210.4 198533 177925 5293.5 48454.6 -2278.5 12 11.0154 0.190941 0.574524 0.403915 0.012857 0.600083 1 1.65314e-08 1 1.65314e-08 0
787 1 26.49 10.596 8.83 -4.44936 188806 197646 117317 -3365.72 -28507.7 -9618.05 12 11.0154 0.190941 0.574524 0.403915 0.012857 0.600083 1 2.33789e-08 1 2.33789e-08 0
788 1 24.724 12.362 8.83 -4.44936 154691 176731 168760 31181.2 36382.7 -25730 12 11.0154 0.190941 0.574524 0.403915 0.012857 0.600083 1 2.33789e-08 1 2.33789e-08 0
789 1 28.256 10.596 7.064 -4.44936 197815 178998 120132 -4373.64 8720.3 39446.8 12 11.0154 0.190941 0.574524 0.403915 0.012857 0.600083 1 1.16894e-08 1 1.16894e-08 0
790 1 30.022 12.362 7.064 -4.44936 195736 187907 195112 -5755.17 -3343.4 -6317.98 12 11.0154 0.190941 0.574524 0.403915 0.012857 0.600083 1 1.65314e-08 1 1.65314e-08 0
791 1 30.022 10.596 8.83 -4.44936 190063 188596 185670 -9424.14 -10692.3 -11557 12 11.0154 0.190941 0.574524 0.403915 0.012857 0.600083 1 2.33789e-08 1 2.33789e-08 0
792 1 28.256 12.362 8.83 -4.44936 114239 192118 178337 -23735.2 -41574.5 -11671.9 12 11.0154 0.190941 0.574524 0.403915 0.012857 0.600083 1 0 1 0 0
793 1 0 14.128 7.064 -4.44936 140709 195394 176598 -14026.6 -35892.7 -8669.3 12 11.0154 0.190941 0.574524 0.403915 0.012857 0.600083 1 1.65314e-08 1 1.65314e-08 1.26218e-29
794 1 1.766 15.894 7.064 -4.44936 166054 197876 185294 5444.05 -21010.2 3494.89 12 11.0154 0.190941 0.574524 0.403915 0.012857 0.600083 1 1.65314e-08 1 1.65314e-08 0
795 1 1.766 14.128 8.83 -4.44936 184364 195442 175588 -6939.02 -18287 -8800.89 12 11.0154 0.190941 0.574524 0.403915 0.012857 0.600083 1 1.65314e-08 1 1.65314e-08 0
796 1 0 15.894 8.83 -4.44936 198455 128129 197917 4805.82 531.744 -7817.45 12 11.0154 0.190941 0.574524 0.403915 0.012857 0.600083 1 1.65314e-08 1 1.65314e-08 1.26218e-29
797 1 3.532 14.128 7.064 -4.44936 179992 187842 198239 -14337.3 -3193.5 -2436.68 12 11.0154 0.190941 0.574524 0.403915 0.012857 0.600083 1 1.65314e-08 1 1.65314e-08 0
798 1 5.298 15.894 7.064 -4.44936 183205 190533 182494 11335.4 -15928.4 11591.5 12 11.0154 0.190941 0.574524 0.403915 0.012857 0.600083 1 1.65314e-08 1 1.65314e-08 0
799 1 5.298 14.128 8.83 -4.44936 134469 25904.4 190496 -105443 -23084.3 -37847.5 12 11.0154 0.190941 0.574524 0.403915 0.012857 0.600083 1 1.65314e-08 1 1.65314e-08 0
800 1 3.532 15.894 8.83 -4.44936 81733.3 181633 198097 -44802.9 8956.26 3428.2 12 11.0154 0.190941 0.574524 0.403915 0.012857 0.600083 1 1.65314e-08 1 1.65314e-08 0
801 1 7.064 14.128 7.064 -4.44936 17391.2 194046 84077.5 29309.4 144244 -23307.2 12 11.0154 0.190941 0.574524 0.403915 0.012857 0.600083 1 1.65314e-08 1 1.65314e-08 0
802 1 8.83 15.894 7.064 -4.44936 38497.5 196019 182909 -21044.3 -50440.3 -6622.47 12 11.0154 0.190941 0.574524 0.403915 0.012857 0.600083 1 1.65314e-08 1 1.65314e-08 0
803 1 8.83 14.128 8.83 -4.44936 169041 194862 -45302.3 -10796.9 -85201.5 -30930.7 12 11.0154 0.190941 0.574524 0.403915 0.012857 0.600083 1 1.65314e-08 1 1.65314e-08 0
804 1 7.064 15.894 8.83 -4.44936 184800 139414 198577 -28811 -1692.36 -3487.29 12 11.0154 0.190941 0.574524 0.403915 0.012857 0.600083 1 1.65314e-08 1 1.65314e-08 0
805 1 10.596 14.128 7.064 -4.44936 197174 194150 195293 2729.09 2368.63 -4020.38 12 11.0154 0.190941 0.574524 0.403915 0.012857 0.600083 1 1.65314e-08 1 1.65314e-08 0
806 1 12.362 15.894 7.064 -4.44936 198776 182867 -189171 -317.093 -1565.58 -78576.2 12 11.0154 0.190941 0.574524 0.403915 0.012857 0.600083 1 1.65314e-08 1 1.65314e-08 0
807 1 12.362 14.128 8.83 -4.44936 189896 190531 196708 -8562.44 -4292.78 -4136.48 12 11.0154 0.190941 0.574524 0.403915 0.012857 0.600083 1 1.65314e-08 1 1.65314e-08 0
808 1 10.596 15.894 8.83 -4.44936 168887 112930 196955 50660.8 -7390.32 12524 12 11.0154 0.190941 0.574524 0.403915 0.012857 0.600083 1 1.65314e-08 1 1.65314e-08 0
809 1 14.128 14.128 7.064 -4.44936 186736 63289.3 195921 40399.2 5870.91 -19690.1 12 11.0154 0.190941 0.574524 0.403915 0.012857 0.600083 1 1.65314e-08 1 1.65314e-08 0
810 1 15.894 15.894 7.064 -4.44936 166803 194568 117177 11608 51084.4 -18543.3 12 11.0154 0.190941 0.574524 0.403915 0.012857 0.600083 1 1.65314e-08 1 1.65314e-08 0
811 1 15.894 14.128 8.83 -4.44936 197725 185500 83082.8 3746.49 11057.5 -39201 12 11.0154 0.190941 0.574524 0.403915 0.012857 0.600083 1 1.65314e-08 1 1.65314e-08 0
812 1 14.128 15.894 8.83 -4.44936 183530 159824 185183 24376.1 -14401.8 23016.9 12 11.0154 0.190941 0.574524 0.403915 0.012857 0.600083 1 1.65314e-08 1 1.65314e-08 0
813 1 17.66 14.128 7.064 -4.44936 172340 147904 190484 36678.6 14812.6 -20547.2 12 11.0154 0.190941 0.574524 0.403915 0.012857 0.600083 1 1.65314e-08 1 1.65314e-08 0
814 1 19.426 15.894 7.064 -4.44936 175247 92879.8 196607 49924 7153.88 -15175.3 12 11.0154 0.190941 0.574524 0.403915 0.012857 0.600083 1 1.65314e-08 1 1.65314e-08 0
815 1 19.426 14.128 8.83 -4.44936 59411.9 176505 174154 55719.9 -58586.7 23422.9 12 11.0154 0.190941 0.574524 0.403915 0.012857 0.600083 1 1.65314e-08 1 1.65314e-08 0
816 1 17.66 15.894 8.83 -4.44936 198701 -92741.4 53506.4 -4844.48 -3419.85 -205794 12 11.0154 0.190941 0.574524 0.403915 0.012857 0.600083 1 1.65314e-08 1 1.65314e-08 0
817 1 21.192 14.128 7.064 -4.44936 151936 132012 198780 -55927.9 304.654 363.715 12 11.0154 0.190941 0.574524 0.403915 0.012857 0.600083 1 1.16894e-08 1 1.16894e-08 0
818 1 22.958 15.894 7.064 -4.44936 189699 191269 132304 -8261.02 24573 22348.8 12 11.0154 0.190941 0.574524 0.403915 0.012857 0.600083 1 2.33789e-08 1 2.33789e-08 0
819 1 22.958 14.128 8.83 -4.44936 191252 123729 173204 23773.6 -13878.4 43814.3 12 11.0154 0.190941 0.574524 0.403915 0.012857 0.600083 1 2.33789e-08 1 2.33789e-08 0
820 1 21.192 15.894 8.83 -4.44936 117493 170640 182807 -47828.9 36036.2 21203.2 12 11.0154 0.190941 0.574524 0.403915 0.012857 0.600083 1 0 1 0 0
821 1 24.724 14.128 7.064 -4.44936 12485.2 195079 129100 26266.2 113937 -16064.1 12 11.0154 0.190941 0.574524 0.403915 0.012857 0.600083 1 2.33789e-08 1 2.33789e-08 0
822 1 26.49 15.894 7.064 -4.44936 198614 184932 125862 -1525.45 3500.28 31779.1 12 11.0154 0.190941 0.574524 0.403915 0.012857 0.600083 1 1.65314e-08 1 1.65314e-08 0
823 1 26.49 14.128 8.83 -4.44936 198770 34156.2 191758 1427.18 -294.804 34005.8 12 11.0154 0.190941 0.574524 0.403915 0.012857 0.600083 1 2.33789e-08 1 2.33789e-08 0
824 1 24.724 15.894 8.83 -4.44936 176802 195056 189938 9049.32 -13942.5 5740.22 12 11.0154 0.190941 0.574524 0.403915 0.012857 0.600083 1 2.02467e-08 1 2.02467e-08 0
825 1 28.256 14.128 7.064 -4.44936 198769 198776 169877 -9.02167 -622.457 -418.938 12 11.0154 0.190941 0.574524 0.403915 0.012857 0.600083 1 0 1 0 0
826 1 30.022 15.894 7.064 -4.44936 198689 179778 176949 1331.42 -1427.08 20369.8 12 11.0154 0.190941 0.574524 0.403915 0.012857 0.600083 1 1.65314e-08 1 1.65314e-08 0
827 1 30.022 14.128 8.83 -4.44936 193500 186351 196579 8103.26 3411.37 -5233.2 12 11.0154 0.190941 0.574524 0.403915 0.012857 0.600083 1 1.16894e-08 1 1.16894e-08 0
828 1 28.256 15.894 8.83 -4.44936 179671 193609 151730 9942.88 -29986.7 15601.3 12 11.0154 0.190941 0.574524 0.403915 0.012857 0.600083 1 1.16894e-08 1 1.16894e-08 0
829 1 0 17.66 7.064 -4.44936 110763 105678 130813 -90525.6 -77346.8 -79549.4 12 11.0154 0.190941 0.574524 0.403915 0.012857 0.600083 1 1.65314e-08 1 1.65314e-08 1.26218e-29
830 1 1.766 19.426 7.064 -4.44936 180596 191818 171317 -11253.5 22348.8 13829.7 12 11.0154 0.190941 0.574524 0.403915 0.012857 0.600083 1 0 1 0 0
831 1 1.766 17.66 8.83 -4.44936 198436 198474 174974 326.36 -2869.08 2708.2 12 11.0154 0.190941 0.574524 0.403915 0.012857 0.600083 1 1.65314e-08 1 1.65314e-08 0
832 1 0 19.426 8.83 -4.44936 185287 198310 148669 -2523.2 -26005.3 -4862.24 12 11.0154 0.190941 0.574524 0.403915 0.012857 0.600083 1 0 1 0 1.26218e-29
833 1 3.532 17.66 7.064 -4.44936 157406 198046 84245.7 5519.02 -68840.6 9182.5 12 11.0154 0.190941 0.574524 0.403915 0.012857 0.600083 1 2.61384e-08 1 2.61384e-08 0
834 1 5.298 19.426 7.064 -4.44936 130674 -84305.7 70525.3 -138854 -93462.6 -190546 12 11.0154 0.190941 0.574524 0.403915 0.012857 0.600083 1 0 1 0 0
835 1 5.298 17.66 8.83 -4.44936 183997 198513 170351 -1995.68 20502.5 2767.43 12 11.0154 0.190941 0.574524 0.403915 0.012857 0.600083 1 1.65314e-08 1 1.65314e-08 0
836 1 3.532 19.426 8.83 -4.44936 193611 182197 195056 -9260.47 4389.52 7861.24 12 11.0154 0.190941 0.574524 0.403915 0.012857 0.600083 1 2.33789e-08 1 2.33789e-08 0
837 1 7.064 17.66 7.064 -4.44936 171744 195883 75191 8853.26 -57807.3 18928.1 12 11.0154 0.190941 0.574524 0.403915 0.012857 0.600083 1 1.65314e-08 1 1.65314e-08 0
838 1 8.83 19.426 7.064 -4.44936 125902 168933 185524 -46640.6 -31084 -19892.8 12 11.0154 0.190941 0.574524 0.403915 0.012857 0.600083 1 1.65314e-08 1 1.65314e-08 0
839 1 8.83 17.66 8.83 -4.44936 193916 196720 196345 -3167.81 3443.79 2242.01 12 11.0154 0.190941 0.574524 0.403915 0.012857 0.600083 1 1.65314e-08 1 1.65314e-08 0
840 1 7.064 19.426 8.83 -4.44936 139802 150840 169139 53175.4 41812.9 -37697.8 12 11.0154 0.190941 0.574524 0.403915 0.012857 0.600083 1 2.33789e-08 1 2.33789e-08 0
841 1 10.596 17.66 7.064 -4.44936 195065 133884 197428 15530.4 -2242.85 9372.35 12 11.0154 0.190941 0.574524 0.403915 0.012857 0.600083 1 2.02467e-08 1 2.02467e-08 0
842 1 12.362 19.426 7.064 -4.44936 194839 -66086.7 179655 -32316 8684.19 71177.5 12 11.0154 0.190941 0.574524 0.403915 0.012857 0.600083 1 0 1 0 0
843 1 12.362 17.66 8.83 -4.44936 197196 148543 197466 8925.98 1444.68 -8131.14 12 11.0154 0.190941 0.574524 0.403915 0.012857 0.600083 1 1.65314e-08 1 1.65314e-08 0
844 1 10.596 19.426 8.83 -4.44936 197065 191087 184469 -3634.32 -4956.77 -10494.4 12 11.0154 0.190941 0.574524 0.403915 0.012857 0.600083 1 2.33789e-08 1 2.33789e-08 0
845 1 14.128 17.66 7.064 -4.44936 105730 176930 197427 -45093.1 -11229 -5441.61 12 11.0154 0.190941 0.574524 0.403915 0.012857 0.600083 1 2.61384e-08 1 2.61384e-08 0
846 1 15.894 19.426 7.064 -4.44936 180180 195541 140498 -7764.55 -32926.7 -13744 12 11.0154 0.190941 0.574524 0.403915 0.012857 0.600083 1 1.65314e-08 1 1.65314e-08 0
847 1 15.894 17.66 8.83 -4.44936 198685 196157 198777 -504.527 20.8456 108.449 12 11.0154 0.190941 0.574524 0.403915 0.012857 0.600083 1 1.65314e-08 1 1.65314e-08 0
848 1 14.128 19.426 8.83 -4.44936 155016 160738 198639 -40804.7 -2497.85 -2328.85 12 11.0154 0.190941 0.574524 0.403915 0.012857 0.600083 1 2.33789e-08 1 2.33789e-08 0
849 1 17.66 17.66 7.064 -4.44936 197536 185788 111118 4023.82 10451.3 -33751.1 12 11.0154 0.190941 0.574524 0.403915 0.012857 0.600083 1 2.61384e-08 1 2.61384e-08 0
850 1 19.426 19.426 7.064 -4.44936 197342 55948 187361 14343.1 -4055.82 40389.4 12 11.0154 0.190941 0.574524 0.403915 0.012857 0.600083 1 1.65314e-08 1 1.65314e-08 0
851 1 19.426 17.66 8.83 -4.44936 197657 190216 186462 -3104.69 3723.2 10273 12 11.0154 0.190941 0.574524 0.403915 0.012857 0.600083 1 2.02467e-08 1 2.02467e-08 0
852 1 17.66 19.426 8.83 -4.44936 175301 195433 186335 -8868.23 17095.9 6456.65 12 11.0154 0.190941 0.574524 0.403915 0.012857 0.600083 1 2.02467e-08 1 2.02467e-08 0
853 1 21.192 17.66 7.064 -4.44936 197784 -29233.2 118704 15082.6 -8938.22 135126 12 11.0154 0.190941 0.574524 0.403915 0.012857 0.600083 1 0 1 0 0
854 1 22.958 19.426 7.064 -4.44936 198649 100081 181799 -3626.41 1504.27 40942.1 12 11.0154 0.190941 0.574524 0.403915 0.012857 0.600083 1 2.33789e-08 1 2.33789e-08 0
855 1 22.958 17.66 8.83 -4.44936 -15356.6 156955 156091 -94640.2 -95612.1 -42256.5 12 11.0154 0.190941 0.574524 0.403915 0.012857 0.600083 1 2.33789e-08 1 2.33789e-08 0
856 1 21.192 19.426 8.83 -4.44936 167634 -100134 195869 -96491.8 9526.07 29510.2 12 11.0154 0.190941 0.574524 0.403915 0.012857 0.600083 1 1.16894e-08 1 1.16894e-08 0
857 1 24.724 17.66 7.064 -4.44936 189579 197769 161119 3053.64 18618 -6177.39 12 11.0154 0.190941 0.574524 0.403915 0.012857 0.600083 1 2.61384e-08 1 2.61384e-08 0
858 1 26.49 19.426 7.064 -4.44936 94090.2 112299 189694 95152.8 30846.1 -28035.6 12 11.0154 0.190941 0.574524 0.403915 0.012857 0.600083 1 1.16894e-08 1 1.16894e-08 0
859 1 26.49 17.66 8.83 -4.44936 197877 198782 155523 -16.8916 -6257.03 -116.782 12 11.0154 0.190941 0.574524 0.403915 0.012857 0.600083 1 2.86331e-08 1 2.86331e-08 0
860 1 24.724 19.426 8.83 -4.44936 198598 129201 144183 -3575.88 3167.6 61636.5 12 11.0154 0.190941 0.574524 0.403915 0.012857 0.600083 1 2.02467e-08 1 2.02467e-08 0
861 1 28.256 17.66 7.064 -4.44936 110672 175106 -235062 45673.7 195514 -101349 12 11.0154 0.190941 0.574524 0.403915 0.012857 0.600083 1 0 1 0 0
862 1 30.022 19.426 7.064 -4.44936 196455 198582 81118.1 682.003 -16548.1 4849.33 12 11.0154 0.190941 0.574524 0.403915 0.012857 0.600083 1 2.02467e-08 1 2.02467e-08 0
863 1 30.022 17.66 8.83 -4.44936 173855 185314 198705 -18322.9 -1388.1 -1020.33 12 11.0154 0.190941 0.574524 0.403915 0.012857 0.600083 1 2.02467e-08 1 2.02467e-08 0
864 1 28.256 19.426 8.83 -4.44936 73864.2 151326 198420 -76993.9 6723.29 4143.95 12 11.0154 0.190941 0.574524 0.403915 0.012857 0.600083 1 1.16894e-08 1 1.16894e-08 0
865 1 0 21.192 7.064 -4.44936 124797 126794 87666.4 -72979.9 90669.2 89437.3 12 11.0154 0.190941 0.574524 0.403915 0.012857 0.600083 1 2.33789e-08 1 2.33789e-08 1.26218e-29
866 1 1.766 22.958 7.064 -4.44936 169531 143214 188129 -40316.3 17652.4 24330.4 12 11.0154 0.190941 0.574524 0.403915 0.012857 0.600083 1 0 1 0 0
867 1 1.766 21.192 8.83 -4.44936 -76598.9 193623 99114.5 37690.5 165670 -22674.7 12 11.0154 0.190941 0.574524 0.403915 0.012857 0.600083 1 0 1 0 0
868 1 0 22.958 8.83 -4.44936 177675 114713 166647 -42124.2 -26043.5 -51976.1 12 11.0154 0.190941 0.574524 0.403915 0.012857 0.600083 1 2.02467e-08 1 2.02467e-08 1.26218e-29
869 1 3.532 21.192 7.064 -4.44936 198018 -1940.18 190047 -12380.9 2582.8 41873 12 11.0154 0.190941 0.574524 0.403915 0.012857 0.600083 1 1.16894e-08 1 1.16894e-08 0
870 1 5.298 22.958 7.064 -4.44936 198759 136900 189208 -1195.01 -470.044 -24340.7 12 11.0154 0.190941 0.574524 0.403915 0.012857 0.600083 1 0 1 0 0
871 1 5.298 21.192 8.83 -4.44936 170242 190291 84279.5 -15567 57166 31180.4 12 11.0154 0.190941 0.574524 0.403915 0.012857 0.600083 1 1.16894e-08 1 1.16894e-08 0
872 1 3.532 22.958 8.83 -4.44936 189146 193035 185223 7441.16 11430.3 -8827.06 12 11.0154 0.190941 0.574524 0.403915 0.012857 0.600083 1 1.65314e-08 1 1.65314e-08 0
873 1 7.064 21.192 7.064 -4.44936 188349 181905 125341 -13268.9 -27679.9 -35205.5 12 11.0154 0.190941 0.574524 0.403915 0.012857 0.600083 1 0 1 0 0
874 1 8.83 22.958 7.064 -4.44936 83955 182871 165941 42743.4 61408.7 -22858.9 12 11.0154 0.190941 0.574524 0.403915 0.012857 0.600083 1 0 1 0 0
875 1 8.83 21.192 8.83 -4.44936 198324 1452.1 142078 -9506.52 5096.05 105780 12 11.0154 0.190941 0.574524 0.403915 0.012857 0.600083 1 1.16894e-08 1 1.16894e-08 0
876 1 7.064 22.958 8.83 -4.44936 102677 196736 73626.9 14021.4 109672 -16000.8 12 11.0154 0.190941 0.574524 0.403915 0.012857 0.600083 1 1.65314e-08 1 1.65314e-08 0
877 1 10.596 21.192 7.064 -4.44936 196237 191840 195794 -4203.23 -2757.3 -4554.11 12 11.0154 0.190941 0.574524 0.403915 0.012857 0.600083 1 0 1 0 0
878 1 12.362 22.958 7.064 -4.44936 198404 161504 191167 -3751.45 -1695.58 -16849 12 11.0154 0.190941 0.574524 0.403915 0.012857 0.600083 1 1.65314e-08 1 1.65314e-08 0
879 1 12.362 21.192 8.83 -4.44936 189615 162495 184577 18238.8 11411.7 -22703.8 12 11.0154 0.190941 0.574524 0.403915 0.012857 0.600083 1 1.16894e-08 1 1.16894e-08 0
880 1 10.596 22.958 8.83 -4.44936 190387 195860 -63828.6 4952.98 46954 -27701.7 12 11.0154 0.190941 0.574524 0.403915 0.012857 0.600083 1 1.65314e-08 1 1.65314e-08 0
881 1 14.128 21.192 7.064 -4.44936 195590 165707 191438 -10275.6 -4842.09 -15585.5 12 11.0154 0.190941 0.574524 0.403915 0.012857 0.600083 1 1.16894e-08 1 1.16894e-08 0
882 1 15.894 22.958 7.064 -4.44936 198718 114768 154150 -2324.76 -1694.44 -61234.6 12 11.0154 0.190941 0.574524 0.403915 0.012857 0.600083 1 0 1 0 0
883 1 15.894 21.192 8.83 -4.44936 166355 56208.2 124094 -67994.4 49212.8 103192 12 11.0154 0.190941 0.574524 0.403915 0.012857 0.600083 1 0 1 0 0
884 1 14.128 22.958 8.83 -4.44936 54393.9 163911 192245 -70957.9 30722 15098 12 11.0154 0.190941 0.574524 0.403915 0.012857 0.600083 1 1.65314e-08 1 1.65314e-08 0
885 1 17.66 21.192 7.064 -4.44936 190776 84878.5 151840 -30198.6 -19386.4 -73121.9 12 11.0154 0.190941 0.574524 0.403915 0.012857 0.600083 1 1.65314e-08 1 1.65314e-08 0
886 1 19.426 22.958 7.064 -4.44936 198579 198024 186318 391.695 1588.86 -3072.64 12 11.0154 0.190941 0.574524 0.403915 0.012857 0.600083 1 2.02467e-08 1 2.02467e-08 0
887 1 19.426 21.192 8.83 -4.44936 195587 118812 167931 -15984.2 -9928.05 -49670.8 12 11.0154 0.190941 0.574524 0.403915 0.012857 0.600083 1 1.65314e-08 1 1.65314e-08 0
888 1 17.66 22.958 8.83 -4.44936 95353.3 198749 169168 -1855.02 -55344.1 -992.609 12 11.0154 0.190941 0.574524 0.403915 0.012857 0.600083 1 2.33789e-08 1 2.33789e-08 0
889 1 21.192 21.192 7.064 -4.44936 177612 187898 26487.9 -15179.4 60394.6 43304 12 11.0154 0.190941 0.574524 0.403915 0.012857 0.600083 1 1.16894e-08 1 1.16894e-08 0
890 1 22.958 22.958 7.064 -4.44936 123959 191444 183307 23432.3 -34027.7 10656.4 12 11.0154 0.190941 0.574524 0.403915 0.012857 0.600083 1 0 1 0 0
891 1 22.958 21.192 8.83 -4.44936 67704.3 170807 198511 60554.9 5960.71 -2753.71 12 11.0154 0.190941 0.574524 0.403915 0.012857 0.600083 1 0 1 0 0
892 1 21.192 22.958 8.83 -4.44936 66073.8 139782 188831 -88485.9 -36339.6 -24230.2 12 11.0154 0.190941 0.574524 0.403915 0.012857 0.600083 1 2.02467e-08 1 2.02467e-08 0
893 1 24.724 21.192 7.064 -4.44936 198728 176536 161212 1097.93 1426.84 -28909.5 12 11.0154 0.190941 0.574524 0.403915 0.012857 0.600083 1 1.65314e-08 1 1.65314e-08 0
894 1 26.49 22.958 7.064 -4.44936 181618 163733 193882 24527.2 -9170.34 13104.4 12 11.0154 0.190941 0.574524 0.403915 0.012857 0.600083 1 2.02467e-08 1 2.02467e-08 0
895 1 26.49 21.192 8.83 -4.44936 156156 198725 198247 1559.68 4775.21 -174.725 12 11.0154 0.190941 0.574524 0.403915 0.012857 0.600083 1 2.02467e-08 1 2.02467e-08 0
896 1 24.724 22.958 8.83 -4.44936 163420 167564 198609 33225.2 -2469.71 2320.51 12 11.0154 0.190941 0.574524 0.403915 0.012857 0.600083 1 2.86331e-08 1 2.86331e-08 0
897 1 28.256 21.192 7.064 -4.44936 163901 193535 198192 13528 4535.62 -1759.07 12 11.0154 0.190941 0.574524 0.403915 0.012857 0.600083 1 2.33789e-08 1 2.33789e-08 0
898 1 30.022 22.958 7.064 -4.44936 47066 172346 117495 -63330.4 111052 46356 12 11.0154 0.190941 0.574524 0.403915 0.012857 0.600083 1 1.16894e-08 1 1.16894e-08 0
899 1 30.022 21.192 8.83 -4.44936 189760 195030 107259 5818.44 28735.5 -18531.8 12 11.0154 0.190941 0.574524 0.403915 0.012857 0.600083 1 0 1 0 0
900 1 28.256 22.958 8.83 -4.44936 198257 87186.8 185841 -7651.81 2605.73 38002.4 12 11.0154 0.190941 0.574524 0.403915 0.012857 0.600083 1 1.16894e-08 1 1.16894e-08 0
901 1 0 24.724 7.064 -4.44936 -232701 142490 165126 -155849 120507 43526.4 12 11.0154 0.190941 0.574524 0.403915 0.012857 0.600083 1 2.61384e-08 1 2.61384e-08 1.26218e-29
902 1 1.766 26.49 7.064 -4.44936 196646 166111 145792 8353.5 -10638.6 41608.2 12 11.0154 0.190941 0.574524 0.403915 0.012857 0.600083 1 1.65314e-08 1 1.65314e-08 0
903 1 1.766 24.724 8.83 -4.44936 112831 -41689.7 198756 143767 1495.09 -2500.76 12 11.0154 0.190941 0.574524 0.403915 0.012857 0.600083 1 2.86331e-08 1 2.86331e-08 0
904 1 0 26.49 8.83 -4.44936 198572 188074 44061.5 1500.87 -5705.1 40703.1 12 11.0154 0.190941 0.574524 0.403915 0.012857 0.600083 1 2.61384e-08 1 2.61384e-08 1.26218e-29
905 1 3.532 24.724 7.064 -4.44936 176342 197862 195756 -4542.98 8240.93 1668.37 12 11.0154 0.190941 0.574524 0.403915 0.012857 0.600083 1 1.65314e-08 1 1.65314e-08 0
906 1 5.298 26.49 7.064 -4.44936 30132.4 197751 197751 -13186 -13183.3 -1030.74 12 11.0154 0.190941 0.574524 0.403915 0.012857 0.600083 1 2.33789e-08 1 2.33789e-08 0
907 1 5.298 24.724 8.83 -4.44936 181878 161397 196065 -25138.4 -6776.71 -10078 12 11.0154 0.190941 0.574524 0.403915 0.012857 0.600083 1 2.86331e-08 1 2.86331e-08 0
908 1 3.532 26.49 8.83 -4.44936 191296 183180 197633 -10807.4 2933.04 4234.25 12 11.0154 0.190941 0.574524 0.403915 0.012857 0.600083 1 0 1 0 0
909 1 7.064 24.724 7.064 -4.44936 58717 194962 41039.7 -23132.3 -148641 -24548.7 12 11.0154 0.190941 0.574524 0.403915 0.012857 0.600083 1 1.16894e-08 1 1.16894e-08 0
910 1 8.83 26.49 7.064 -4.44936 177802 176214 146594 21759.5 -33089 34319.1 12 11.0154 0.190941 0.574524 0.403915 0.012857 0.600083 1 2.33789e-08 1 2.33789e-08 0
911 1 8.83 24.724 8.83 -4.44936 162541 163712 26065.5 35650.6 -79116.9 77827.3 12 11.0154 0.190941 0.574524 0.403915 0.012857 0.600083 1 2.33789e-08 1 2.33789e-08 0
912 1 7.064 26.49 8.83 -4.44936 192593 194446 44953.4 5180.2 -30855.2 25825.9 12 11.0154 0.190941 0.574524 0.403915 0.012857 0.600083 1 2.33789e-08 1 2.33789e-08 0
913 1 10.596 24.724 7.064 -4.44936 166336 197522 198745 -6393.17 1100.63 216.868 12 11.0154 0.190941 0.574524 0.403915 0.012857 0.600083 1 1.65314e-08 1 1.65314e-08 0
914 1 12.362 26.49 7.064 -4.44936 158473 138161 -45264 -49432.4 99182.7 121632 12 11.0154 0.190941 0.574524 0.403915 0.012857 0.600083 1 2.33789e-08 1 2.33789e-08 0
915 1 12.362 24.724 8.83 -4.44936 173664 185978 184387 17933.6 19015.2 -13576.6 12 11.0154 0.190941 0.574524 0.403915 0.012857 0.600083 1 2.86331e-08 1 2.86331e-08 0
916 1 10.596 26.49 8.83 -4.44936 148880 197110 179789 9134.34 30786.4 -5635.3 12 11.0154 0.190941 0.574524 0.403915 0.012857 0.600083 1 1.65314e-08 1 1.65314e-08 0
917 1 14.128 24.724 7.064 -4.44936 145826 98352.7 190399 -72926.8 -21069.8 -29015.8 12 11.0154 0.190941 0.574524 0.403915 0.012857 0.600083 1 1.65314e-08 1 1.65314e-08 0
918 1 15.894 26.49 7.064 -4.44936 181333 144676 197735 30725.7 4274.2 -7526.61 12 11.0154 0.190941 0.574524 0.403915 0.012857 0.600083 1 1.65314e-08 1 1.65314e-08 0
919 1 15.894 24.724 8.83 -4.44936 181923 35487.5 125663 52468.1 35109.5 -109270 12 11.0154 0.190941 0.574524 0.403915 0.012857 0.600083 1 1.65314e-08 1 1.65314e-08 0
920 1 14.128 26.49 8.83 -4.44936 74819.7 198776 197412 865.052 13031.7 -90.9395 12 11.0154 0.190941 0.574524 0.403915 0.012857 0.600083 1 0 1 0 0
921 1 17.66 24.724 7.064 -4.44936 190523 25291 101199 -37852.7 28388.8 130115 12 11.0154 0.190941 0.574524 0.403915 0.012857 0.600083 1 2.61384e-08 1 2.61384e-08 0
922 1 19.426 26.49 7.064 -4.44936 63333 190315 115932 33865 -105933 26485.5 12 11.0154 0.190941 0.574524 0.403915 0.012857 0.600083 1 1.16894e-08 1 1.16894e-08 0
923 1 19.426 24.724 8.83 -4.44936 173890 197750 198585 5068.46 -2216.26 451.267 12 11.0154 0.190941 0.574524 0.403915 0.012857 0.600083 1 2.86331e-08 1 2.86331e-08 0
924 1 17.66 26.49 8.83 -4.44936 190071 192518 108257 -7386.83 -28080.9 -23813.1 12 11.0154 0.190941 0.574524 0.403915 0.012857 0.600083 1 2.61384e-08 1 2.61384e-08 0
925 1 21.192 24.724 7.064 -4.44936 -167691 185776 198073 69038.4 16123.4 -3037.43 12 11.0154 0.190941 0.574524 0.403915 0.012857 0.600083 1 2.86331e-08 1 2.86331e-08 0
926 1 22.958 26.49 7.064 -4.44936 185699 142110 198644 27229 -1343.12 2795.42 12 11.0154 0.190941 0.574524 0.403915 0.012857 0.600083 1 1.16894e-08 1 1.16894e-08 0
927 1 22.958 24.724 8.83 -4.44936 198726 198773 191307 22.2946 -644.361 258.63 12 11.0154 0.190941 0.574524 0.403915 0.012857 0.600083 1 1.65314e-08 1 1.65314e-08 0
928 1 21.192 26.49 8.83 -4.44936 191050 198189 155572 -2141.15 18278.5 5061.63 12 11.0154 0.190941 0.574524 0.403915 0.012857 0.600083 1 1.65314e-08 1 1.65314e-08 0
929 1 24.724 24.724 7.064 -4.44936 191954 190141 177978 -7680.91 11918.2 13407.5 12 11.0154 0.190941 0.574524 0.403915 0.012857 0.600083 1 2.33789e-08 1 2.33789e-08 0
930 1 26.49 26.49 7.064 -4.44936 198782 158141 146368 130.802 148.544 -46153.7 12 11.0154 0.190941 0.574524 0.403915 0.012857 0.600083 1 1.16894e-08 1 1.16894e-08 0
931 1 26.49 24.724 8.83 -4.44936 198782 172841 160870 -67.1319 81.1568 31359.9 12 11.0154 0.190941 0.574524 0.403915 0.012857 0.600083 1 2.33789e-08 1 2.33789e-08 0
932 1 24.724 26.49 8.83 -4.44936 165792 163300 197606 34213.6 -6228.21 6459.15 12 11.0154 0.190941 0.574524 0.403915 0.012857 0.600083 1 1.65314e-08 1 1.65314e-08 0
933 1 28.256 24.724 7.064 -4.44936 198738 192075 -12409.9 -545.482 -3060.89 -37636.5 12 11.0154 0.190941 0.574524 0.403915 0.012857 0.600083 1 1.65314e-08 1 1.65314e-08 0
934 1 30.022 26.49 7.064 -4.44936 192049 192950 111440 -6266.37 24250.7 22569.2 12 11.0154 0.190941 0.574524 0.403915 0.012857 0.600083 1 1.16894e-08 1 1.16894e-08 0
935 1 30.022 24.724 8.83 -4.44936 163625 152269 146075 -40438.5 43046.6 49513.2 12 11.0154 0.190941 0.574524 0.403915 0.012857 0.600083 1 2.86331e-08 1 2.86331e-08 0
936 1 28.256 26.49 8.83 -4.44936 145318 139114 185730 56480.8 26415.9 -27906.4 12 11.0154 0.190941 0.574524 0.403915 0.012857 0.600083 1 2.02467e-08 1 2.02467e-08 0
937 1 0 28.256 7.064 -4.44936 190378 181790 175851 -11949.5 -13881.7 -19739.2 12 11.0154 0.190941 0.574524 0.403915 0.012857 0.600083 1 0 1 0 1.26218e-29
938 1 1.766 30.022 7.064 -4.44936 198083 166677 192399 -4737.7 -2112.46 -14315.3 12 11.0154 0.190941 0.574524 0.403915 0.012857 0.600083 1 2.33789e-08 1 2.33789e-08 0
939 1 1.766 28.256 8.83 -4.44936 196042 164876 180579 -9638.16 7062.05 24843.4 12 11.0154 0.190941 0.574524 0.403915 0.012857 0.600083 1 1.16894e-08 1 1.16894e-08 0
940 1 0 30.022 8.83 -4.44936 186001 129769 172177 -29700 -18440.5 -42849.8 12 11.0154 0.190941 0.574524 0.403915 0.012857 0.600083 1 2.02467e-08 1 2.02467e-08 1.26218e-29
941 1 3.532 28.256 7.064 -4.44936 186716 193061 173279 8308.68 -17542.1 12079.4 12 11.0154 0.190941 0.574524 0.403915 0.012857 0.600083 1 1.16894e-08 1 1.16894e-08 0
942 1 5.298 30.022 7.064 -4.44936 180790 181472 -168910 17647.5 -81334.9 79779.4 12 11.0154 0.190941 0.574524 0.403915 0.012857 0.600083 1 0 1 0 0
943 1 5.298 28.256 8.83 -4.44936 95536.4 198502 198438 -5372.98 -5955.08 -309.907 12 11.0154 0.190941 0.574524 0.403915 0.012857 0.600083 1 0 1 0 0
944 1 3.532 30.022 8.83 -4.44936 198098 197927 21020.7 764.975 -11030.1 12328.4 12 11.0154 0.190941 0.574524 0.403915 0.012857 0.600083 1 2.33789e-08 1 2.33789e-08 0
945 1 7.064 28.256 7.064 -4.44936 174905 190459 195490 -14096.9 -8866.13 -5234.44 12 11.0154 0.190941 0.574524 0.403915 0.012857 0.600083 1 1.16894e-08 1 1.16894e-08 0
946 1 8.83 30.022 7.064 -4.44936 45814.5 197936 94539.6 -11372.4 126276 9388 12 11.0154 0.190941 0.574524 0.403915 0.012857 0.600083 1 2.33789e-08 1 2.33789e-08 0
947 1 8.83 28.256 8.83 -4.44936 198761 191596 77659.4 -385.268 1581.75 29502 12 11.0154 0.190941 0.574524 0.403915 0.012857 0.600083 1 0 1 0 0
948 1 7.064 30.022 8.83 -4.44936 84556.4 162026 182349 64795.3 -43324.8 24576.3 12 11.0154 0.190941 0.574524 0.403915 0.012857 0.600083 1 2.33789e-08 1 2.33789e-08 0
949 1 10.596 28.256 7.064 -4.44936 193383 198572 175436 -1063.98 -11226.6 -2212.55 12 11.0154 0.190941 0.574524 0.403915 0.012857 0.600083 1 1.16894e-08 1 1.16894e-08 0
950 1 12.362 30.022 7.064 -4.44936 187777 134740 191095 26547.3 9197.13 -22187 12 11.0154 0.190941 0.574524 0.403915 0.012857 0.600083 1 2.33789e-08 1 2.33789e-08 0
951 1 12.362 28.256 8.83 -4.44936 5983.01 142046 156634 -104588 90144.8 48900.9 12 11.0154 0.190941 0.574524 0.403915 0.012857 0.600083 1 0 1 0 0
952 1 10.596 30.022 8.83 -4.44936 116223 195071 198427 17504.2 5414.03 -1147.88 12 11.0154 0.190941 0.574524 0.403915 0.012857 0.600083 1 1.65314e-08 1 1.65314e-08 0
953 1 14.128 28.256 7.064 -4.44936 188382 180596 195967 -13752.6 5410.38 7154.58 12 11.0154 0.190941 0.574524 0.403915 0.012857 0.600083 1 1.16894e-08 1 1.16894e-08 0
954 1 15.894 30.022 7.064 -4.44936 198782 117982 132285 -16.5025 14.9708 73300.2 12 11.0154 0.190941 0.574524 0.403915 0.012857 0.600083 1 1.65314e-08 1 1.65314e-08 0
955 1 15.894 28.256 8.83 -4.44936 191591 198114 195951 2191.11 4511.61 -1374.7 12 11.0154 0.190941 0.574524 0.403915 0.012857 0.600083 1 0 1 0 0
956 1 14.128 30.022 8.83 -4.44936 196986 127385 158636 -11325 -8492.21 -53538 12 11.0154 0.190941 0.574524 0.403915 0.012857 0.600083 1 2.33789e-08 1 2.33789e-08 0
957 1 17.66 28.256 7.064 -4.44936 197645 196446 183695 -1629.67 -4141.51 -5936.46 12 11.0154 0.190941 0.574524 0.403915 0.012857 0.600083 1 0 1 0 0
958 1 19.426 30.022 7.064 -4.44936 185560 164201 197194 -21382.8 4582.36 7410.78 12 11.0154 0.190941 0.574524 0.403915 0.012857 0.600083 1 2.02467e-08 1 2.02467e-08 0
959 1 19.426 28.256 8.83 -4.44936 192978 115715 197341 -21956.7 -2891.66 -10939.9 12 11.0154 0.190941 0.574524 0.403915 0.012857 0.600083 1 0 1 0 0
960 1 17.66 30.022 8.83 -4.44936 195181 113787 187135 -17495.9 6476.55 31463.1 12 11.0154 0.190941 0.574524 0.403915 0.012857 0.600083 1 2.61384e-08 1 2.61384e-08 0
961 1 21.192 28.256 7.064 -4.44936 198777 198779 160103 -3.73764 437.864 330.164 12 11.0154 0.190941 0.574524 0.403915 0.012857 0.600083 1 2.33789e-08 1 2.33789e-08 0
962 1 22.958 30.022 7.064 -4.44936 72063.4 108480 189744 -106971 33842.2 28568.4 12 11.0154 0.190941 0.574524 0.403915 0.012857 0.600083 1 1.16894e-08 1 1.16894e-08 0
963 1 22.958 28.256 8.83 -4.44936 150983 188409 186053 -22266.8 24666.1 11490.4 12 11.0154 0.190941 0.574524 0.403915 0.012857 0.600083 1 1.16894e-08 1 1.16894e-08 0
964 1 21.192 30.022 8.83 -4.44936 185035 174129 116414 -18409.2 -33649.7 -45062.3 12 11.0154 0.190941 0.574524 0.403915 0.012857 0.600083 1 2.02467e-08 1 2.02467e-08 0
965 1 24.724 28.256 7.064 -4.44936 191829 154576 178868 17531.7 -11767 29670.5 12 11.0154 0.190941 0.574524 0.403915 0.012857 0.600083 1 1.65314e-08 1 1.65314e-08 0
966 1 26.49 30.022 7.064 -4.44936 197065 137668 185238 10242.5 -4821.79 28770.1 12 11.0154 0.190941 0.574524 0.403915 0.012857 0.600083 1 1.16894e-08 1 1.16894e-08 0
967 1 26.49 28.256 8.83 -4.44936 197275 198782 196907 -3.08788 1680.74 3.44459 12 11.0154 0.190941 0.574524 0.403915 0.012857 0.600083 1 0 1 0 0
968 1 24.724 30.022 8.83 -4.44936 186003 198667 198742 -1209.76 711.412 67.3493 12 11.0154 0.190941 0.574524 0.403915 0.012857 0.600083 1 1.65314e-08 1 1.65314e-08 0
969 1 28.256 28.256 7.064 -4.44936 184752 187363 198226 -12657.2 2793.74 2520.42 12 11.0154 0.190941 0.574524 0.403915 0.012857 0.600083 1 1.65314e-08 1 1.65314e-08 0
970 1 30.022 30.022 7.064 -4.44936 196013 103961 147722 16203.1 -11890.1 69581 12 11.0154 0.190941 0.574524 0.403915 0.012857 0.600083 1 2.02467e-08 1 2.02467e-08 0
971 1 30.022 28.256 8.83 -4.44936 167978 198425 198754 -3314.94 -935.498 -100.671 12 11.0154 0.190941 0.574524 0.403915 0.012857 0.600083 1 2.02467e-08 1 2.02467e-08 0
972 1 28.256 30.022 8.83 -4.44936 191259 141343 190464 -20787.8 -7910.74 -21858.2 12 11.0154 0.190941 0.574524 0.403915 0.012857 0.600083 1 1.16894e-08 1 1.16894e-08 0
973 1 0 0 10.596 -4.44936 193124 130010 146708 -19726.6 -17165.4 -59843.5 12 11.0154 0.190941 0.574524 0.403915 0.012857 0.600083 1 2.86331e-08 1 2.86331e-08 2.52435e-29
974 1 1.766 1.766 10.596 -4.44936 176116 149861 195539 -33299.4 8573.47 12595.5 12 11.0154 0.190941 0.574524 0.403915 0.012857 0.600083 1 1.65314e-08 1 1.65314e-08 0
975 1 1.766 0 12.362 -4.44936 144237 191364 189489 20115.3 -22513.9 8302.7 12 11.0154 0.190941 0.574524 0.403915 0.012857 0.600083 1 2.33789e-08 1 2.33789e-08 1.26218e-29
976 1 0 1.766 12.362 -4.44936 133516 121882 188018 70844.3 -26505.4 28770.9 12 11.0154 0.190941 0.574524 0.403915 0.012857 0.600083 1 2.33789e-08 1 2.33789e-08 1.26218e-29
977 1 3.532 0 10.596 -4.44936 -2721.55 -46161.7 169833 -222164 76376.3 84207.5 12 11.0154 0.190941 0.574524 0.403915 0.012857 0.600083 1 1.65314e-08 1 1.65314e-08 1.26218e-29
978 1 5.298 1.766 10.596 -4.44936 190058 184285 186861 11245.7 10197.8 -13146.3 12 11.0154 0.190941 0.574524 0.403915 0.012857 0.600083 1 1.65314e-08 1 1.65314e-08 0
979 1 5.298 0 12.362 -4.44936 184954 189201 195792 11510.4 6429.66 -5352.15 12 11.0154 0.190941 0.574524 0.403915 0.012857 0.600083 1 1.65314e-08 1 1.65314e-08 1.26218e-29
980 1 3.532 1.766 12.362 -4.44936 196100 61822.9 157168 19165.5 10564.3 -75494.1 12 11.0154 0.190941 0.574524 0.403915 0.012857 0.600083 1 1.65314e-08 1 1.65314e-08 0
981 1 7.064 0 10.596 -4.44936 141333 168033 195927 -42029.7 12806 9368.81 12 11.0154 0.190941 0.574524 0.403915 0.012857 0.600083 1 2.33789e-08 1 2.33789e-08 1.26218e-29
982 1 8.83 1.766 10.596 -4.44936 133336 182115 196776 33026.9 11459.1 -5782.76 12 11.0154 0.190941 0.574524 0.403915 0.012857 0.600083 1 1.65314e-08 1 1.65314e-08 0
983 1 8.83 0 12.362 -4.44936 194138 181191 157627 -9038.42 13824.9 26906.3 12 11.0154 0.190941 0.574524 0.403915 0.012857 0.600083 1 1.65314e-08 1 1.65314e-08 1.26218e-29
984 1 7.064 1.766 12.362 -4.44936 77963.9 168410 160317 60576.6 -68171 34180.1 12 11.0154 0.190941 0.574524 0.403915 0.012857 0.600083 1 1.65314e-08 1 1.65314e-08 0
985 1 10.596 0 10.596 -4.44936 157654 115852 198583 -58401.5 2859.3 4060.18 12 11.0154 0.190941 0.574524 0.403915 0.012857 0.600083 1 1.65314e-08 1 1.65314e-08 1.26218e-29
986 1 12.362 1.766 10.596 -4.44936 124169 198054 192468 7367.99 21705 -2143.35 12 11.0154 0.190941 0.574524 0.403915 0.012857 0.600083 1 1.65314e-08 1 1.65314e-08 0
987 1 12.362 0 12.362 -4.44936 152691 175150 192279 33003.6 17313 -12397 12 11.0154 0.190941 0.574524 0.403915 0.012857 0.600083 1 2.33789e-08 1 2.33789e-08 1.26218e-29
988 1 10.596 1.766 12.362 -4.44936 142686 197980 -11332.5 -6709.11 -108566 -12984.5 12 11.0154 0.190941 0.574524 0.403915 0.012857 0.600083 1 1.65314e-08 1 1.65314e-08 0
989 1 14.128 0 10.596 -4.44936 151763 178476 34881.5 30899.3 87786.4 -57690.1 12 11.0154 0.190941 0.574524 0.403915 0.012857 0.600083 1 1.65314e-08 1 1.65314e-08 1.26218e-29
990 1 15.894 1.766 10.596 -4.44936 147630 65129.9 185131 -82683.8 -26424.6 -42713.3 12 11.0154 0.190941 0.574524 0.403915 0.012857 0.600083 1 1.65314e-08 1 1.65314e-08 0
991 1 15.894 0 12.362 -4.44936 87704.4 196856 65926 14626.1 -121480 15995.7 12 11.0154 0.190941 0.574524 0.403915 0.012857 0.600083 1 2.02467e-08 1 2.02467e-08 1.26218e-29
992 1 14.128 1.766 12.362 -4.44936 192418 76913.6 198292 -27849.9 1765.04 7723.61 12 11.0154 0.190941 0.574524 0.403915 0.012857 0.600083 1 1.65314e-08 1 1.65314e-08 0
993 1 17.66 0 10.596 -4.44936 174515 194636 142687 10030.2 -36895 15250 12 11.0154 0.190941 0.574524 0.403915 0.012857 0.600083 1 1.65314e-08 1 1.65314e-08 1.26218e-29
994 1 19.426 1.766 10.596 -4.44936 177348 192781 198782 -11341.4 32.163 17.0185 12 11.0154 0.190941 0.574524 0.403915 0.012857 0.600083 1 1.65314e-08 1 1.65314e-08 0
995 1 19.426 0 12.362 -4.44936 141026 195995 179946 -12686.9 32983.2 7245.14 12 11.0154 0.190941 0.574524 0.403915 0.012857 0.600083 1 2.86331e-08 1 2.86331e-08 1.26218e-29
996 1 17.66 1.766 12.362 -4.44936 196806 167676 87389 -7840.05 -14836.4 -58863.7 12 11.0154 0.190941 0.574524 0.403915 0.012857 0.600083 1 2.61384e-08 1 2.61384e-08 0
997 1 21.192 0 10.596 -4.44936 196611 69868 178725 -16729.3 -6598.77 -50849.4 12 11.0154 0.190941 0.574524 0.403915 0.012857 0.600083 1 1.65314e-08 1 1.65314e-08 1.26218e-29
998 1 22.958 1.766 10.596 -4.44936 189409 162558 162608 18426.2 18413.4 -36198.7 12 11.0154 0.190941 0.574524 0.403915 0.012857 0.600083 1 0 1 0 0
999 1 22.958 0 12.362 -4.44936 149869 191766 123438 -18524.8 60706.9 22991.2 12 11.0154 0.190941 0.574524 0.403915 0.012857 0.600083 1 2.61384e-08 1 2.61384e-08 1.26218e-29
1000 1 21.192 1.766 12.362 -4.44936 150600 193928 177475 15292.3 -32040.7 10169.3 12 11.0154 0.190941 0.574524 0.403915 0.012857 0.600083 1 1.16894e-08 1 1.16894e-08 0
1001 1 24.724 0 10.596 -4.44936 197756 44800 67825.4 12570.9 -11593 142003 12 11.0154 0.190941 0.574524 0.403915 0.012857 0.600083 1 2.33789e-08 1 2.33789e-08 1.26218e-29
1002 1 26.49 1.766 10.596 -4.44936 171642 198692 190577 1558.29 14922.6 -856.805 12 11.0154 0.190941 0.574524 0.403915 0.012857 0.600083 1 0 1 0 0
1003 1 26.49 0 12.362 -4.44936 153771 118000 150827 60300 46459.7 -62240.2 12 11.0154 0.190941 0.574524 0.403915 0.012857 0.600083 1 2.33789e-08 1 2.33789e-08 1.26218e-29
1004 1 24.724 1.766 12.362 -4.44936 198781 191040 197598 -96.4965 -37.7425 -3027.95 12 11.0154 0.190941 0.574524 0.403915 0.012857 0.600083 1 1.16894e-08 1 1.16894e-08 0
1005 1 28.256 0 10.596 -4.44936 163367 89459 157117 -62222.7 38413.1 67490.4 12 11.0154 0.190941 0.574524 0.403915 0.012857 0.600083 1 0 1 0 1.26218e-29
1006 1 30.022 1.766 10.596 -4.44936 109856 97195.3 169214 -95045.7 -51277 -54805.8 12 11.0154 0.190941 0.574524 0.403915 0.012857 0.600083 1 2.33789e-08 1 2.33789e-08 0
1007 1 30.022 0 12.362 -4.44936 166383 189492 188175 17348.3 -18537.4 9926.18 12 11.0154 0.190941 0.574524 0.403915 0.012857 0.600083 1 2.02467e-08 1 2.02467e-08 1.26218e-29
1008 1 28.256 1.766 12.362 -4.44936 198075 183490 197394 -3288.31 -990.581 -4606.51 12 11.0154 0.190941 0.574524 0.403915 0.012857 0.600083 1 0 1 0 0
1009 1 0 3.532 10.596 -4.44936 198772 188414 126969 -326.198 -858.489 -27286.4 12 11.0154 0.190941 0.574524 0.403915 0.012857 0.600083 1 1.65314e-08 1 1.65314e-08 1.26218e-29
1010 1 1.766 5.298 10.596 -4.44936 125617 192657 191803 21168.8 22597.4 -6538.08 12 11.0154 0.190941 0.574524 0.403915 0.012857 0.600083 1 1.65314e-08 1 1.65314e-08 0
1011 1 1.766 3.532 12.362 -4.44936 196333 67406.6 157040 17935.9 -10110.1 74053.4 12 11.0154 0.190941 0.574524 0.403915 0.012857 0.600083 1 1.65314e-08 1 1.65314e-08 0
1012 1 0 5.298 12.362 -4.44936 179520 188508 189449 14067.3 13407.9 -9791.96 12 11.0154 0.190941 0.574524 0.403915 0.012857 0.600083 1 2.33789e-08 1 2.33789e-08 1.26218e-29
1013 1 3.532 3.532 10.596 -4.44936 197771 159981 84067 -6261.94 -10767.1 -66715.8 12 11.0154 0.190941 0.574524 0.403915 0.012857 0.600083 1 1.65314e-08 1 1.65314e-08 0
1014 1 5.298 5.298 10.596 -4.44936 143806 160926 182299 -45619.9 30103 24979.9 12 11.0154 0.190941 0.574524 0.403915 0.012857 0.600083 1 1.65314e-08 1 1.65314e-08 0
1015 1 5.298 3.532 12.362 -4.44936 102218 143101 198736 73326.1 -2104.2 1597.84 12 11.0154 0.190941 0.574524 0.403915 0.012857 0.600083 1 1.65314e-08 1 1.65314e-08 0
1016 1 3.532 5.298 12.362 -4.44936 177090 197550 190269 5169.41 -13588.8 3238.37 12 11.0154 0.190941 0.574524 0.403915 0.012857 0.600083 1 1.65314e-08 1 1.65314e-08 0
1017 1 7.064 3.532 10.596 -4.44936 188469 133909 109185 25865.1 30396.8 -76239.5 12 11.0154 0.190941 0.574524 0.403915 0.012857 0.600083 1 1.65314e-08 1 1.65314e-08 0
1018 1 8.83 5.298 10.596 -4.44936 197846 91952.1 179541 9997.81 4243.04 -45338.3 12 11.0154 0.190941 0.574524 0.403915 0.012857 0.600083 1 1.65314e-08 1 1.65314e-08 0
1019 1 8.83 3.532 12.362 -4.44936 157368 157877 153147 41159 43473.5 -43205.5 12 11.0154 0.190941 0.574524 0.403915 0.012857 0.600083 1 1.65314e-08 1 1.65314e-08 0
1020 1 7.064 5.298 12.362 -4.44936 114407 91795.3 137069 -95010.6 -72159.7 -81255.5 12 11.0154 0.190941 0.574524 0.403915 0.012857 0.600083 1 1.65314e-08 1 1.65314e-08 0
1021 1 10.596 3.532 10.596 -4.44936 142780 190176 138453 -21953.5 -58125.5 -22785.9 12 11.0154 0.190941 0.574524 0.403915 0.012857 0.600083 1 1.65314e-08 1 1.65314e-08 0
1022 1 12.362 5.298 10.596 -4.44936 182075 193988 197073 -8949.19 -5343.01 -2862.02 12 11.0154 0.190941 0.574524 0.403915 0.012857 0.600083 1 1.65314e-08 1 1.65314e-08 0
1023 1 12.362 3.532 12.362 -4.44936 181659 191650 135389 11050.4 32946.2 -21262.3 12 11.0154 0.190941 0.574524 0.403915 0.012857 0.600083 1 1.65314e-08 1 1.65314e-08 0
1024 1 10.596 5.298 12.362 -4.44936 184220 46847.2 182057 -47037.1 15605.9 50408.8 12 11.0154 0.190941 0.574524 0.403915 0.012857 0.600083 1 1.65314e-08 1 1.65314e-08 0
1025 1 14.128 3.532 10.596 -4.44936 171036 188464 189543 -16919.7 -16010.5 -9763.39 12 11.0154 0.190941 0.574524 0.403915 0.012857 0.600083 1 1.65314e-08 1 1.65314e-08 0
1026 1 15.894 5.298 10.596 -4.44936 198577 173990 198259 -2256.76 327.92 3602.44 12 11.0154 0.190941 0.574524 0.403915 0.012857 0.600083 1 1.65314e-08 1 1.65314e-08 0
1027 1 15.894 3.532 12.362 -4.44936 191498 41009.6 150006 33899 18848.4 -87723.9 12 11.0154 0.190941 0.574524 0.403915 0.012857 0.600083 1 1.65314e-08 1 1.65314e-08 0
1028 1 14.128 5.298 12.362 -4.44936 134365 149951 171641 -56084.9 -41813.2 -36404.8 12 11.0154 0.190941 0.574524 0.403915 0.012857 0.600083 1 1.65314e-08 1 1.65314e-08 0
1029 1 17.66 3.532 10.596 -4.44936 150550 194739 198685 -13965 -2161.04 -625.703 12 11.0154 0.190941 0.574524 0.403915 0.012857 0.600083 1 1.65314e-08 1 1.65314e-08 0
1030 1 19.426 5.298 10.596 -4.44936 47042.9 84275.4 195134 131815 23527.1 -20437.9 12 11.0154 0.190941 0.574524 0.403915 0.012857 0.600083 1 0 1 0 0
1031 1 19.426 3.532 12.362 -4.44936 190440 159746 143810 18045.5 -21414.4 46323.7 12 11.0154 0.190941 0.574524 0.403915 0.012857 0.600083 1 1.65314e-08 1 1.65314e-08 0
1032 1 17.66 5.298 12.362 -4.44936 197698 178220 164229 -4721.31 6120.23 26654.9 12 11.0154 0.190941 0.574524 0.403915 0.012857 0.600083 1 2.02467e-08 1 2.02467e-08 0
1033 1 21.192 3.532 10.596 -4.44936 137625 194062 108336 16989.2 -74373.4 20660.7 12 11.0154 0.190941 0.574524 0.403915 0.012857 0.600083 1 0 1 0 0
1034 1 22.958 5.298 10.596 -4.44936 182507 193653 -120885 -9136.59 -72128.8 -40492.4 12 11.0154 0.190941 0.574524 0.403915 0.012857 0.600083 1 2.33789e-08 1 2.33789e-08 0
1035 1 22.958 3.532 12.362 -4.44936 123878 154437 185230 -57633.3 31860.6 24514.5 12 11.0154 0.190941 0.574524 0.403915 0.012857 0.600083 1 1.65314e-08 1 1.65314e-08 0
1036 1 21.192 5.298 12.362 -4.44936 179606 154006 190899 29301.9 12295 -18787.7 12 11.0154 0.190941 0.574524 0.403915 0.012857 0.600083 1 1.16894e-08 1 1.16894e-08 0
1037 1 24.724 3.532 10.596 -4.44936 153552 195960 -84181.2 -11297.7 113130 28257.9 12 11.0154 0.190941 0.574524 0.403915 0.012857 0.600083 1 1.65314e-08 1 1.65314e-08 0
1038 1 26.49 5.298 10.596 -4.44936 196254 122512 189510 13885.9 4841.4 -26592 12 11.0154 0.190941 0.574524 0.403915 0.012857 0.600083 1 1.65314e-08 1 1.65314e-08 0
1039 1 26.49 3.532 12.362 -4.44936 95009 176576 198367 48003.9 -6564.57 3036.68 12 11.0154 0.190941 0.574524 0.403915 0.012857 0.600083 1 1.65314e-08 1 1.65314e-08 0
1040 1 24.724 5.298 12.362 -4.44936 198497 165811 175015 -3063.55 2601.08 27993.3 12 11.0154 0.190941 0.574524 0.403915 0.012857 0.600083 1 1.65314e-08 1 1.65314e-08 0
1041 1 28.256 3.532 10.596 -4.44936 187738 59205.2 192906 39260.9 -8055.48 28638.1 12 11.0154 0.190941 0.574524 0.403915 0.012857 0.600083 1 0 1 0 0
1042 1 30.022 5.298 10.596 -4.44936 193724 167434 142207 12592.3 16916.5 -42113.4 12 11.0154 0.190941 0.574524 0.403915 0.012857 0.600083 1 2.33789e-08 1 2.33789e-08 0
1043 1 30.022 3.532 12.362 -4.44936 183149 198281 117223 2799.38 -35707.4 6394.03 12 11.0154 0.190941 0.574524 0.403915 0.012857 0.600083 1 1.65314e-08 1 1.65314e-08 0
1044 1 28.256 5.298 12.362 -4.44936 142596 160539 173990 -46354.1 -37322.4 -30791.5 12 11.0154 0.190941 0.574524 0.403915 0.012857 0.600083 1 1.16894e-08 1 1.16894e-08 0
1045 1 0 7.064 10.596 -4.44936 154216 168945 147100 36465 47992.2 -39268.4 12 11.0154 0.190941 0.574524 0.403915 0.012857 0.600083 1 1.65314e-08 1 1.65314e-08 1.26218e-29
1046 1 1.766 8.83 10.596 -4.44936 153750 188694 112887 -21313.9 62193.1 29436.7 12 11.0154 0.190941 0.574524 0.403915 0.012857 0.600083 1 1.65314e-08 1 1.65314e-08 0
1047 1 1.766 7.064 12.362 -4.44936 148134 197128 -15509.2 9153.21 104180 -18827.6 12 11.0154 0.190941 0.574524 0.403915 0.012857 0.600083 1 1.65314e-08 1 1.65314e-08 0
1048 1 0 8.83 12.362 -4.44936 172368 159661 182926 32145.4 20465.3 -24906 12 11.0154 0.190941 0.574524 0.403915 0.012857 0.600083 1 1.65314e-08 1 1.65314e-08 1.26218e-29
1049 1 3.532 7.064 10.596 -4.44936 166052 197955 181548 5202.75 -23750 3775.27 12 11.0154 0.190941 0.574524 0.403915 0.012857 0.600083 1 1.65314e-08 1 1.65314e-08 0
1050 1 5.298 8.83 10.596 -4.44936 198628 62843.2 189190 4573.39 -1214.86 36110.5 12 11.0154 0.190941 0.574524 0.403915 0.012857 0.600083 1 1.65314e-08 1 1.65314e-08 0
1051 1 5.298 7.064 12.362 -4.44936 198734 191899 192649 574.329 -542.16 6497.06 12 11.0154 0.190941 0.574524 0.403915 0.012857 0.600083 1 1.65314e-08 1 1.65314e-08 0
1052 1 3.532 8.83 12.362 -4.44936 170905 198690 197392 1601.82 -6224.3 357.657 12 11.0154 0.190941 0.574524 0.403915 0.012857 0.600083 1 1.65314e-08 1 1.65314e-08 0
1053 1 7.064 7.064 10.596 -4.44936 110354 123881 59825.4 -81383.8 110850 102020 12 11.0154 0.190941 0.574524 0.403915 0.012857 0.600083 1 1.65314e-08 1 1.65314e-08 0
1054 1 8.83 8.83 10.596 -4.44936 175863 167523 115892 26766.2 -43586.3 50902.4 12 11.0154 0.190941 0.574524 0.403915 0.012857 0.600083 1 1.65314e-08 1 1.65314e-08 0
1055 1 8.83 7.064 12.362 -4.44936 140486 147341 174928 -54761 -37290.5 -35029.4 12 11.0154 0.190941 0.574524 0.403915 0.012857 0.600083 1 1.65314e-08 1 1.65314e-08 0
1056 1 7.064 8.83 12.362 -4.44936 167726 198530 176767 2796.67 26147.3 -2354.64 12 11.0154 0.190941 0.574524 0.403915 0.012857 0.600083 1 1.65314e-08 1 1.65314e-08 0
1057 1 10.596 7.064 10.596 -4.44936 146666 194171 159551 15501.9 -45216.9 13449.7 12 11.0154 0.190941 0.574524 0.403915 0.012857 0.600083 1 1.65314e-08 1 1.65314e-08 0
1058 1 12.362 8.83 10.596 -4.44936 162181 180657 45260.3 -25756.2 74960.3 52749.8 12 11.0154 0.190941 0.574524 0.403915 0.012857 0.600083 1 1.65314e-08 1 1.65314e-08 0
1059 1 12.362 7.064 12.362 -4.44936 76535.8 196079 130467 -18179 91385.5 13589.7 12 11.0154 0.190941 0.574524 0.403915 0.012857 0.600083 1 1.65314e-08 1 1.65314e-08 0
1060 1 10.596 8.83 12.362 -4.44936 142324 149099 196922 -52962.1 10247.8 9613.24 12 11.0154 0.190941 0.574524 0.403915 0.012857 0.600083 1 1.65314e-08 1 1.65314e-08 0
1061 1 14.128 7.064 10.596 -4.44936 195056 136523 196733 15230.9 -2763.13 11294.7 12 11.0154 0.190941 0.574524 0.403915 0.012857 0.600083 1 1.65314e-08 1 1.65314e-08 0
1062 1 15.894 8.83 10.596 -4.44936 198274 -94408.3 25777.2 12198.8 -9370.69 225218 12 11.0154 0.190941 0.574524 0.403915 0.012857 0.600083 1 1.65314e-08 1 1.65314e-08 0
1063 1 15.894 7.064 12.362 -4.44936 180349 99358.6 152953 42809.3 29064.4 -67501.3 12 11.0154 0.190941 0.574524 0.403915 0.012857 0.600083 1 1.65314e-08 1 1.65314e-08 0
1064 1 14.128 8.83 12.362 -4.44936 165945 81133.6 196951 62154.9 -7754.25 14677.4 12 11.0154 0.190941 0.574524 0.403915 0.012857 0.600083 1 1.65314e-08 1 1.65314e-08 0
1065 1 17.66 7.064 10.596 -4.44936 191246 197320 198463 3319 1549.61 -682.524 12 11.0154 0.190941 0.574524 0.403915 0.012857 0.600083 1 1.65314e-08 1 1.65314e-08 0
1066 1 19.426 8.83 10.596 -4.44936 85278.9 113650 110744 -98299 -99962.9 -86572.5 12 11.0154 0.190941 0.574524 0.403915 0.012857 0.600083 1 2.33789e-08 1 2.33789e-08 0
1067 1 19.426 7.064 12.362 -4.44936 182197 176585 158046 19186.8 -25992.4 30069.7 12 11.0154 0.190941 0.574524 0.403915 0.012857 0.600083 1 0 1 0 0
1068 1 17.66 8.83 12.362 -4.44936 198692 195136 196987 573.67 402.538 -2558.26 12 11.0154 0.190941 0.574524 0.403915 0.012857 0.600083 1 2.33789e-08 1 2.33789e-08 0
1069 1 21.192 7.064 10.596 -4.44936 108421 197842 187182 -9214.57 32375.9 3301.54 12 11.0154 0.190941 0.574524 0.403915 0.012857 0.600083 1 0 1 0 0
1070 1 22.958 8.83 10.596 -4.44936 189562 127415 171583 -25652.1 15836.3 44058 12 11.0154 0.190941 0.574524 0.403915 0.012857 0.600083 1 1.65314e-08 1 1.65314e-08 0
1071 1 22.958 7.064 12.362 -4.44936 184831 162953 102080 22357 36729.8 -58861.6 12 11.0154 0.190941 0.574524 0.403915 0.012857 0.600083 1 0 1 0 0
1072 1 21.192 8.83 12.362 -4.44936 193933 83761 54529.8 -23615.4 -26446.5 -128810 12 11.0154 0.190941 0.574524 0.403915 0.012857 0.600083 1 1.16894e-08 1 1.16894e-08 0
1073 1 24.724 7.064 10.596 -4.44936 197947 187577 176110 -3059.27 -4351.65 -15938.4 12 11.0154 0.190941 0.574524 0.403915 0.012857 0.600083 1 2.61384e-08 1 2.61384e-08 0
1074 1 26.49 8.83 10.596 -4.44936 164742 188308 175334 -18882.2 28252.2 15671.6 12 11.0154 0.190941 0.574524 0.403915 0.012857 0.600083 1 1.16894e-08 1 1.16894e-08 0
1075 1 26.49 7.064 12.362 -4.44936 181965 177307 170894 19003.4 -21655.9 24472.1 12 11.0154 0.190941 0.574524 0.403915 0.012857 0.600083 1 2.33789e-08 1 2.33789e-08 0
1076 1 24.724 8.83 12.362 -4.44936 189063 196370 189080 -4841.72 9710.49 4837.69 12 11.0154 0.190941 0.574524 0.403915 0.012857 0.600083 1 2.33789e-08 1 2.33789e-08 0
1077 1 28.256 7.064 10.596 -4.44936 105437 27330.9 197779 -126507 9677.26 13115.3 12 11.0154 0.190941 0.574524 0.403915 0.012857 0.600083 1 1.16894e-08 1 1.16894e-08 0
1078 1 30.022 8.83 10.596 -4.44936 198730 196077 196725 -376.714 -328.468 -2358.86 12 11.0154 0.190941 0.574524 0.403915 0.012857 0.600083 1 1.65314e-08 1 1.65314e-08 0
1079 1 30.022 7.064 12.362 -4.44936 -83536.4 184627 198074 -63214.7 14134 3164.77 12 11.0154 0.190941 0.574524 0.403915 0.012857 0.600083 1 2.33789e-08 1 2.33789e-08 0
1080 1 28.256 8.83 12.362 -4.44936 196561 56476.9 173923 17777.2 7430.07 -59477.2 12 11.0154 0.190941 0.574524 0.403915 0.012857 0.600083 1 1.16894e-08 1 1.16894e-08 0
1081 1 0 10.596 10.596 -4.44936 198669 151174 116941 2318.13 -3039.38 62420.4 12 11.0154 0.190941 0.574524 0.403915 0.012857 0.600083 1 1.65314e-08 1 1.65314e-08 1.26218e-29
1082 1 1.766 12.362 10.596 -4.44936 189848 195242 151577 5623.99 20535.9 -12927.7 12 11.0154 0.190941 0.574524 0.403915 0.012857 0.600083 1 1.65314e-08 1 1.65314e-08 0
1083 1 1.766 10.596 12.362 -4.44936 198778 198624 177064 -24.2399 -284.032 -1853.44 12 11.0154 0.190941 0.574524 0.403915 0.012857 0.600083 1 1.65314e-08 1 1.65314e-08 0
1084 1 0 12.362 12.362 -4.44936 195753 197621 176505 -1875.46 8214.91 5085.79 12 11.0154 0.190941 0.574524 0.403915 0.012857 0.600083 1 1.65314e-08 1 1.65314e-08 1.26218e-29
1085 1 3.532 10.596 10.596 -4.44936 190539 189055 183312 -8954.32 -11292 -12267 12 11.0154 0.190941 0.574524 0.403915 0.012857 0.600083 1 1.65314e-08 1 1.65314e-08 0
1086 1 5.298 12.362 10.596 -4.44936 185007 179660 156649 -16230.2 24091.5 28384.5 12 11.0154 0.190941 0.574524 0.403915 0.012857 0.600083 1 1.65314e-08 1 1.65314e-08 0
1087 1 5.298 10.596 12.362 -4.44936 188673 161182 158506 -19496.1 20177.9 38915.2 12 11.0154 0.190941 0.574524 0.403915 0.012857 0.600083 1 1.65314e-08 1 1.65314e-08 0
1088 1 3.532 12.362 12.362 -4.44936 151505 66639.6 121438 79039.6 60469.5 -101096 12 11.0154 0.190941 0.574524 0.403915 0.012857 0.600083 1 1.65314e-08 1 1.65314e-08 0
1089 1 7.064 10.596 10.596 -4.44936 162157 189085 191486 -18845.3 -16347.1 -8411.44 12 11.0154 0.190941 0.574524 0.403915 0.012857 0.600083 1 1.65314e-08 1 1.65314e-08 0
1090 1 8.83 12.362 10.596 -4.44936 165230 191698 158164 -15416.8 36916.3 16962.8 12 11.0154 0.190941 0.574524 0.403915 0.012857 0.600083 1 1.65314e-08 1 1.65314e-08 0
1091 1 8.83 10.596 12.362 -4.44936 90827.9 186553 194746 36333.7 20872.7 -7025.06 12 11.0154 0.190941 0.574524 0.403915 0.012857 0.600083 1 1.65314e-08 1 1.65314e-08 0
1092 1 7.064 12.362 12.362 -4.44936 198371 190418 170605 -1854.51 -3403.79 -15352.1 12 11.0154 0.190941 0.574524 0.403915 0.012857 0.600083 1 1.65314e-08 1 1.65314e-08 0
1093 1 10.596 10.596 10.596 -4.44936 164410 50208.3 189071 71461.5 18269.3 -37983.2 12 11.0154 0.190941 0.574524 0.403915 0.012857 0.600083 1 1.65314e-08 1 1.65314e-08 0
1094 1 12.362 12.362 10.596 -4.44936 118556 187388 196332 30234.1 14020.9 -5283.97 12 11.0154 0.190941 0.574524 0.403915 0.012857 0.600083 1 1.65314e-08 1 1.65314e-08 0
1095 1 12.362 10.596 12.362 -4.44936 100290 198471 198036 -5535.71 8570.32 481.693 12 11.0154 0.190941 0.574524 0.403915 0.012857 0.600083 1 1.65314e-08 1 1.65314e-08 0
1096 1 10.596 12.362 12.362 -4.44936 109736 37594.3 198778 119805 -615.358 827.916 12 11.0154 0.190941 0.574524 0.403915 0.012857 0.600083 1 1.65314e-08 1 1.65314e-08 0
1097 1 14.128 10.596 10.596 -4.44936 196116 167565 154645 9121.93 -10846.6 37118.8 12 11.0154 0.190941 0.574524 0.403915 0.012857 0.600083 1 1.65314e-08 1 1.65314e-08 0
1098 1 15.894 12.362 10.596 -4.44936 192465 198191 183402 -1931.93 9857.12 3014.44 12 11.0154 0.190941 0.574524 0.403915 0.012857 0.600083 1 1.65314e-08 1 1.65314e-08 0
1099 1 15.894 10.596 12.362 -4.44936 195915 197384 196753 -2001.86 -2411.79 -1684.19 12 11.0154 0.190941 0.574524 0.403915 0.012857 0.600083 1 1.65314e-08 1 1.65314e-08 0
1100 1 14.128 12.362 12.362 -4.44936 186644 197829 194577 3400.41 -7144.37 2001.53 12 11.0154 0.190941 0.574524 0.403915 0.012857 0.600083 1 1.65314e-08 1 1.65314e-08 0
1101 1 17.66 10.596 10.596 -4.44936 197634 64115.2 156099 12433.2 6999.77 -75815.8 12 11.0154 0.190941 0.574524 0.403915 0.012857 0.600083 1 1.65314e-08 1 1.65314e-08 0
1102 1 19.426 12.362 10.596 -4.44936 174766 173699 181292 -24543.6 -20494.6 -20945.3 12 11.0154 0.190941 0.574524 0.403915 0.012857 0.600083 1 1.65314e-08 1 1.65314e-08 0
1103 1 19.426 10.596 12.362 -4.44936 133278 196993 185170 -10824.4 -29860.3 -4934.38 12 11.0154 0.190941 0.574524 0.403915 0.012857 0.600083 1 2.33789e-08 1 2.33789e-08 0
1104 1 17.66 12.362 12.362 -4.44936 195949 93127.8 167721 -17301.3 -9380.83 -57286.2 12 11.0154 0.190941 0.574524 0.403915 0.012857 0.600083 1 2.33789e-08 1 2.33789e-08 0
1105 1 21.192 10.596 10.596 -4.44936 93838.8 158023 197962 65401.7 -9275.68 5780.7 12 11.0154 0.190941 0.574524 0.403915 0.012857 0.600083 1 0 1 0 0
1106 1 22.958 12.362 10.596 -4.44936 195687 198775 118159 -146.828 15795.2 749.446 12 11.0154 0.190941 0.574524 0.403915 0.012857 0.600083 1 2.33789e-08 1 2.33789e-08 0
1107 1 22.958 10.596 12.362 -4.44936 195964 165653 194622 9661.77 3423.51 -11738.9 12 11.0154 0.190941 0.574524 0.403915 0.012857 0.600083 1 2.33789e-08 1 2.33789e-08 0
1108 1 21.192 12.362 12.362 -4.44936 198561 190725 84087.6 1332.85 5028.81 -30399 12 11.0154 0.190941 0.574524 0.403915 0.012857 0.600083 1 0 1 0 0
1109 1 24.724 10.596 10.596 -4.44936 174686 145132 192955 -35955 11849.9 17681.6 12 11.0154 0.190941 0.574524 0.403915 0.012857 0.600083 1 2.33789e-08 1 2.33789e-08 0
1110 1 26.49 12.362 10.596 -4.44936 163461 135675 180536 47211.9 -25386.3 33933.1 12 11.0154 0.190941 0.574524 0.403915 0.012857 0.600083 1 1.65314e-08 1 1.65314e-08 0
1111 1 26.49 10.596 12.362 -4.44936 192710 157846 195081 15765.2 4740.38 -12308.7 12 11.0154 0.190941 0.574524 0.403915 0.012857 0.600083 1 2.33789e-08 1 2.33789e-08 0
1112 1 24.724 12.362 12.362 -4.44936 151152 141270 96238 -52338.5 -69887.1 -76795.3 12 11.0154 0.190941 0.574524 0.403915 0.012857 0.600083 1 2.61384e-08 1 2.61384e-08 0
1113 1 28.256 10.596 10.596 -4.44936 191330 196789 186538 3853.41 9552.01 -4939.41 12 11.0154 0.190941 0.574524 0.403915 0.012857 0.600083 1 0 1 0 0
1114 1 30.022 12.362 10.596 -4.44936 197802 188263 193287 -3211.03 -2320.88 -7603.08 12 11.0154 0.190941 0.574524 0.403915 0.012857 0.600083 1 2.33789e-08 1 2.33789e-08 0
1115 1 30.022 10.596 12.362 -4.44936 198762 155474 128798 -932.969 -1186 -55053.2 12 11.0154 0.190941 0.574524 0.403915 0.012857 0.600083 1 0 1 0 0
1116 1 28.256 12.362 12.362 -4.44936 176784 198718 -107357 1188.54 -82063.2 4433.89 12 11.0154 0.190941 0.574524 0.403915 0.012857 0.600083 1 0 1 0 0
1117 1 0 14.128 10.596 -4.44936 182474 196946 174264 -5471.62 -19995.8 -6709.04 12 11.0154 0.190941 0.574524 0.403915 0.012857 0.600083 1 1.65314e-08 1 1.65314e-08 1.26218e-29
1118 1 1.766 15.894 10.596 -4.44936 187430 196465 151396 5128.81 23192.8 -10478.9 12 11.0154 0.190941 0.574524 0.403915 0.012857 0.600083 1 1.65314e-08 1 1.65314e-08 0
1119 1 1.766 14.128 12.362 -4.44936 193923 197662 -177066 2332.6 42732.6 -20516 12 11.0154 0.190941 0.574524 0.403915 0.012857 0.600083 1 1.65314e-08 1 1.65314e-08 0
1120 1 0 15.894 12.362 -4.44936 147017 192568 112785 -17934.4 66720.4 23116 12 11.0154 0.190941 0.574524 0.403915 0.012857 0.600083 1 1.65314e-08 1 1.65314e-08 1.26218e-29
1121 1 3.532 14.128 10.596 -4.44936 197962 194623 198453 1846.66 519.213 -1169.38 12 11.0154 0.190941 0.574524 0.403915 0.012857 0.600083 1 1.65314e-08 1 1.65314e-08 0
1122 1 5.298 15.894 10.596 -4.44936 172766 193575 120483 11638.8 45133.3 -20191.5 12 11.0154 0.190941 0.574524 0.403915 0.012857 0.600083 1 1.65314e-08 1 1.65314e-08 0
1123 1 5.298 14.128 12.362 -4.44936 198703 100492 181089 2779.27 -1179.17 41701.8 12 11.0154 0.190941 0.574524 0.403915 0.012857 0.600083 1 1.65314e-08 1 1.65314e-08 0
1124 1 3.532 15.894 12.362 -4.44936 198706 190387 196583 796.534 -407.701 4296.73 12 11.0154 0.190941 0.574524 0.403915 0.012857 0.600083 1 1.65314e-08 1 1.65314e-08 0
1125 1 7.064 14.128 10.596 -4.44936 188832 114275 185493 28997.4 11499.1 -33511.8 12 11.0154 0.190941 0.574524 0.403915 0.012857 0.600083 1 1.65314e-08 1 1.65314e-08 0
1126 1 8.83 15.894 10.596 -4.44936 195729 134361 196337 -14024.3 -2732.2 -12550.4 12 11.0154 0.190941 0.574524 0.403915 0.012857 0.600083 1 1.65314e-08 1 1.65314e-08 0
1127 1 8.83 14.128 12.362 -4.44936 50923.2 6180.89 131891 -168754 -99450.5 -113504 12 11.0154 0.190941 0.574524 0.403915 0.012857 0.600083 1 1.65314e-08 1 1.65314e-08 0
1128 1 7.064 15.894 12.362 -4.44936 195824 138478 131890 -13354.9 14065.5 63512.8 12 11.0154 0.190941 0.574524 0.403915 0.012857 0.600083 1 1.65314e-08 1 1.65314e-08 0
1129 1 10.596 14.128 10.596 -4.44936 108570 173825 163369 -47448.8 -56521.9 -29728.7 12 11.0154 0.190941 0.574524 0.403915 0.012857 0.600083 1 1.65314e-08 1 1.65314e-08 0
1130 1 12.362 15.894 10.596 -4.44936 139607 196919 191219 10500 21154.5 -3753.64 12 11.0154 0.190941 0.574524 0.403915 0.012857 0.600083 1 1.65314e-08 1 1.65314e-08 0
1131 1 12.362 14.128 12.362 -4.44936 195495 139086 172801 14007.3 -9240.82 39382.2 12 11.0154 0.190941 0.574524 0.403915 0.012857 0.600083 1 1.65314e-08 1 1.65314e-08 0
1132 1 10.596 15.894 12.362 -4.44936 165032 182106 148569 -23723.8 -41166.3 -28937.2 12 11.0154 0.190941 0.574524 0.403915 0.012857 0.600083 1 1.65314e-08 1 1.65314e-08 0
1133 1 14.128 14.128 10.596 -4.44936 175685 -33610.9 198144 -73263.5 -3838.46 -12175.7 12 11.0154 0.190941 0.574524 0.403915 0.012857 0.600083 1 1.65314e-08 1 1.65314e-08 0
1134 1 15.894 15.894 10.596 -4.44936 198587 12354.2 133047 6030.97 3581.22 -110702 12 11.0154 0.190941 0.574524 0.403915 0.012857 0.600083 1 1.65314e-08 1 1.65314e-08 0
1135 1 15.894 14.128 12.362 -4.44936 198481 195524 102016 990.697 -5399.2 17755.5 12 11.0154 0.190941 0.574524 0.403915 0.012857 0.600083 1 1.65314e-08 1 1.65314e-08 0
1136 1 14.128 15.894 12.362 -4.44936 183818 147769 130291 -27628.7 -32013.7 -59109.3 12 11.0154 0.190941 0.574524 0.403915 0.012857 0.600083 1 1.65314e-08 1 1.65314e-08 0
1137 1 17.66 14.128 10.596 -4.44936 -82652.8 88420.6 161195 176237 -102850 64405.8 12 11.0154 0.190941 0.574524 0.403915 0.012857 0.600083 1 1.65314e-08 1 1.65314e-08 0
1138 1 19.426 15.894 10.596 -4.44936 189339 189533 177246 -9345.31 -14260.6 -14113.2 12 11.0154 0.190941 0.574524 0.403915 0.012857 0.600083 1 0 1 0 0
1139 1 19.426 14.128 12.362 -4.44936 152483 183900 198180 26248.9 5277.19 -2991.9 12 11.0154 0.190941 0.574524 0.403915 0.012857 0.600083 1 1.65314e-08 1 1.65314e-08 0
1140 1 17.66 15.894 12.362 -4.44936 198674 198147 198689 -262.468 100.345 242.936 12 11.0154 0.190941 0.574524 0.403915 0.012857 0.600083 1 2.33789e-08 1 2.33789e-08 0
1141 1 21.192 14.128 10.596 -4.44936 183188 -218279 106958 80646.3 37840.9 -195694 12 11.0154 0.190941 0.574524 0.403915 0.012857 0.600083 1 0 1 0 0
1142 1 22.958 15.894 10.596 -4.44936 137780 112831 191471 -72409.8 21118.9 25068.2 12 11.0154 0.190941 0.574524 0.403915 0.012857 0.600083 1 1.65314e-08 1 1.65314e-08 0
1143 1 22.958 14.128 12.362 -4.44936 32393.1 195100 192751 24752.8 -31676.6 4712.37 12 11.0154 0.190941 0.574524 0.403915 0.012857 0.600083 1 1.65314e-08 1 1.65314e-08 0
1144 1 21.192 15.894 12.362 -4.44936 183641 198781 70476.6 115.369 -44075.8 335.842 12 11.0154 0.190941 0.574524 0.403915 0.012857 0.600083 1 1.16894e-08 1 1.16894e-08 0
1145 1 24.724 14.128 10.596 -4.44936 186808 198578 168342 1563.44 19091.3 -2492.85 12 11.0154 0.190941 0.574524 0.403915 0.012857 0.600083 1 1.65314e-08 1 1.65314e-08 0
1146 1 26.49 15.894 10.596 -4.44936 101300 198611 197735 4084.91 10103.2 -423.367 12 11.0154 0.190941 0.574524 0.403915 0.012857 0.600083 1 0 1 0 0
1147 1 26.49 14.128 12.362 -4.44936 168711 197991 131320 4877.11 -45040.8 7304.94 12 11.0154 0.190941 0.574524 0.403915 0.012857 0.600083 1 1.65314e-08 1 1.65314e-08 0
1148 1 24.724 15.894 12.362 -4.44936 189820 129903 166285 24845.4 -17065.8 47311.3 12 11.0154 0.190941 0.574524 0.403915 0.012857 0.600083 1 2.33789e-08 1 2.33789e-08 0
1149 1 28.256 14.128 10.596 -4.44936 195680 196522 181829 -2647.53 -7251.81 -6189.17 12 11.0154 0.190941 0.574524 0.403915 0.012857 0.600083 1 0 1 0 0
1150 1 30.022 15.894 10.596 -4.44936 150176 195776 182380 12086.8 -28235.6 7021.31 12 11.0154 0.190941 0.574524 0.403915 0.012857 0.600083 1 2.33789e-08 1 2.33789e-08 0
1151 1 30.022 14.128 12.362 -4.44936 182161 122763 186292 -35545.9 -14408.1 -30813.3 12 11.0154 0.190941 0.574524 0.403915 0.012857 0.600083 1 1.65314e-08 1 1.65314e-08 0
1152 1 28.256 15.894 12.362 -4.44936 198748 68235.8 161089 2119.83 1139.07 -70147.8 12 11.0154 0.190941 0.574524 0.403915 0.012857 0.600083 1 0 1 0 0
1153 1 0 17.66 10.596 -4.44936 198602 198775 193948 -36.1947 -931.57 -187.797 12 11.0154 0.190941 0.574524 0.403915 0.012857 0.600083 1 0 1 0 1.26218e-29
1154 1 1.766 19.426 10.596 -4.44936 141863 158321 86335.3 47989.6 -80001.8 67451.8 12 11.0154 0.190941 0.574524 0.403915 0.012857 0.600083 1 2.33789e-08 1 2.33789e-08 0
1155 1 1.766 17.66 12.362 -4.44936 196360 179183 194289 -6888.97 -3298.42 -9383.73 12 11.0154 0.190941 0.574524 0.403915 0.012857 0.600083 1 1.65314e-08 1 1.65314e-08 0
1156 1 0 19.426 12.362 -4.44936 29422.4 117475 198656 117346 -4625.88 3205.18 12 11.0154 0.190941 0.574524 0.403915 0.012857 0.600083 1 2.61384e-08 1 2.61384e-08 1.26218e-29
1157 1 3.532 17.66 10.596 -4.44936 177517 198106 -31287.8 -3790.16 -69946.7 -12466.7 12 11.0154 0.190941 0.574524 0.403915 0.012857 0.600083 1 2.33789e-08 1 2.33789e-08 0
1158 1 5.298 19.426 10.596 -4.44936 195112 95626.9 121642 19455.8 16824.5 -89204 12 11.0154 0.190941 0.574524 0.403915 0.012857 0.600083 1 0 1 0 0
1159 1 5.298 17.66 12.362 -4.44936 112331 189800 183639 -27866 -36182.2 -11662.7 12 11.0154 0.190941 0.574524 0.403915 0.012857 0.600083 1 1.65314e-08 1 1.65314e-08 0
1160 1 3.532 19.426 12.362 -4.44936 198658 195152 154802 -671.261 -2336.52 -12635.1 12 11.0154 0.190941 0.574524 0.403915 0.012857 0.600083 1 2.33789e-08 1 2.33789e-08 0
1161 1 7.064 17.66 10.596 -4.44936 194426 105463 104409 -20162.1 -20275.6 -93844.5 12 11.0154 0.190941 0.574524 0.403915 0.012857 0.600083 1 2.33789e-08 1 2.33789e-08 0
1162 1 8.83 19.426 10.596 -4.44936 164458 197639 195785 6262.73 10142.8 -1850.66 12 11.0154 0.190941 0.574524 0.403915 0.012857 0.600083 1 2.33789e-08 1 2.33789e-08 0
1163 1 8.83 17.66 12.362 -4.44936 196700 71801.2 146771 16259.3 10405.9 -81267.8 12 11.0154 0.190941 0.574524 0.403915 0.012857 0.600083 1 2.02467e-08 1 2.02467e-08 0
1164 1 7.064 19.426 12.362 -4.44936 159386 102995 178911 -61430 27979.4 43627.6 12 11.0154 0.190941 0.574524 0.403915 0.012857 0.600083 1 2.33789e-08 1 2.33789e-08 0
1165 1 10.596 17.66 10.596 -4.44936 197103 154804 196986 8591.91 -1736.06 8886.17 12 11.0154 0.190941 0.574524 0.403915 0.012857 0.600083 1 1.65314e-08 1 1.65314e-08 0
1166 1 12.362 19.426 10.596 -4.44936 192273 150272 189169 -17769.2 -7910.17 -21594.9 12 11.0154 0.190941 0.574524 0.403915 0.012857 0.600083 1 1.65314e-08 1 1.65314e-08 0
1167 1 12.362 17.66 12.362 -4.44936 194510 173097 170850 10474.7 10923.3 -26784.7 12 11.0154 0.190941 0.574524 0.403915 0.012857 0.600083 1 1.65314e-08 1 1.65314e-08 0
1168 1 10.596 19.426 12.362 -4.44936 169080 194161 185338 11714.8 19983 -7881.51 12 11.0154 0.190941 0.574524 0.403915 0.012857 0.600083 1 2.33789e-08 1 2.33789e-08 0
1169 1 14.128 17.66 10.596 -4.44936 142940 196786 156866 -10556.9 -48380.6 -9146.32 12 11.0154 0.190941 0.574524 0.403915 0.012857 0.600083 1 2.33789e-08 1 2.33789e-08 0
1170 1 15.894 19.426 10.596 -4.44936 195597 181332 198778 7455.62 106.042 -248.197 12 11.0154 0.190941 0.574524 0.403915 0.012857 0.600083 1 0 1 0 0
1171 1 15.894 17.66 12.362 -4.44936 14369.1 195122 150888 25978.4 93980.3 -13239.1 12 11.0154 0.190941 0.574524 0.403915 0.012857 0.600083 1 1.65314e-08 1 1.65314e-08 0
1172 1 14.128 19.426 12.362 -4.44936 161834 14415 106276 -82534.6 58462.8 130595 12 11.0154 0.190941 0.574524 0.403915 0.012857 0.600083 1 2.33789e-08 1 2.33789e-08 0
1173 1 17.66 17.66 10.596 -4.44936 56653.3 120339 64131.5 105589 -138339 102773 12 11.0154 0.190941 0.574524 0.403915 0.012857 0.600083 1 1.16894e-08 1 1.16894e-08 0
1174 1 19.426 19.426 10.596 -4.44936 108753 198773 181695 912.438 -39221.7 397.511 12 11.0154 0.190941 0.574524 0.403915 0.012857 0.600083 1 1.16894e-08 1 1.16894e-08 0
1175 1 19.426 17.66 12.362 -4.44936 182492 105018 164430 -39082.4 23655.8 56753.7 12 11.0154 0.190941 0.574524 0.403915 0.012857 0.600083 1 2.33789e-08 1 2.33789e-08 0
1176 1 17.66 19.426 12.362 -4.44936 198474 113579 197391 5121.17 654.249 -10884.9 12 11.0154 0.190941 0.574524 0.403915 0.012857 0.600083 1 2.33789e-08 1 2.33789e-08 0
1177 1 21.192 17.66 10.596 -4.44936 56746.1 171464 72812.5 -62290.5 133762 58661.8 12 11.0154 0.190941 0.574524 0.403915 0.012857 0.600083 1 1.65314e-08 1 1.65314e-08 0
1178 1 22.958 19.426 10.596 -4.44936 192394 178321 178157 11432.1 -11478 20542.6 12 11.0154 0.190941 0.574524 0.403915 0.012857 0.600083 1 1.16894e-08 1 1.16894e-08 0
1179 1 22.958 17.66 12.362 -4.44936 157626 187701 181247 21355.5 26864 -13939.5 12 11.0154 0.190941 0.574524 0.403915 0.012857 0.600083 1 2.86331e-08 1 2.86331e-08 0
1180 1 21.192 19.426 12.362 -4.44936 198099 148312 198596 5870.27 355.925 -3060.1 12 11.0154 0.190941 0.574524 0.403915 0.012857 0.600083 1 0 1 0 0
1181 1 24.724 17.66 10.596 -4.44936 177654 161315 196077 28135.6 7559.5 -10066.7 12 11.0154 0.190941 0.574524 0.403915 0.012857 0.600083 1 2.33789e-08 1 2.33789e-08 0
1182 1 26.49 19.426 10.596 -4.44936 177388 196087 188831 7593.1 -14590.6 5178.47 12 11.0154 0.190941 0.574524 0.403915 0.012857 0.600083 1 1.16894e-08 1 1.16894e-08 0
1183 1 26.49 17.66 12.362 -4.44936 195985 190090 197815 -4930.97 -1644.66 -2899.05 12 11.0154 0.190941 0.574524 0.403915 0.012857 0.600083 1 2.86331e-08 1 2.86331e-08 0
1184 1 24.724 19.426 12.362 -4.44936 170241 151976 167055 36549.9 30092 -38535.6 12 11.0154 0.190941 0.574524 0.403915 0.012857 0.600083 1 1.65314e-08 1 1.65314e-08 0
1185 1 28.256 17.66 10.596 -4.44936 182379 197862 198172 -3884.84 -3162.21 -748.921 12 11.0154 0.190941 0.574524 0.403915 0.012857 0.600083 1 0 1 0 0
1186 1 30.022 19.426 10.596 -4.44936 179776 189502 190870 13281 12263.1 -8569.03 12 11.0154 0.190941 0.574524 0.403915 0.012857 0.600083 1 1.16894e-08 1 1.16894e-08 0
1187 1 30.022 17.66 12.362 -4.44936 186293 190072 194658 10429.6 -7176.95 5993.62 12 11.0154 0.190941 0.574524 0.403915 0.012857 0.600083 1 1.65314e-08 1 1.65314e-08 0
1188 1 28.256 19.426 12.362 -4.44936 182439 164863 174998 23544.4 -19715.6 28402.6 12 11.0154 0.190941 0.574524 0.403915 0.012857 0.600083 1 1.16894e-08 1 1.16894e-08 0
1189 1 0 21.192 10.596 -4.44936 186476 189140 169677 10892.7 -18924.8 16752 12 11.0154 0.190941 0.574524 0.403915 0.012857 0.600083 1 2.33789e-08 1 2.33789e-08 1.26218e-29
1190 1 1.766 22.958 10.596 -4.44936 166965 170717 137777 29882.5 44057 -41377.8 12 11.0154 0.190941 0.574524 0.403915 0.012857 0.600083 1 1.65314e-08 1 1.65314e-08 0
1191 1 1.766 21.192 12.362 -4.44936 198201 195746 188729 -1328.55 -2417.63 -5524.26 12 11.0154 0.190941 0.574524 0.403915 0.012857 0.600083 1 0 1 0 0
1192 1 0 22.958 12.362 -4.44936 193185 186840 185397 -8175.36 -8655.25 -12642.9 12 11.0154 0.190941 0.574524 0.403915 0.012857 0.600083 1 2.33789e-08 1 2.33789e-08 1.26218e-29
1193 1 3.532 21.192 10.596 -4.44936 185517 150257 121788 -25370.5 31957.5 61124 12 11.0154 0.190941 0.574524 0.403915 0.012857 0.600083 1 0 1 0 0
1194 1 5.298 22.958 10.596 -4.44936 165960 66272.9 195179 -65948.1 10874.2 21849.4 12 11.0154 0.190941 0.574524 0.403915 0.012857 0.600083 1 2.33789e-08 1 2.33789e-08 0
1195 1 5.298 21.192 12.362 -4.44936 198773 155251 163137 -639.654 578.826 39391.2 12 11.0154 0.190941 0.574524 0.403915 0.012857 0.600083 1 0 1 0 0
1196 1 3.532 22.958 12.362 -4.44936 39769.7 187252 161767 42817.7 -76718.7 20658.3 12 11.0154 0.190941 0.574524 0.403915 0.012857 0.600083 1 0 1 0 0
1197 1 7.064 21.192 10.596 -4.44936 145091 180799 134371 31073.3 -58807.3 34034.1 12 11.0154 0.190941 0.574524 0.403915 0.012857 0.600083 1 0 1 0 0
1198 1 8.83 22.958 10.596 -4.44936 127893 166707 198285 -47683.7 5935.56 3992.57 12 11.0154 0.190941 0.574524 0.403915 0.012857 0.600083 1 2.33789e-08 1 2.33789e-08 0
1199 1 8.83 21.192 12.362 -4.44936 185358 169631 192306 -19781.7 9323.83 13740 12 11.0154 0.190941 0.574524 0.403915 0.012857 0.600083 1 1.16894e-08 1 1.16894e-08 0
1200 1 7.064 22.958 12.362 -4.44936 92198.9 167935 191023 -57339.3 28757.7 15471 12 11.0154 0.190941 0.574524 0.403915 0.012857 0.600083 1 0 1 0 0
1201 1 10.596 21.192 10.596 -4.44936 84040.5 197947 194868 9789.49 21191.5 -1808.01 12 11.0154 0.190941 0.574524 0.403915 0.012857 0.600083 1 0 1 0 0
1202 1 12.362 22.958 10.596 -4.44936 198269 176240 194474 -3399.1 -1486.02 -9855.06 12 11.0154 0.190941 0.574524 0.403915 0.012857 0.600083 1 2.33789e-08 1 2.33789e-08 0
1203 1 12.362 21.192 12.362 -4.44936 192518 184722 180291 -9384.52 10762.3 16123.6 12 11.0154 0.190941 0.574524 0.403915 0.012857 0.600083 1 0 1 0 0
1204 1 10.596 22.958 12.362 -4.44936 197082 198259 192638 942.346 -3231.54 1791.73 12 11.0154 0.190941 0.574524 0.403915 0.012857 0.600083 1 0 1 0 0
1205 1 14.128 21.192 10.596 -4.44936 -82948.7 163552 -31734.8 99626.8 -254840 90117.7 12 11.0154 0.190941 0.574524 0.403915 0.012857 0.600083 1 0 1 0 0
1206 1 15.894 22.958 10.596 -4.44936 198240 198761 145695 106.137 -5363.08 1050.6 12 11.0154 0.190941 0.574524 0.403915 0.012857 0.600083 1 2.33789e-08 1 2.33789e-08 0
1207 1 15.894 21.192 12.362 -4.44936 188232 154854 172653 21527.8 -16603.1 33879 12 11.0154 0.190941 0.574524 0.403915 0.012857 0.600083 1 0 1 0 0
1208 1 14.128 22.958 12.362 -4.44936 146913 180463 173831 -30824.9 -35974.7 -21379.3 12 11.0154 0.190941 0.574524 0.403915 0.012857 0.600083 1 0 1 0 0
1209 1 17.66 21.192 10.596 -4.44936 191247 184335 126279 -10433.3 23372.9 32364.1 12 11.0154 0.190941 0.574524 0.403915 0.012857 0.600083 1 0 1 0 0
1210 1 19.426 22.958 10.596 -4.44936 198534 114965 166529 -4555.26 -2825.73 -51993.5 12 11.0154 0.190941 0.574524 0.403915 0.012857 0.600083 1 2.02467e-08 1 2.02467e-08 0
1211 1 19.426 21.192 12.362 -4.44936 170296 156653 185872 34641.9 19177 -23321.5 12 11.0154 0.190941 0.574524 0.403915 0.012857 0.600083 1 1.65314e-08 1 1.65314e-08 0
1212 1 17.66 22.958 12.362 -4.44936 193601 197878 160704 -2164.31 -14045 -5867.73 12 11.0154 0.190941 0.574524 0.403915 0.012857 0.600083 1 1.16894e-08 1 1.16894e-08 0
1213 1 21.192 21.192 10.596 -4.44936 195235 158873 163890 -11897.3 -11124.5 -37316.2 12 11.0154 0.190941 0.574524 0.403915 0.012857 0.600083 1 2.33789e-08 1 2.33789e-08 0
1214 1 22.958 22.958 10.596 -4.44936 195691 71297.4 151751 -19850 12056.5 77431.9 12 11.0154 0.190941 0.574524 0.403915 0.012857 0.600083 1 2.33789e-08 1 2.33789e-08 0
1215 1 22.958 21.192 12.362 -4.44936 194879 89944.9 196063 -20609.2 3257.22 17201.3 12 11.0154 0.190941 0.574524 0.403915 0.012857 0.600083 1 1.16894e-08 1 1.16894e-08 0
1216 1 21.192 22.958 12.362 -4.44936 171828 147662 198627 -37120.1 -2045.49 -2816.97 12 11.0154 0.190941 0.574524 0.403915 0.012857 0.600083 1 1.16894e-08 1 1.16894e-08 0
1217 1 24.724 21.192 10.596 -4.44936 135729 161192 75745.4 48684.2 88078.7 -68006.6 12 11.0154 0.190941 0.574524 0.403915 0.012857 0.600083 1 1.65314e-08 1 1.65314e-08 0
1218 1 26.49 22.958 10.596 -4.44936 188995 196392 195897 4836.5 5313.42 -2625.66 12 11.0154 0.190941 0.574524 0.403915 0.012857 0.600083 1 1.16894e-08 1 1.16894e-08 0
1219 1 26.49 21.192 12.362 -4.44936 172407 52769.2 189299 -62056.7 -15815.1 -37211.3 12 11.0154 0.190941 0.574524 0.403915 0.012857 0.600083 1 1.65314e-08 1 1.65314e-08 0
1220 1 24.724 22.958 12.362 -4.44936 144127 178499 197928 33295.6 6832.7 -4162.42 12 11.0154 0.190941 0.574524 0.403915 0.012857 0.600083 1 2.86331e-08 1 2.86331e-08 0
1221 1 28.256 21.192 10.596 -4.44936 195657 165291 193509 10230 -4059.17 13289 12 11.0154 0.190941 0.574524 0.403915 0.012857 0.600083 1 2.33789e-08 1 2.33789e-08 0
1222 1 30.022 22.958 10.596 -4.44936 145089 133365 169647 -59266 39552 43657.2 12 11.0154 0.190941 0.574524 0.403915 0.012857 0.600083 1 0 1 0 0
1223 1 30.022 21.192 12.362 -4.44936 -5038.33 188638 51453.4 -45471.3 -173287 -38659.6 12 11.0154 0.190941 0.574524 0.403915 0.012857 0.600083 1 1.16894e-08 1 1.16894e-08 0
1224 1 28.256 22.958 12.362 -4.44936 195823 172459 183360 8825.24 6755.06 -20148.3 12 11.0154 0.190941 0.574524 0.403915 0.012857 0.600083 1 1.16894e-08 1 1.16894e-08 0
1225 1 0 24.724 10.596 -4.44936 198121 53762 118317 -9793.94 7295.38 108023 12 11.0154 0.190941 0.574524 0.403915 0.012857 0.600083 1 2.61384e-08 1 2.61384e-08 1.26218e-29
1226 1 1.766 26.49 10.596 -4.44936 194216 181337 198461 8925.14 1210.72 -2366.5 12 11.0154 0.190941 0.574524 0.403915 0.012857 0.600083 1 1.65314e-08 1 1.65314e-08 0
1227 1 1.766 24.724 12.362 -4.44936 130353 90660.9 166108 86015.2 47284.5 -59436.6 12 11.0154 0.190941 0.574524 0.403915 0.012857 0.600083 1 1.65314e-08 1 1.65314e-08 0
1228 1 0 26.49 12.362 -4.44936 195205 197085 141197 -2463.76 -14352.4 -9885.11 12 11.0154 0.190941 0.574524 0.403915 0.012857 0.600083 1 2.33789e-08 1 2.33789e-08 1.26218e-29
1229 1 3.532 24.724 10.596 -4.44936 192949 178952 198639 10754.9 -913.683 1684.64 12 11.0154 0.190941 0.574524 0.403915 0.012857 0.600083 1 1.65314e-08 1 1.65314e-08 0
1230 1 5.298 26.49 10.596 -4.44936 165367 197760 134429 -5843.89 46371.4 8109.93 12 11.0154 0.190941 0.574524 0.403915 0.012857 0.600083 1 2.33789e-08 1 2.33789e-08 0
1231 1 5.298 24.724 12.362 -4.44936 67393.3 176075 169373 -54621.1 -62161.1 -25841.7 12 11.0154 0.190941 0.574524 0.403915 0.012857 0.600083 1 2.33789e-08 1 2.33789e-08 0
1232 1 3.532 26.49 12.362 -4.44936 192299 129356 165769 -21215.8 14629.8 47874.1 12 11.0154 0.190941 0.574524 0.403915 0.012857 0.600083 1 2.33789e-08 1 2.33789e-08 0
1233 1 7.064 24.724 10.596 -4.44936 146934 192484 197178 18069.7 9118.74 -3178.02 12 11.0154 0.190941 0.574524 0.403915 0.012857 0.600083 1 2.86331e-08 1 2.86331e-08 0
1234 1 8.83 26.49 10.596 -4.44936 182348 188304 198538 13122 -2003.79 1600 12 11.0154 0.190941 0.574524 0.403915 0.012857 0.600083 1 2.33789e-08 1 2.33789e-08 0
1235 1 8.83 24.724 12.362 -4.44936 155007 191419 191963 -17952.7 17277.3 7085.69 12 11.0154 0.190941 0.574524 0.403915 0.012857 0.600083 1 2.86331e-08 1 2.86331e-08 0
1236 1 7.064 26.49 12.362 -4.44936 193270 198774 191019 -213.333 -6541.17 -253.187 12 11.0154 0.190941 0.574524 0.403915 0.012857 0.600083 1 2.33789e-08 1 2.33789e-08 0
1237 1 10.596 24.724 10.596 -4.44936 197846 126845 186863 8205.47 3340.01 -29281.7 12 11.0154 0.190941 0.574524 0.403915 0.012857 0.600083 1 2.33789e-08 1 2.33789e-08 0
1238 1 12.362 26.49 10.596 -4.44936 182974 197676 194026 -4181.82 8670.95 2293.76 12 11.0154 0.190941 0.574524 0.403915 0.012857 0.600083 1 1.65314e-08 1 1.65314e-08 0
1239 1 12.362 24.724 12.362 -4.44936 85906.3 166484 145294 60379.1 -77701.3 41563.7 12 11.0154 0.190941 0.574524 0.403915 0.012857 0.600083 1 1.16894e-08 1 1.16894e-08 0
1240 1 10.596 26.49 12.362 -4.44936 192257 183776 52900.5 -9894.72 30851.3 46787.5 12 11.0154 0.190941 0.574524 0.403915 0.012857 0.600083 1 2.33789e-08 1 2.33789e-08 0
1241 1 14.128 24.724 10.596 -4.44936 198768 198527 2321.66 -59.2922 1647.09 7072.2 12 11.0154 0.190941 0.574524 0.403915 0.012857 0.600083 1 1.65314e-08 1 1.65314e-08 0
1242 1 15.894 26.49 10.596 -4.44936 198782 197770 193037 13.3431 31.7938 -2411.03 12 11.0154 0.190941 0.574524 0.403915 0.012857 0.600083 1 2.33789e-08 1 2.33789e-08 0
1243 1 15.894 24.724 12.362 -4.44936 150611 196714 192263 9981.88 -17720.3 3671.95 12 11.0154 0.190941 0.574524 0.403915 0.012857 0.600083 1 2.86331e-08 1 2.86331e-08 0
1244 1 14.128 26.49 12.362 -4.44936 173152 133808 155549 40807.5 33287.3 -53000.1 12 11.0154 0.190941 0.574524 0.403915 0.012857 0.600083 1 2.33789e-08 1 2.33789e-08 0
1245 1 17.66 24.724 10.596 -4.44936 197198 -82959.5 53302.2 -21126.1 -15180.8 -202454 12 11.0154 0.190941 0.574524 0.403915 0.012857 0.600083 1 2.61384e-08 1 2.61384e-08 0
1246 1 19.426 26.49 10.596 -4.44936 55839.1 174504 198238 -58909.6 -8816.49 -3633.45 12 11.0154 0.190941 0.574524 0.403915 0.012857 0.600083 1 1.16894e-08 1 1.16894e-08 0
1247 1 19.426 24.724 12.362 -4.44936 166335 189074 177224 -17747.9 -26447.7 -14466.6 12 11.0154 0.190941 0.574524 0.403915 0.012857 0.600083 1 2.86331e-08 1 2.86331e-08 0
1248 1 17.66 26.49 12.362 -4.44936 80174 180191 186329 46958.2 38432.3 -15215.8 12 11.0154 0.190941 0.574524 0.403915 0.012857 0.600083 1 2.33789e-08 1 2.33789e-08 0
1249 1 21.192 24.724 10.596 -4.44936 190367 93619.7 194751 -29747.9 5823.82 20587.9 12 11.0154 0.190941 0.574524 0.403915 0.012857 0.600083 1 1.65314e-08 1 1.65314e-08 0
1250 1 22.958 26.49 10.596 -4.44936 138434 187437 146372 26166.2 -56239.1 24384.8 12 11.0154 0.190941 0.574524 0.403915 0.012857 0.600083 1 1.16894e-08 1 1.16894e-08 0
1251 1 22.958 24.724 12.362 -4.44936 183343 198780 198156 173.718 3109.71 -34.9904 12 11.0154 0.190941 0.574524 0.403915 0.012857 0.600083 1 1.65314e-08 1 1.65314e-08 0
1252 1 21.192 26.49 12.362 -4.44936 198781 186226 151185 -106.748 -207.834 -24446.9 12 11.0154 0.190941 0.574524 0.403915 0.012857 0.600083 1 1.65314e-08 1 1.65314e-08 0
1253 1 24.724 24.724 10.596 -4.44936 139113 198701 197390 2200.6 9114.96 -336.159 12 11.0154 0.190941 0.574524 0.403915 0.012857 0.600083 1 2.33789e-08 1 2.33789e-08 0
1254 1 26.49 26.49 10.596 -4.44936 197856 198213 153602 -725.774 -6466.51 -5070.78 12 11.0154 0.190941 0.574524 0.403915 0.012857 0.600083 1 2.33789e-08 1 2.33789e-08 0
1255 1 26.49 24.724 12.362 -4.44936 197927 132268 150518 -7540.15 -6422.95 -56658.7 12 11.0154 0.190941 0.574524 0.403915 0.012857 0.600083 1 2.86331e-08 1 2.86331e-08 0
1256 1 24.724 26.49 12.362 -4.44936 195853 198595 198069 -740.22 1444.81 365.114 12 11.0154 0.190941 0.574524 0.403915 0.012857 0.600083 1 2.86331e-08 1 2.86331e-08 0
1257 1 28.256 24.724 10.596 -4.44936 103273 136472 116759 -77143.7 -88509.2 -71490 12 11.0154 0.190941 0.574524 0.403915 0.012857 0.600083 1 2.86331e-08 1 2.86331e-08 0
1258 1 30.022 26.49 10.596 -4.44936 174733 179531 -54714.9 -21516.3 -78078.7 -69856.8 12 11.0154 0.190941 0.574524 0.403915 0.012857 0.600083 1 1.16894e-08 1 1.16894e-08 0
1259 1 30.022 24.724 12.362 -4.44936 131523 146463 194010 59320.2 -17914.6 15800.2 12 11.0154 0.190941 0.574524 0.403915 0.012857 0.600083 1 2.02467e-08 1 2.02467e-08 0
1260 1 28.256 26.49 12.362 -4.44936 -20500.3 171836 198573 -76868.7 6776.65 2375.53 12 11.0154 0.190941 0.574524 0.403915 0.012857 0.600083 1 1.16894e-08 1 1.16894e-08 0
1261 1 0 28.256 10.596 -4.44936 198100 138887 161277 -6390.53 -5056.95 -47396.1 12 11.0154 0.190941 0.574524 0.403915 0.012857 0.600083 1 0 1 0 1.26218e-29
1262 1 1.766 30.022 10.596 -4.44936 196242 153431 56648.2 10731.8 18998.8 -80286.5 12 11.0154 0.190941 0.574524 0.403915 0.012857 0.600083 1 2.33789e-08 1 2.33789e-08 0
1263 1 1.766 28.256 12.362 -4.44936 197969 187453 69658.1 3034 -10242.8 38247.5 12 11.0154 0.190941 0.574524 0.403915 0.012857 0.600083 1 0 1 0 0
1264 1 0 30.022 12.362 -4.44936 194939 174345 197602 -9690.25 -2129.77 -5370.85 12 11.0154 0.190941 0.574524 0.403915 0.012857 0.600083 1 2.33789e-08 1 2.33789e-08 1.26218e-29
1265 1 3.532 28.256 10.596 -4.44936 195909 196915 197894 -2315.96 1597.72 1287.83 12 11.0154 0.190941 0.574524 0.403915 0.012857 0.600083 1 0 1 0 0
1266 1 5.298 30.022 10.596 -4.44936 39451.6 180593 198546 53833 6127.8 -2070.4 12 11.0154 0.190941 0.574524 0.403915 0.012857 0.600083 1 2.33789e-08 1 2.33789e-08 0
1267 1 5.298 28.256 12.362 -4.44936 195694 39676 192461 -22163.8 4417.5 31711.6 12 11.0154 0.190941 0.574524 0.403915 0.012857 0.600083 1 1.16894e-08 1 1.16894e-08 0
1268 1 3.532 30.022 12.362 -4.44936 60538.5 198339 169346 7825.06 -63790.8 3610.78 12 11.0154 0.190941 0.574524 0.403915 0.012857 0.600083 1 1.65314e-08 1 1.65314e-08 0
1269 1 7.064 28.256 10.596 -4.44936 165363 184743 -102933 21660.5 -100415 65083.3 12 11.0154 0.190941 0.574524 0.403915 0.012857 0.600083 1 1.65314e-08 1 1.65314e-08 0
1270 1 8.83 30.022 10.596 -4.44936 -89611.9 197932 198660 15656 -5925.03 321.652 12 11.0154 0.190941 0.574524 0.403915 0.012857 0.600083 1 2.33789e-08 1 2.33789e-08 0
1271 1 8.83 28.256 12.362 -4.44936 192939 77764 135976 26592.2 -19157.1 87181.6 12 11.0154 0.190941 0.574524 0.403915 0.012857 0.600083 1 1.16894e-08 1 1.16894e-08 0
1272 1 7.064 30.022 12.362 -4.44936 173242 198490 140665 -2728.52 -38526.7 -4115.97 12 11.0154 0.190941 0.574524 0.403915 0.012857 0.600083 1 2.33789e-08 1 2.33789e-08 0
1273 1 10.596 28.256 10.596 -4.44936 118530 138431 198705 -69593.5 2483.73 2153.86 12 11.0154 0.190941 0.574524 0.403915 0.012857 0.600083 1 1.16894e-08 1 1.16894e-08 0
1274 1 12.362 30.022 10.596 -4.44936 161935 131230 198653 -49891 -2180.26 -2952.08 12 11.0154 0.190941 0.574524 0.403915 0.012857 0.600083 1 2.33789e-08 1 2.33789e-08 0
1275 1 12.362 28.256 12.362 -4.44936 43253.2 190042 160884 -36868.8 76774 18199.6 12 11.0154 0.190941 0.574524 0.403915 0.012857 0.600083 1 1.16894e-08 1 1.16894e-08 0
1276 1 10.596 30.022 12.362 -4.44936 176120 163423 163968 -28307.4 28088.4 35085.3 12 11.0154 0.190941 0.574524 0.403915 0.012857 0.600083 1 2.33789e-08 1 2.33789e-08 0
1277 1 14.128 28.256 10.596 -4.44936 181050 114060 -30053.5 -38759.2 63700 139238 12 11.0154 0.190941 0.574524 0.403915 0.012857 0.600083 1 0 1 0 0
1278 1 15.894 30.022 10.596 -4.44936 180307 192939 169453 10389.8 -23277.7 13090.8 12 11.0154 0.190941 0.574524 0.403915 0.012857 0.600083 1 2.33789e-08 1 2.33789e-08 0
1279 1 15.894 28.256 12.362 -4.44936 182939 198742 184159 796.57 15220.4 -765.278 12 11.0154 0.190941 0.574524 0.403915 0.012857 0.600083 1 0 1 0 0
1280 1 14.128 30.022 12.362 -4.44936 185356 155312 145020 24158.6 26866.8 -48343 12 11.0154 0.190941 0.574524 0.403915 0.012857 0.600083 1 1.65314e-08 1 1.65314e-08 0
1281 1 17.66 28.256 10.596 -4.44936 197036 190619 198596 3775.06 569.329 -1231.1 12 11.0154 0.190941 0.574524 0.403915 0.012857 0.600083 1 0 1 0 0
1282 1 19.426 30.022 10.596 -4.44936 198038 185769 189453 -3112.11 -2635.05 -11018.3 12 11.0154 0.190941 0.574524 0.403915 0.012857 0.600083 1 2.02467e-08 1 2.02467e-08 0
1283 1 19.426 28.256 12.362 -4.44936 133186 175312 189300 -39236.8 -24939.4 -14917.6 12 11.0154 0.190941 0.574524 0.403915 0.012857 0.600083 1 1.16894e-08 1 1.16894e-08 0
1284 1 17.66 30.022 12.362 -4.44936 132873 155371 150614 -53490.1 -56344.6 -45727.7 12 11.0154 0.190941 0.574524 0.403915 0.012857 0.600083 1 2.02467e-08 1 2.02467e-08 0
1285 1 21.192 28.256 10.596 -4.44936 196993 160244 197926 8302.04 1237.52 -5744.51 12 11.0154 0.190941 0.574524 0.403915 0.012857 0.600083 1 1.65314e-08 1 1.65314e-08 0
1286 1 22.958 30.022 10.596 -4.44936 163676 179672 178751 -25901.6 -26517.9 -19565 12 11.0154 0.190941 0.574524 0.403915 0.012857 0.600083 1 1.65314e-08 1 1.65314e-08 0
1287 1 22.958 28.256 12.362 -4.44936 195445 125241 176749 15664.9 8574.36 -40253.4 12 11.0154 0.190941 0.574524 0.403915 0.012857 0.600083 1 0 1 0 0
1288 1 21.192 30.022 12.362 -4.44936 191784 190844 137826 7453.17 -20653.2 21997.3 12 11.0154 0.190941 0.574524 0.403915 0.012857 0.600083 1 1.16894e-08 1 1.16894e-08 0
1289 1 24.724 28.256 10.596 -4.44936 146644 160132 198711 44890.4 -1929.48 1661.25 12 11.0154 0.190941 0.574524 0.403915 0.012857 0.600083 1 1.65314e-08 1 1.65314e-08 0
1290 1 26.49 30.022 10.596 -4.44936 189874 178907 97803.8 13305.9 29991.7 -44799.3 12 11.0154 0.190941 0.574524 0.403915 0.012857 0.600083 1 1.16894e-08 1 1.16894e-08 0
1291 1 26.49 28.256 12.362 -4.44936 179016 129482 138653 -37010.7 34474.9 64551.9 12 11.0154 0.190941 0.574524 0.403915 0.012857 0.600083 1 2.02467e-08 1 2.02467e-08 0
1292 1 24.724 30.022 12.362 -4.44936 198663 198143 166467 -275.284 1957.37 4544.74 12 11.0154 0.190941 0.574524 0.403915 0.012857 0.600083 1 1.65314e-08 1 1.65314e-08 0
1293 1 28.256 28.256 10.596 -4.44936 167079 192829 114323 -13737.9 51745.5 22423 12 11.0154 0.190941 0.574524 0.403915 0.012857 0.600083 1 1.65314e-08 1 1.65314e-08 0
1294 1 30.022 30.022 10.596 -4.44936 194884 128770 96462.8 -16520.9 19972.1 84638.1 12 11.0154 0.190941 0.574524 0.403915 0.012857 0.600083 1 0 1 0 0
1295 1 30.022 28.256 12.362 -4.44936 185834 197802 195151 3561.65 6856.44 -1886.03 12 11.0154 0.190941 0.574524 0.403915 0.012857 0.600083 1 1.16894e-08 1 1.16894e-08 0
1296 1 28.256 30.022 12.362 -4.44936 198474 183402 171116 -2177.91 -2920.99 -20627.7 12 11.0154 0.190941 0.574524 0.403915 0.012857 0.600083 1 1.16894e-08 1 1.16894e-08 0
1297 1 0 0 14.128 -4.44936 195397 79011.7 159473 -20134.4 -11534.8 -68615.3 12 11.0154 0.190941 0.574524 0.403915 0.012857 0.600083 1 1.16894e-08 1 1.16894e-08 2.52435e-29
1298 1 1.766 1.766 14.128 -4.44936 184677 195530 148782 6773 26556.1 -12752.2 12 11.0154 0.190941 0.574524 0.403915 0.012857 0.600083 1 1.65314e-08 1 1.65314e-08 0
1299 1 1.766 0 15.894 -4.44936 80347.1 120288 120835 -96418.1 -96081.4 -78220.1 12 11.0154 0.190941 0.574524 0.403915 0.012857 0.600083 1 2.02467e-08 1 2.02467e-08 1.26218e-29
1300 1 0 1.766 15.894 -4.44936 195455 18881.7 93333.2 24462.9 -18728.9 137733 12 11.0154 0.190941 0.574524 0.403915 0.012857 0.600083 1 1.65314e-08 1 1.65314e-08 1.26218e-29
1301 1 3.532 0 14.128 -4.44936 193820 151917 -42635.9 -15249.5 34611.1 106368 12 11.0154 0.190941 0.574524 0.403915 0.012857 0.600083 1 1.65314e-08 1 1.65314e-08 1.26218e-29
1302 1 5.298 1.766 14.128 -4.44936 198336 149842 197693 -4671.88 -696.797 -7299.19 12 11.0154 0.190941 0.574524 0.403915 0.012857 0.600083 1 1.65314e-08 1 1.65314e-08 0
1303 1 5.298 0 15.894 -4.44936 192681 176017 196584 -11784.9 -3661.45 -7072.96 12 11.0154 0.190941 0.574524 0.403915 0.012857 0.600083 1 1.65314e-08 1 1.65314e-08 1.26218e-29
1304 1 3.532 1.766 15.894 -4.44936 3494.72 138673 161657 -108344 -85147 -47239.2 12 11.0154 0.190941 0.574524 0.403915 0.012857 0.600083 1 1.65314e-08 1 1.65314e-08 0
1305 1 7.064 0 14.128 -4.44936 186718 169252 180130 -18874.5 15000.4 23469 12 11.0154 0.190941 0.574524 0.403915 0.012857 0.600083 1 1.65314e-08 1 1.65314e-08 1.26218e-29
1306 1 8.83 1.766 14.128 -4.44936 138767 185033 172165 -28724.8 -39967.3 -19129.6 12 11.0154 0.190941 0.574524 0.403915 0.012857 0.600083 1 1.65314e-08 1 1.65314e-08 0
1307 1 8.83 0 15.894 -4.44936 187291 172120 152039 17503.4 -23175.8 35302.2 12 11.0154 0.190941 0.574524 0.403915 0.012857 0.600083 1 2.61384e-08 1 2.61384e-08 1.26218e-29
1308 1 7.064 1.766 15.894 -4.44936 174085 165453 189232 28690.4 15357.8 -17841 12 11.0154 0.190941 0.574524 0.403915 0.012857 0.600083 1 1.65314e-08 1 1.65314e-08 0
1309 1 10.596 0 14.128 -4.44936 195256 75683.8 29734.4 20832.8 24413.2 -144255 12 11.0154 0.190941 0.574524 0.403915 0.012857 0.600083 1 1.65314e-08 1 1.65314e-08 1.26218e-29
1310 1 12.362 1.766 14.128 -4.44936 97320.8 135431 195945 80172.5 16967 -13407 12 11.0154 0.190941 0.574524 0.403915 0.012857 0.600083 1 1.65314e-08 1 1.65314e-08 0
1311 1 12.362 0 15.894 -4.44936 95387.9 134206 148650 81711.4 71995.7 -56897.6 12 11.0154 0.190941 0.574524 0.403915 0.012857 0.600083 1 2.33789e-08 1 2.33789e-08 1.26218e-29
1312 1 10.596 1.766 15.894 -4.44936 8492.17 144945 188574 -101216 44073.8 23443 12 11.0154 0.190941 0.574524 0.403915 0.012857 0.600083 1 1.65314e-08 1 1.65314e-08 0
1313 1 14.128 0 14.128 -4.44936 191490 159716 198782 -16878.5 -34.2296 -79.2264 12 11.0154 0.190941 0.574524 0.403915 0.012857 0.600083 1 1.65314e-08 1 1.65314e-08 1.26218e-29
1314 1 15.894 1.766 14.128 -4.44936 198732 132644 197375 1821.42 265.676 -9647.01 12 11.0154 0.190941 0.574524 0.403915 0.012857 0.600083 1 1.65314e-08 1 1.65314e-08 0
1315 1 15.894 0 15.894 -4.44936 198090 8448.77 182077 11473.8 3399.13 -56386.3 12 11.0154 0.190941 0.574524 0.403915 0.012857 0.600083 1 2.33789e-08 1 2.33789e-08 1.26218e-29
1316 1 14.128 1.766 15.894 -4.44936 189212 177185 198756 14376.3 502.376 -754.696 12 11.0154 0.190941 0.574524 0.403915 0.012857 0.600083 1 1.65314e-08 1 1.65314e-08 0
1317 1 17.66 0 14.128 -4.44936 179600 198772 186484 -432.916 -15358.9 -346.64 12 11.0154 0.190941 0.574524 0.403915 0.012857 0.600083 1 2.61384e-08 1 2.61384e-08 1.26218e-29
1318 1 19.426 1.766 14.128 -4.44936 -92784.1 120841 197320 -150748 -20642.5 -10672.8 12 11.0154 0.190941 0.574524 0.403915 0.012857 0.600083 1 1.65314e-08 1 1.65314e-08 0
1319 1 19.426 0 15.894 -4.44936 180713 126234 193052 36206.2 -10175.5 20389.1 12 11.0154 0.190941 0.574524 0.403915 0.012857 0.600083 1 2.61384e-08 1 2.61384e-08 1.26218e-29
1320 1 17.66 1.766 15.894 -4.44936 173765 194237 182346 -10663.3 20277.7 8643.04 12 11.0154 0.190941 0.574524 0.403915 0.012857 0.600083 1 2.02467e-08 1 2.02467e-08 0
1321 1 21.192 0 14.128 -4.44936 153372 191905 168549 17671.2 -37052.4 14418.9 12 11.0154 0.190941 0.574524 0.403915 0.012857 0.600083 1 1.16894e-08 1 1.16894e-08 1.26218e-29
1322 1 22.958 1.766 14.128 -4.44936 176293 196749 198782 6760.96 3.0284 -0.910442 12 11.0154 0.190941 0.574524 0.403915 0.012857 0.600083 1 1.65314e-08 1 1.65314e-08 0
1323 1 22.958 0 15.894 -4.44936 155639 171784 171644 -34128.6 -34217.4 -27068 12 11.0154 0.190941 0.574524 0.403915 0.012857 0.600083 1 1.65314e-08 1 1.65314e-08 1.26218e-29
1324 1 21.192 1.766 15.894 -4.44936 195653 4665.71 -36216.7 -24643.4 27114.6 213582 12 11.0154 0.190941 0.574524 0.403915 0.012857 0.600083 1 0 1 0 0
1325 1 24.724 0 14.128 -4.44936 197079 193493 157452 -3001.35 -8389.78 -14785.2 12 11.0154 0.190941 0.574524 0.403915 0.012857 0.600083 1 2.33789e-08 1 2.33789e-08 1.26218e-29
1326 1 26.49 1.766 14.128 -4.44936 198676 188032 194408 1066.64 680.362 -6857.17 12 11.0154 0.190941 0.574524 0.403915 0.012857 0.600083 1 2.33789e-08 1 2.33789e-08 0
1327 1 26.49 0 15.894 -4.44936 177917 195814 170812 7869.51 24157.5 -9111.54 12 11.0154 0.190941 0.574524 0.403915 0.012857 0.600083 1 1.65314e-08 1 1.65314e-08 1.26218e-29
1328 1 24.724 1.766 15.894 -4.44936 160610 181851 138535 -25421.8 -47955.8 -31937.7 12 11.0154 0.190941 0.574524 0.403915 0.012857 0.600083 1 1.65314e-08 1 1.65314e-08 0
1329 1 28.256 0 14.128 -4.44936 197868 166750 190526 5410.69 -2746.87 16261.8 12 11.0154 0.190941 0.574524 0.403915 0.012857 0.600083 1 0 1 0 1.26218e-29
1330 1 30.022 1.766 14.128 -4.44936 197984 115566 147566 -8148.21 6392.38 65284.3 12 11.0154 0.190941 0.574524 0.403915 0.012857 0.600083 1 1.65314e-08 1 1.65314e-08 0
1331 1 30.022 0 15.894 -4.44936 186135 198412 196159 2161.69 5759.33 -984.439 12 11.0154 0.190941 0.574524 0.403915 0.012857 0.600083 1 2.86331e-08 1 2.86331e-08 1.26218e-29
1332 1 28.256 1.766 15.894 -4.44936 152181 195387 196066 12577.8 11250.7 -3036.59 12 11.0154 0.190941 0.574524 0.403915 0.012857 0.600083 1 0 1 0 0
1333 1 0 3.532 14.128 -4.44936 91590.9 171070 79143.3 -54501.6 -113244 -57579.2 12 11.0154 0.190941 0.574524 0.403915 0.012857 0.600083 1 1.65314e-08 1 1.65314e-08 1.26218e-29
1334 1 1.766 5.298 14.128 -4.44936 165138 125157 194117 49769.8 12527.4 -18531.8 12 11.0154 0.190941 0.574524 0.403915 0.012857 0.600083 1 1.65314e-08 1 1.65314e-08 0
1335 1 1.766 3.532 15.894 -4.44936 103767 197011 178205 12970.9 -44216.4 6036.17 12 11.0154 0.190941 0.574524 0.403915 0.012857 0.600083 1 1.65314e-08 1 1.65314e-08 0
1336 1 0 5.298 15.894 -4.44936 197123 198661 187013 -447.357 -4419.01 -1191.4 12 11.0154 0.190941 0.574524 0.403915 0.012857 0.600083 1 1.65314e-08 1 1.65314e-08 1.26218e-29
1337 1 3.532 3.532 14.128 -4.44936 138150 127400 198757 65787.7 1219.55 -1323.26 12 11.0154 0.190941 0.574524 0.403915 0.012857 0.600083 1 1.65314e-08 1 1.65314e-08 0
1338 1 5.298 5.298 14.128 -4.44936 197727 168954 180365 -5608.74 -4407.2 -23438.1 12 11.0154 0.190941 0.574524 0.403915 0.012857 0.600083 1 1.65314e-08 1 1.65314e-08 0
1339 1 5.298 3.532 15.894 -4.44936 188497 160759 198219 19775.7 2406.34 -4626.72 12 11.0154 0.190941 0.574524 0.403915 0.012857 0.600083 1 1.65314e-08 1 1.65314e-08 0
1340 1 3.532 5.298 15.894 -4.44936 65494 188713 195673 36634 -20356.6 5594.99 12 11.0154 0.190941 0.574524 0.403915 0.012857 0.600083 1 1.65314e-08 1 1.65314e-08 0
1341 1 7.064 3.532 14.128 -4.44936 154685 186118 198136 -23630.9 -5335.9 -2859.44 12 11.0154 0.190941 0.574524 0.403915 0.012857 0.600083 1 1.65314e-08 1 1.65314e-08 0
1342 1 8.83 5.298 14.128 -4.44936 193087 198755 181891 -388.773 -9808.02 -669.533 12 11.0154 0.190941 0.574524 0.403915 0.012857 0.600083 1 1.65314e-08 1 1.65314e-08 0
1343 1 8.83 3.532 15.894 -4.44936 152486 174529 -14173.9 -33508.7 -99292.9 -71867 12 11.0154 0.190941 0.574524 0.403915 0.012857 0.600083 1 1.65314e-08 1 1.65314e-08 0
1344 1 7.064 5.298 15.894 -4.44936 65309.6 191574 192537 -31018.1 -28871.5 -6709.55 12 11.0154 0.190941 0.574524 0.403915 0.012857 0.600083 1 1.65314e-08 1 1.65314e-08 0
1345 1 10.596 3.532 14.128 -4.44936 197806 190927 197479 -2769.33 1127.74 3198.9 12 11.0154 0.190941 0.574524 0.403915 0.012857 0.600083 1 1.65314e-08 1 1.65314e-08 0
1346 1 12.362 5.298 14.128 -4.44936 98309.6 189477 195213 -30575.9 18935.4 5762.44 12 11.0154 0.190941 0.574524 0.403915 0.012857 0.600083 1 1.65314e-08 1 1.65314e-08 0
1347 1 12.362 3.532 15.894 -4.44936 197632 197998 198753 -949.906 -182.473 -150.673 12 11.0154 0.190941 0.574524 0.403915 0.012857 0.600083 1 1.65314e-08 1 1.65314e-08 0
1348 1 10.596 5.298 15.894 -4.44936 168984 103558 198727 53267.9 -1277.42 2283.57 12 11.0154 0.190941 0.574524 0.403915 0.012857 0.600083 1 1.65314e-08 1 1.65314e-08 0
1349 1 14.128 3.532 14.128 -4.44936 146818 161778 190858 -43850.5 -20291.8 -17123.6 12 11.0154 0.190941 0.574524 0.403915 0.012857 0.600083 1 1.65314e-08 1 1.65314e-08 0
1350 1 15.894 5.298 14.128 -4.44936 197142 152322 175302 -8729.06 6205.45 33028.1 12 11.0154 0.190941 0.574524 0.403915 0.012857 0.600083 1 1.65314e-08 1 1.65314e-08 0
1351 1 15.894 3.532 15.894 -4.44936 26917.2 15058.6 197420 -177695 -15297 -15816 12 11.0154 0.190941 0.574524 0.403915 0.012857 0.600083 1 1.65314e-08 1 1.65314e-08 0
1352 1 14.128 5.298 15.894 -4.44936 195099 192017 191157 4991.47 5299.12 -7182.04 12 11.0154 0.190941 0.574524 0.403915 0.012857 0.600083 1 1.65314e-08 1 1.65314e-08 0
1353 1 17.66 3.532 14.128 -4.44936 194981 193334 187360 4550.45 6589.11 -7888.23 12 11.0154 0.190941 0.574524 0.403915 0.012857 0.600083 1 2.61384e-08 1 2.61384e-08 0
1354 1 19.426 5.298 14.128 -4.44936 197887 198782 195658 -1.84861 -1672.18 -3.45383 12 11.0154 0.190941 0.574524 0.403915 0.012857 0.600083 1 1.65314e-08 1 1.65314e-08 0
1355 1 19.426 3.532 15.894 -4.44936 197645 195775 97165.9 1849.23 -10750.2 17479.7 12 11.0154 0.190941 0.574524 0.403915 0.012857 0.600083 1 1.65314e-08 1 1.65314e-08 0
1356 1 17.66 5.298 15.894 -4.44936 126708 198070 150553 -7163.64 58957.9 5860.03 12 11.0154 0.190941 0.574524 0.403915 0.012857 0.600083 1 1.65314e-08 1 1.65314e-08 0
1357 1 21.192 3.532 14.128 -4.44936 127632 175988 159046 -40271.3 53171.8 30095.4 12 11.0154 0.190941 0.574524 0.403915 0.012857 0.600083 1 1.16894e-08 1 1.16894e-08 0
1358 1 22.958 5.298 14.128 -4.44936 198780 189920 174781 124.505 -204.898 14583.8 12 11.0154 0.190941 0.574524 0.403915 0.012857 0.600083 1 1.16894e-08 1 1.16894e-08 0
1359 1 22.958 3.532 15.894 -4.44936 198481 198589 164060 -240.826 3232.87 2586.56 12 11.0154 0.190941 0.574524 0.403915 0.012857 0.600083 1 1.65314e-08 1 1.65314e-08 0
1360 1 21.192 5.298 15.894 -4.44936 171599 193060 198765 12471.9 -669.56 307.203 12 11.0154 0.190941 0.574524 0.403915 0.012857 0.600083 1 1.16894e-08 1 1.16894e-08 0
1361 1 24.724 3.532 14.128 -4.44936 196197 64776.4 63397.8 -18612.8 -18708.2 -134693 12 11.0154 0.190941 0.574524 0.403915 0.012857 0.600083 1 2.33789e-08 1 2.33789e-08 0
1362 1 26.49 5.298 14.128 -4.44936 190527 197706 146056 -2980.23 -20862.4 -7532.03 12 11.0154 0.190941 0.574524 0.403915 0.012857 0.600083 1 1.65314e-08 1 1.65314e-08 0
1363 1 26.49 3.532 15.894 -4.44936 136959 198285 140954 -5544.75 59792.4 5362.61 12 11.0154 0.190941 0.574524 0.403915 0.012857 0.600083 1 2.33789e-08 1 2.33789e-08 0
1364 1 24.724 5.298 15.894 -4.44936 76557.2 148864 189712 -78110.6 -33295 -21277.9 12 11.0154 0.190941 0.574524 0.403915 0.012857 0.600083 1 2.33789e-08 1 2.33789e-08 0
1365 1 28.256 3.532 14.128 -4.44936 198019 61560.7 195926 -10234.8 -1476.45 -19795.2 12 11.0154 0.190941 0.574524 0.403915 0.012857 0.600083 1 1.16894e-08 1 1.16894e-08 0
1366 1 30.022 5.298 14.128 -4.44936 161498 123992 138382 52805.7 47454.7 -67211 12 11.0154 0.190941 0.574524 0.403915 0.012857 0.600083 1 2.33789e-08 1 2.33789e-08 0
1367 1 30.022 3.532 15.894 -4.44936 178373 198485 194674 -2460.23 -9156.88 -1103.81 12 11.0154 0.190941 0.574524 0.403915 0.012857 0.600083 1 0 1 0 0
1368 1 28.256 5.298 15.894 -4.44936 198755 189973 167134 -486.789 -922.703 -16696.4 12 11.0154 0.190941 0.574524 0.403915 0.012857 0.600083 1 0 1 0 0
1369 1 0 7.064 14.128 -4.44936 179674 147795 194821 -31213.3 -8699.74 -14211 12 11.0154 0.190941 0.574524 0.403915 0.012857 0.600083 1 1.65314e-08 1 1.65314e-08 1.26218e-29
1370 1 1.766 8.83 14.128 -4.44936 194577 195180 188130 3891.53 6692.52 -6193.71 12 11.0154 0.190941 0.574524 0.403915 0.012857 0.600083 1 1.65314e-08 1 1.65314e-08 0
1371 1 1.766 7.064 15.894 -4.44936 104077 136937 197178 76531.3 -12323 9958.3 12 11.0154 0.190941 0.574524 0.403915 0.012857 0.600083 1 1.65314e-08 1 1.65314e-08 0
1372 1 0 8.83 15.894 -4.44936 196904 153139 179851 -9257.95 -5962.39 -29395.2 12 11.0154 0.190941 0.574524 0.403915 0.012857 0.600083 1 1.65314e-08 1 1.65314e-08 1.26218e-29
1373 1 3.532 7.064 14.128 -4.44936 193059 171211 182166 12561.6 -9751.79 21404.1 12 11.0154 0.190941 0.574524 0.403915 0.012857 0.600083 1 1.65314e-08 1 1.65314e-08 0
1374 1 5.298 8.83 14.128 -4.44936 115939 116484 196414 -82570.1 14004.7 13958.5 12 11.0154 0.190941 0.574524 0.403915 0.012857 0.600083 1 1.65314e-08 1 1.65314e-08 0
1375 1 5.298 7.064 15.894 -4.44936 198688 174781 197763 -1502.76 -309.592 -4944.6 12 11.0154 0.190941 0.574524 0.403915 0.012857 0.600083 1 1.65314e-08 1 1.65314e-08 0
1376 1 3.532 8.83 15.894 -4.44936 196074 198742 198737 -330.122 -347.718 -42.385 12 11.0154 0.190941 0.574524 0.403915 0.012857 0.600083 1 1.65314e-08 1 1.65314e-08 0
1377 1 7.064 7.064 14.128 -4.44936 193542 163126 180952 -13668.7 -9665.77 -25213.7 12 11.0154 0.190941 0.574524 0.403915 0.012857 0.600083 1 1.65314e-08 1 1.65314e-08 0
1378 1 8.83 8.83 14.128 -4.44936 193945 196832 194410 -3071.43 -4598.55 -2920.19 12 11.0154 0.190941 0.574524 0.403915 0.012857 0.600083 1 1.65314e-08 1 1.65314e-08 0
1379 1 8.83 7.064 15.894 -4.44936 135027 197630 56161.2 -8570.66 -95355.8 -12818.9 12 11.0154 0.190941 0.574524 0.403915 0.012857 0.600083 1 1.65314e-08 1 1.65314e-08 0
1380 1 7.064 8.83 15.894 -4.44936 124603 177080 116850 40123 77959.5 -42167.7 12 11.0154 0.190941 0.574524 0.403915 0.012857 0.600083 1 1.65314e-08 1 1.65314e-08 0
1381 1 10.596 7.064 14.128 -4.44936 198168 169803 120594 -4218.06 -6928.57 -47600.4 12 11.0154 0.190941 0.574524 0.403915 0.012857 0.600083 1 1.65314e-08 1 1.65314e-08 0
1382 1 12.362 8.83 14.128 -4.44936 198672 198780 188703 -13.6964 1054.3 130.933 12 11.0154 0.190941 0.574524 0.403915 0.012857 0.600083 1 1.65314e-08 1 1.65314e-08 0
1383 1 12.362 7.064 15.894 -4.44936 165452 135629 184472 -45879.1 21839.5 30062.2 12 11.0154 0.190941 0.574524 0.403915 0.012857 0.600083 1 1.65314e-08 1 1.65314e-08 0
1384 1 10.596 8.83 15.894 -4.44936 170218 152011 75699.1 -36551.2 59293.9 75873.3 12 11.0154 0.190941 0.574524 0.403915 0.012857 0.600083 1 1.65314e-08 1 1.65314e-08 0
1385 1 14.128 7.064 14.128 -4.44936 127368 163159 94838.3 50437.9 86157.1 -60850.4 12 11.0154 0.190941 0.574524 0.403915 0.012857 0.600083 1 1.65314e-08 1 1.65314e-08 0
1386 1 15.894 8.83 14.128 -4.44936 -220966 175739 172369 -98346.7 105294 24670.4 12 11.0154 0.190941 0.574524 0.403915 0.012857 0.600083 1 1.65314e-08 1 1.65314e-08 0
1387 1 15.894 7.064 15.894 -4.44936 30900.2 186180 107906 45995.5 123517 -33840.5 12 11.0154 0.190941 0.574524 0.403915 0.012857 0.600083 1 1.65314e-08 1 1.65314e-08 0
1388 1 14.128 8.83 15.894 -4.44936 176563 197296 184979 5745.47 17512.6 -4528.5 12 11.0154 0.190941 0.574524 0.403915 0.012857 0.600083 1 1.65314e-08 1 1.65314e-08 0
1389 1 17.66 7.064 14.128 -4.44936 90895.4 197577 174842 11399.7 50821.4 -5369.96 12 11.0154 0.190941 0.574524 0.403915 0.012857 0.600083 1 2.61384e-08 1 2.61384e-08 0
1390 1 19.426 8.83 14.128 -4.44936 -4180.76 180759 140598 60481.4 -108670 32382.9 12 11.0154 0.190941 0.574524 0.403915 0.012857 0.600083 1 1.65314e-08 1 1.65314e-08 0
1391 1 19.426 7.064 15.894 -4.44936 191859 130633 194264 21720.3 -5592.81 17547.7 12 11.0154 0.190941 0.574524 0.403915 0.012857 0.600083 1 1.65314e-08 1 1.65314e-08 0
1392 1 17.66 8.83 15.894 -4.44936 135735 193819 126676 -17689.3 -67424.9 -18917.5 12 11.0154 0.190941 0.574524 0.403915 0.012857 0.600083 1 2.33789e-08 1 2.33789e-08 0
1393 1 21.192 7.064 14.128 -4.44936 -34113.5 173795 92297.4 -76285 -157479 -51582.4 12 11.0154 0.190941 0.574524 0.403915 0.012857 0.600083 1 0 1 0 0
1394 1 22.958 8.83 14.128 -4.44936 13774.9 198609 178180 5661.14 61736.9 -1889.13 12 11.0154 0.190941 0.574524 0.403915 0.012857 0.600083 1 2.33789e-08 1 2.33789e-08 0
1395 1 22.958 7.064 15.894 -4.44936 193692 133066 128563 18289.9 -18906.1 67930.4 12 11.0154 0.190941 0.574524 0.403915 0.012857 0.600083 1 2.33789e-08 1 2.33789e-08 0
1396 1 21.192 8.83 15.894 -4.44936 173363 193990 176651 11036.8 23718.1 -10298.3 12 11.0154 0.190941 0.574524 0.403915 0.012857 0.600083 1 0 1 0 0
1397 1 24.724 7.064 14.128 -4.44936 188228 182967 73137.2 -12919.4 -36414.6 -44577 12 11.0154 0.190941 0.574524 0.403915 0.012857 0.600083 1 1.65314e-08 1 1.65314e-08 0
1398 1 26.49 8.83 14.128 -4.44936 189647 182201 168805 12307.1 -16548.1 22294.7 12 11.0154 0.190941 0.574524 0.403915 0.012857 0.600083 1 2.33789e-08 1 2.33789e-08 0
1399 1 26.49 7.064 15.894 -4.44936 197924 175663 171621 -4452.36 4825.94 25058.5 12 11.0154 0.190941 0.574524 0.403915 0.012857 0.600083 1 0 1 0 0
1400 1 24.724 8.83 15.894 -4.44936 59185.8 170632 30966.3 -62686.3 153057 68730.9 12 11.0154 0.190941 0.574524 0.403915 0.012857 0.600083 1 2.33789e-08 1 2.33789e-08 0
1401 1 28.256 7.064 14.128 -4.44936 195253 155925 -89967.8 -12297.1 -31919.4 -111242 12 11.0154 0.190941 0.574524 0.403915 0.012857 0.600083 1 0 1 0 0
1402 1 30.022 8.83 14.128 -4.44936 90543.4 133740 196057 83904.8 -17175.2 13313.9 12 11.0154 0.190941 0.574524 0.403915 0.012857 0.600083 1 1.16894e-08 1 1.16894e-08 0
1403 1 30.022 7.064 15.894 -4.44936 93926.5 138508 71678.9 79498.5 115445 -87526.9 12 11.0154 0.190941 0.574524 0.403915 0.012857 0.600083 1 0 1 0 0
1404 1 28.256 8.83 15.894 -4.44936 165376 197369 161885 -6870.76 35108.2 7220.83 12 11.0154 0.190941 0.574524 0.403915 0.012857 0.600083 1 0 1 0 0
1405 1 0 10.596 14.128 -4.44936 96148.1 -46229.3 169790 158576 54548.4 -84281 12 11.0154 0.190941 0.574524 0.403915 0.012857 0.600083 1 2.33789e-08 1 2.33789e-08 1.26218e-29
1406 1 1.766 12.362 14.128 -4.44936 197758 139001 197196 -7824 1274.48 9737.97 12 11.0154 0.190941 0.574524 0.403915 0.012857 0.600083 1 1.65314e-08 1 1.65314e-08 0
1407 1 1.766 10.596 15.894 -4.44936 21720.2 195875 189680 22687.5 -40145.7 5144.01 12 11.0154 0.190941 0.574524 0.403915 0.012857 0.600083 1 1.65314e-08 1 1.65314e-08 0
1408 1 0 12.362 15.894 -4.44936 141820 160327 143707 -46802.3 56010.8 46020.7 12 11.0154 0.190941 0.574524 0.403915 0.012857 0.600083 1 1.65314e-08 1 1.65314e-08 1.26218e-29
1409 1 3.532 10.596 14.128 -4.44936 145932 193826 187522 -16184.6 -24394.5 -7470.54 12 11.0154 0.190941 0.574524 0.403915 0.012857 0.600083 1 1.65314e-08 1 1.65314e-08 0
1410 1 5.298 12.362 14.128 -4.44936 188964 196991 197026 4193.14 -4151.79 1773.16 12 11.0154 0.190941 0.574524 0.403915 0.012857 0.600083 1 1.65314e-08 1 1.65314e-08 0
1411 1 5.298 10.596 15.894 -4.44936 194130 197984 197031 -1926.91 2854.02 1182.1 12 11.0154 0.190941 0.574524 0.403915 0.012857 0.600083 1 1.65314e-08 1 1.65314e-08 0
1412 1 3.532 12.362 15.894 -4.44936 79132 187388 144537 -36923.3 80563.1 24861.3 12 11.0154 0.190941 0.574524 0.403915 0.012857 0.600083 1 1.65314e-08 1 1.65314e-08 0
1413 1 7.064 10.596 14.128 -4.44936 156787 178485 198707 -29195.4 1775.74 1234.53 12 11.0154 0.190941 0.574524 0.403915 0.012857 0.600083 1 1.65314e-08 1 1.65314e-08 0
1414 1 8.83 12.362 14.128 -4.44936 162235 149518 71600.4 -42431.3 -68176.6 -79154.4 12 11.0154 0.190941 0.574524 0.403915 0.012857 0.600083 1 1.65314e-08 1 1.65314e-08 0
1415 1 8.83 10.596 15.894 -4.44936 -40372 197903 114126 -14498.4 142288 8626.01 12 11.0154 0.190941 0.574524 0.403915 0.012857 0.600083 1 1.65314e-08 1 1.65314e-08 0
1416 1 7.064 12.362 15.894 -4.44936 120282 194236 87745.6 -18889.8 -93361.3 -22465.9 12 11.0154 0.190941 0.574524 0.403915 0.012857 0.600083 1 1.65314e-08 1 1.65314e-08 0
1417 1 10.596 10.596 14.128 -4.44936 113322 197760 167619 -9347.45 -51605.9 -5644.58 12 11.0154 0.190941 0.574524 0.403915 0.012857 0.600083 1 1.65314e-08 1 1.65314e-08 0
1418 1 12.362 12.362 14.128 -4.44936 66922.5 133522 161400 92763.7 -70208 49391.7 12 11.0154 0.190941 0.574524 0.403915 0.012857 0.600083 1 1.65314e-08 1 1.65314e-08 0
1419 1 12.362 10.596 15.894 -4.44936 190818 198712 179331 -745.535 -12446.2 -1165.15 12 11.0154 0.190941 0.574524 0.403915 0.012857 0.600083 1 1.65314e-08 1 1.65314e-08 0
1420 1 10.596 12.362 15.894 -4.44936 142200 133814 114752 -60630.2 68953.5 73886.5 12 11.0154 0.190941 0.574524 0.403915 0.012857 0.600083 1 1.65314e-08 1 1.65314e-08 0
1421 1 14.128 10.596 14.128 -4.44936 198313 198262 159982 -494.16 -4266.74 -4493.66 12 11.0154 0.190941 0.574524 0.403915 0.012857 0.600083 1 1.65314e-08 1 1.65314e-08 0
1422 1 15.894 12.362 14.128 -4.44936 172737 171433 198742 -26688.7 1014.61 1039.69 12 11.0154 0.190941 0.574524 0.403915 0.012857 0.600083 1 1.65314e-08 1 1.65314e-08 0
1423 1 15.894 10.596 15.894 -4.44936 198430 193897 194901 1310.38 1167.92 -4354.29 12 11.0154 0.190941 0.574524 0.403915 0.012857 0.600083 1 1.65314e-08 1 1.65314e-08 0
1424 1 14.128 12.362 15.894 -4.44936 174006 192772 197211 -12202.1 6239.59 3072.97 12 11.0154 0.190941 0.574524 0.403915 0.012857 0.600083 1 1.65314e-08 1 1.65314e-08 0
1425 1 17.66 10.596 14.128 -4.44936 104680 114519 42073.2 -89047 121436 114912 12 11.0154 0.190941 0.574524 0.403915 0.012857 0.600083 1 1.65314e-08 1 1.65314e-08 0
1426 1 19.426 12.362 14.128 -4.44936 197057 188443 118731 4223.38 11752 -28768.5 12 11.0154 0.190941 0.574524 0.403915 0.012857 0.600083 1 1.65314e-08 1 1.65314e-08 0
1427 1 19.426 10.596 15.894 -4.44936 178979 194489 137543 9220.4 34824.3 -16214.1 12 11.0154 0.190941 0.574524 0.403915 0.012857 0.600083 1 2.33789e-08 1 2.33789e-08 0
1428 1 17.66 12.362 15.894 -4.44936 193948 140777 192050 -16744.4 5704.2 19760 12 11.0154 0.190941 0.574524 0.403915 0.012857 0.600083 1 1.65314e-08 1 1.65314e-08 0
1429 1 21.192 10.596 14.128 -4.44936 95075.7 192257 78287.3 26012.9 -111786 28039.5 12 11.0154 0.190941 0.574524 0.403915 0.012857 0.600083 1 0 1 0 0
1430 1 22.958 12.362 14.128 -4.44936 196760 182926 119299 5661.99 -12676.9 35500.1 12 11.0154 0.190941 0.574524 0.403915 0.012857 0.600083 1 2.33789e-08 1 2.33789e-08 0
1431 1 22.958 10.596 15.894 -4.44936 198723 162255 73867.3 1471.81 2721.78 -67547.8 12 11.0154 0.190941 0.574524 0.403915 0.012857 0.600083 1 0 1 0 0
1432 1 21.192 12.362 15.894 -4.44936 182326 188973 79889.7 -12705.3 44232.6 34150.3 12 11.0154 0.190941 0.574524 0.403915 0.012857 0.600083 1 0 1 0 0
1433 1 24.724 10.596 14.128 -4.44936 198480 185427 190656 -2006.73 1565.32 10417 12 11.0154 0.190941 0.574524 0.403915 0.012857 0.600083 1 1.65314e-08 1 1.65314e-08 0
1434 1 26.49 12.362 14.128 -4.44936 198654 198174 192880 -278.702 -868.194 -1894.62 12 11.0154 0.190941 0.574524 0.403915 0.012857 0.600083 1 2.33789e-08 1 2.33789e-08 0
1435 1 26.49 10.596 15.894 -4.44936 197019 130538 101884 -10969.7 13071.3 81318.6 12 11.0154 0.190941 0.574524 0.403915 0.012857 0.600083 1 2.33789e-08 1 2.33789e-08 0
1436 1 24.724 12.362 15.894 -4.44936 183549 175856 195217 -18687.7 7368.78 9039.85 12 11.0154 0.190941 0.574524 0.403915 0.012857 0.600083 1 1.65314e-08 1 1.65314e-08 0
1437 1 28.256 10.596 14.128 -4.44936 133110 185738 187703 29268 26973.1 -12021.1 12 11.0154 0.190941 0.574524 0.403915 0.012857 0.600083 1 0 1 0 0
1438 1 30.022 12.362 14.128 -4.44936 185714 177405 198381 16714.1 -2289.48 2928.24 12 11.0154 0.190941 0.574524 0.403915 0.012857 0.600083 1 1.65314e-08 1 1.65314e-08 0
1439 1 30.022 10.596 15.894 -4.44936 75896.6 198469 196781 -6202.74 -15678.9 -791.406 12 11.0154 0.190941 0.574524 0.403915 0.012857 0.600083 1 2.33789e-08 1 2.33789e-08 0
1440 1 28.256 12.362 15.894 -4.44936 170535 128616 198762 44519.6 -748.515 1179.71 12 11.0154 0.190941 0.574524 0.403915 0.012857 0.600083 1 0 1 0 0
1441 1 0 14.128 14.128 -4.44936 193752 165385 182575 -12960.3 -9028.41 -23265.1 12 11.0154 0.190941 0.574524 0.403915 0.012857 0.600083 1 1.65314e-08 1 1.65314e-08 1.26218e-29
1442 1 1.766 15.894 14.128 -4.44936 185789 137065 112167 28317.4 -33546.5 73113.7 12 11.0154 0.190941 0.574524 0.403915 0.012857 0.600083 1 1.65314e-08 1 1.65314e-08 0
1443 1 1.766 14.128 15.894 -4.44936 116188 178905 180116 -40518.3 -39264.8 -19262.3 12 11.0154 0.190941 0.574524 0.403915 0.012857 0.600083 1 1.65314e-08 1 1.65314e-08 0
1444 1 0 15.894 15.894 -4.44936 194279 131052 190352 17463.2 -6161.03 23895 12 11.0154 0.190941 0.574524 0.403915 0.012857 0.600083 1 2.33789e-08 1 2.33789e-08 1.26218e-29
1445 1 3.532 14.128 14.128 -4.44936 181836 84753.5 77849.2 -43957.7 45269 117430 12 11.0154 0.190941 0.574524 0.403915 0.012857 0.600083 1 1.65314e-08 1 1.65314e-08 0
1446 1 5.298 15.894 14.128 -4.44936 198770 195250 159013 -207.136 -695.038 -11851.9 12 11.0154 0.190941 0.574524 0.403915 0.012857 0.600083 1 1.65314e-08 1 1.65314e-08 0
1447 1 5.298 14.128 15.894 -4.44936 146915 44904.7 197587 89337.1 7873.45 -13561.5 12 11.0154 0.190941 0.574524 0.403915 0.012857 0.600083 1 1.65314e-08 1 1.65314e-08 0
1448 1 3.532 15.894 15.894 -4.44936 168080 122890 197832 48270.4 -5400.75 8491.14 12 11.0154 0.190941 0.574524 0.403915 0.012857 0.600083 1 1.65314e-08 1 1.65314e-08 0
1449 1 7.064 14.128 14.128 -4.44936 163526 167449 132105 -33236.3 -48484.4 -45707.5 12 11.0154 0.190941 0.574524 0.403915 0.012857 0.600083 1 1.65314e-08 1 1.65314e-08 0
1450 1 8.83 15.894 14.128 -4.44936 114192 96268.4 195543 -93121.8 -16552.1 -18221.5 12 11.0154 0.190941 0.574524 0.403915 0.012857 0.600083 1 1.65314e-08 1 1.65314e-08 0
1451 1 8.83 14.128 15.894 -4.44936 150629 151815 5034 -47556 96589.3 95392.3 12 11.0154 0.190941 0.574524 0.403915 0.012857 0.600083 1 1.65314e-08 1 1.65314e-08 0
1452 1 7.064 15.894 15.894 -4.44936 168049 196289 149912 8752.55 -38754.7 11037.1 12 11.0154 0.190941 0.574524 0.403915 0.012857 0.600083 1 1.65314e-08 1 1.65314e-08 0
1453 1 10.596 14.128 14.128 -4.44936 190037 182439 195403 -11955 5435.85 7431.05 12 11.0154 0.190941 0.574524 0.403915 0.012857 0.600083 1 1.65314e-08 1 1.65314e-08 0
1454 1 12.362 15.894 14.128 -4.44936 198226 161873 156210 -4530.36 -4865.49 -39639.8 12 11.0154 0.190941 0.574524 0.403915 0.012857 0.600083 1 1.65314e-08 1 1.65314e-08 0
1455 1 12.362 14.128 15.894 -4.44936 192096 186450 195835 -9080.29 4439.01 6028.54 12 11.0154 0.190941 0.574524 0.403915 0.012857 0.600083 1 1.65314e-08 1 1.65314e-08 0
1456 1 10.596 15.894 15.894 -4.44936 114534 160787 51030.4 -56577.5 111570 74925.4 12 11.0154 0.190941 0.574524 0.403915 0.012857 0.600083 1 1.65314e-08 1 1.65314e-08 0
1457 1 14.128 14.128 14.128 -4.44936 106024 175499 177578 -46472.4 -44348.5 -22219 12 11.0154 0.190941 0.574524 0.403915 0.012857 0.600083 1 1.65314e-08 1 1.65314e-08 0
1458 1 15.894 15.894 14.128 -4.44936 198276 189603 198774 -2155.99 62.4463 265.87 12 11.0154 0.190941 0.574524 0.403915 0.012857 0.600083 1 1.65314e-08 1 1.65314e-08 0
1459 1 15.894 14.128 15.894 -4.44936 151350 178454 146767 31051.9 49670.9 -32517.4 12 11.0154 0.190941 0.574524 0.403915 0.012857 0.600083 1 1.65314e-08 1 1.65314e-08 0
1460 1 14.128 15.894 15.894 -4.44936 184906 52155.1 187152 -45106.2 12703.1 41294 12 11.0154 0.190941 0.574524 0.403915 0.012857 0.600083 1 1.65314e-08 1 1.65314e-08 0
1461 1 17.66 14.128 14.128 -4.44936 149258 198704 136203 1961.8 -55669.8 2205.27 12 11.0154 0.190941 0.574524 0.403915 0.012857 0.600083 1 2.61384e-08 1 2.61384e-08 0
1462 1 19.426 15.894 14.128 -4.44936 176858 39165 195616 59156.5 -8331.48 22480.1 12 11.0154 0.190941 0.574524 0.403915 0.012857 0.600083 1 0 1 0 0
1463 1 19.426 14.128 15.894 -4.44936 155159 137335 197427 51773.5 -7689.02 9125.63 12 11.0154 0.190941 0.574524 0.403915 0.012857 0.600083 1 1.65314e-08 1 1.65314e-08 0
1464 1 17.66 15.894 15.894 -4.44936 -38326 198183 72093.8 -11913.7 -173317 -8708.49 12 11.0154 0.190941 0.574524 0.403915 0.012857 0.600083 1 1.65314e-08 1 1.65314e-08 0
1465 1 21.192 14.128 14.128 -4.44936 167183 129009 141672 -46955.1 -42481 -63125 12 11.0154 0.190941 0.574524 0.403915 0.012857 0.600083 1 1.16894e-08 1 1.16894e-08 0
1466 1 22.958 15.894 14.128 -4.44936 108738 148164 188967 -67511.5 -29727.7 -22288.7 12 11.0154 0.190941 0.574524 0.403915 0.012857 0.600083 1 2.33789e-08 1 2.33789e-08 0
1467 1 22.958 14.128 15.894 -4.44936 197679 198655 191180 374.336 2895.75 -982.768 12 11.0154 0.190941 0.574524 0.403915 0.012857 0.600083 1 1.65314e-08 1 1.65314e-08 0
1468 1 21.192 15.894 15.894 -4.44936 159715 187797 181374 20716.3 -26078.1 13828.5 12 11.0154 0.190941 0.574524 0.403915 0.012857 0.600083 1 0 1 0 0
1469 1 24.724 14.128 14.128 -4.44936 57031.1 65044.9 134674 137686 -95327.3 92593.5 12 11.0154 0.190941 0.574524 0.403915 0.012857 0.600083 1 2.33789e-08 1 2.33789e-08 0
1470 1 26.49 15.894 14.128 -4.44936 187192 192448 196608 8567.98 5019.46 -3710.57 12 11.0154 0.190941 0.574524 0.403915 0.012857 0.600083 1 2.33789e-08 1 2.33789e-08 0
1471 1 26.49 14.128 15.894 -4.44936 159445 198762 181595 896.487 26001.1 -592.57 12 11.0154 0.190941 0.574524 0.403915 0.012857 0.600083 1 2.33789e-08 1 2.33789e-08 0
1472 1 24.724 15.894 15.894 -4.44936 58067.9 174290 121517 -58705.2 -104270 -43500.9 12 11.0154 0.190941 0.574524 0.403915 0.012857 0.600083 1 2.33789e-08 1 2.33789e-08 0
1473 1 28.256 14.128 14.128 -4.44936 172935 168821 196866 -27828.4 -7036.61 -7575.93 12 11.0154 0.190941 0.574524 0.403915 0.012857 0.600083 1 1.16894e-08 1 1.16894e-08 0
1474 1 30.022 15.894 14.128 -4.44936 91619.6 182530 188348 41732.3 -33438.8 13022.1 12 11.0154 0.190941 0.574524 0.403915 0.012857 0.600083 1 2.33789e-08 1 2.33789e-08 0
1475 1 30.022 14.128 15.894 -4.44936 153739 175404 136035 32450 -53162.9 38299.7 12 11.0154 0.190941 0.574524 0.403915 0.012857 0.600083 1 0 1 0 0
1476 1 28.256 15.894 15.894 -4.44936 109829 195716 196283 -16514.1 -14910.3 -2768.09 12 11.0154 0.190941 0.574524 0.403915 0.012857 0.600083 1 0 1 0 0
1477 1 0 17.66 14.128 -4.44936 198061 194219 -15256.7 -1813.73 12421.7 31252.3 12 11.0154 0.190941 0.574524 0.403915 0.012857 0.600083 1 2.02467e-08 1 2.02467e-08 1.26218e-29
1478 1 1.766 19.426 14.128 -4.44936 178497 180697 160676 19153.3 -27802.6 26251.1 12 11.0154 0.190941 0.574524 0.403915 0.012857 0.600083 1 2.33789e-08 1 2.33789e-08 0
1479 1 1.766 17.66 15.894 -4.44936 190624 151314 194694 19678.7 5774.64 -13929.2 12 11.0154 0.190941 0.574524 0.403915 0.012857 0.600083 1 1.65314e-08 1 1.65314e-08 0
1480 1 0 19.426 15.894 -4.44936 177633 114733 146486 42160.7 -33256.4 66297.8 12 11.0154 0.190941 0.574524 0.403915 0.012857 0.600083 1 2.33789e-08 1 2.33789e-08 1.26218e-29
1481 1 3.532 17.66 14.128 -4.44936 198750 179978 198782 -774.525 -1.31075 -31.8223 12 11.0154 0.190941 0.574524 0.403915 0.012857 0.600083 1 1.65314e-08 1 1.65314e-08 0
1482 1 5.298 19.426 14.128 -4.44936 188521 198330 195782 -2154.63 -5547.81 -1164.93 12 11.0154 0.190941 0.574524 0.403915 0.012857 0.600083 1 2.33789e-08 1 2.33789e-08 0
1483 1 5.298 17.66 15.894 -4.44936 196492 161762 167030 -9206.52 -8526.24 -34284.9 12 11.0154 0.190941 0.574524 0.403915 0.012857 0.600083 1 1.65314e-08 1 1.65314e-08 0
1484 1 3.532 19.426 15.894 -4.44936 187722 141457 123584 -25179.2 28838.5 65655.6 12 11.0154 0.190941 0.574524 0.403915 0.012857 0.600083 1 0 1 0 0
1485 1 7.064 17.66 14.128 -4.44936 155567 197699 187923 6841.62 21662.8 -3429.57 12 11.0154 0.190941 0.574524 0.403915 0.012857 0.600083 1 1.65314e-08 1 1.65314e-08 0
1486 1 8.83 19.426 14.128 -4.44936 101568 166047 153592 -56411.6 -66280.7 -38461.3 12 11.0154 0.190941 0.574524 0.403915 0.012857 0.600083 1 2.33789e-08 1 2.33789e-08 0
1487 1 8.83 17.66 15.894 -4.44936 198669 194112 91545.4 726.866 -3483.23 22377.6 12 11.0154 0.190941 0.574524 0.403915 0.012857 0.600083 1 1.65314e-08 1 1.65314e-08 0
1488 1 7.064 19.426 15.894 -4.44936 196938 197034 113485 -1795.44 -12542.1 -12210.6 12 11.0154 0.190941 0.574524 0.403915 0.012857 0.600083 1 0 1 0 0
1489 1 10.596 17.66 14.128 -4.44936 196091 191851 46734.3 -4319.03 -20228.9 -32463.5 12 11.0154 0.190941 0.574524 0.403915 0.012857 0.600083 1 2.02467e-08 1 2.02467e-08 0
1490 1 12.362 19.426 14.128 -4.44936 162904 197389 156282 -7069.03 -39048.8 -7693.76 12 11.0154 0.190941 0.574524 0.403915 0.012857 0.600083 1 2.33789e-08 1 2.33789e-08 0
1491 1 12.362 17.66 15.894 -4.44936 179444 135154 -77421 35077.9 -73084.3 132568 12 11.0154 0.190941 0.574524 0.403915 0.012857 0.600083 1 1.65314e-08 1 1.65314e-08 0
1492 1 10.596 19.426 15.894 -4.44936 191123 171102 198619 14560.2 -1117.19 2123.86 12 11.0154 0.190941 0.574524 0.403915 0.012857 0.600083 1 1.65314e-08 1 1.65314e-08 0
1493 1 14.128 17.66 14.128 -4.44936 198760 177847 152140 -678.126 -1012.19 -31248 12 11.0154 0.190941 0.574524 0.403915 0.012857 0.600083 1 1.65314e-08 1 1.65314e-08 0
1494 1 15.894 19.426 14.128 -4.44936 189594 189387 187949 -9290.95 -9976.86 -10088.4 12 11.0154 0.190941 0.574524 0.403915 0.012857 0.600083 1 0 1 0 0
1495 1 15.894 17.66 15.894 -4.44936 195232 135387 125668 15001 -16109.8 68081.2 12 11.0154 0.190941 0.574524 0.403915 0.012857 0.600083 1 2.33789e-08 1 2.33789e-08 0
1496 1 14.128 19.426 15.894 -4.44936 198782 129269 171412 151.371 -94.984 43618.5 12 11.0154 0.190941 0.574524 0.403915 0.012857 0.600083 1 0 1 0 0
1497 1 17.66 17.66 14.128 -4.44936 170815 197083 198782 6893.27 3.59452 -0.885969 12 11.0154 0.190941 0.574524 0.403915 0.012857 0.600083 1 2.02467e-08 1 2.02467e-08 0
1498 1 19.426 19.426 14.128 -4.44936 120739 198156 127786 6991.15 74436.3 -6668.03 12 11.0154 0.190941 0.574524 0.403915 0.012857 0.600083 1 1.65314e-08 1 1.65314e-08 0
1499 1 19.426 17.66 15.894 -4.44936 154525 191961 94694.3 17374.8 67871.7 -26645.9 12 11.0154 0.190941 0.574524 0.403915 0.012857 0.600083 1 2.86331e-08 1 2.86331e-08 0
1500 1 17.66 19.426 15.894 -4.44936 65132.6 197659 184225 -12250.2 44108.4 4042.95 12 11.0154 0.190941 0.574524 0.403915 0.012857 0.600083 1 2.33789e-08 1 2.33789e-08 0
1501 1 21.192 17.66 14.128 -4.44936 84580 -77792.4 186492 -177723 37463.9 58301.9 12 11.0154 0.190941 0.574524 0.403915 0.012857 0.600083 1 1.65314e-08 1 1.65314e-08 0
1502 1 22.958 19.426 14.128 -4.44936 138048 196768 170907 -11058.6 41145.9 7491.96 12 11.0154 0.190941 0.574524 0.403915 0.012857 0.600083 1 0 1 0 0
1503 1 22.958 17.66 15.894 -4.44936 186064 196089 197048 5852.89 -4696.23 2161.15 12 11.0154 0.190941 0.574524 0.403915 0.012857 0.600083 1 2.61384e-08 1 2.61384e-08 0
1504 1 21.192 19.426 15.894 -4.44936 198022 100409 193573 -8646.34 1989.68 22637.5 12 11.0154 0.190941 0.574524 0.403915 0.012857 0.600083 1 1.65314e-08 1 1.65314e-08 0
1505 1 24.724 17.66 14.128 -4.44936 170420 187173 183132 -18145.7 -21068 -13479 12 11.0154 0.190941 0.574524 0.403915 0.012857 0.600083 1 2.33789e-08 1 2.33789e-08 0
1506 1 26.49 19.426 14.128 -4.44936 172813 142450 198757 38247.7 -809.459 1192.18 12 11.0154 0.190941 0.574524 0.403915 0.012857 0.600083 1 1.16894e-08 1 1.16894e-08 0
1507 1 26.49 17.66 15.894 -4.44936 182232 163053 187109 -24316.7 -13899.1 -20422.2 12 11.0154 0.190941 0.574524 0.403915 0.012857 0.600083 1 1.65314e-08 1 1.65314e-08 0
1508 1 24.724 19.426 15.894 -4.44936 142980 198654 159424 2675.77 -46864.6 2247.2 12 11.0154 0.190941 0.574524 0.403915 0.012857 0.600083 1 1.65314e-08 1 1.65314e-08 0
1509 1 28.256 17.66 14.128 -4.44936 197826 83757 81302.3 10484.8 -10596.1 116246 12 11.0154 0.190941 0.574524 0.403915 0.012857 0.600083 1 0 1 0 0
1510 1 30.022 19.426 14.128 -4.44936 196013 191259 198769 4564.23 -188.95 311.434 12 11.0154 0.190941 0.574524 0.403915 0.012857 0.600083 1 2.02467e-08 1 2.02467e-08 0
1511 1 30.022 17.66 15.894 -4.44936 172377 192201 162593 13182 -30912.5 15432 12 11.0154 0.190941 0.574524 0.403915 0.012857 0.600083 1 2.61384e-08 1 2.61384e-08 0
1512 1 28.256 19.426 15.894 -4.44936 139577 197051 139948 10124.6 -59019 10092.8 12 11.0154 0.190941 0.574524 0.403915 0.012857 0.600083 1 1.16894e-08 1 1.16894e-08 0
1513 1 0 21.192 14.128 -4.44936 198096 196528 191694 -1243.5 2204.83 3997.32 12 11.0154 0.190941 0.574524 0.403915 0.012857 0.600083 1 1.65314e-08 1 1.65314e-08 1.26218e-29
1514 1 1.766 22.958 14.128 -4.44936 198408 197656 198759 -648.597 -92.3585 -160.313 12 11.0154 0.190941 0.574524 0.403915 0.012857 0.600083 1 2.33789e-08 1 2.33789e-08 0
1515 1 1.766 21.192 15.894 -4.44936 198781 105532 105685 -255.55 255.34 93173.3 12 11.0154 0.190941 0.574524 0.403915 0.012857 0.600083 1 1.16894e-08 1 1.16894e-08 0
1516 1 0 22.958 15.894 -4.44936 140663 172440 181644 39127.7 -31560.3 21247.6 12 11.0154 0.190941 0.574524 0.403915 0.012857 0.600083 1 2.61384e-08 1 2.61384e-08 1.26218e-29
1517 1 3.532 21.192 14.128 -4.44936 198065 -25885 166423 12696 -4818.28 85263.8 12 11.0154 0.190941 0.574524 0.403915 0.012857 0.600083 1 1.16894e-08 1 1.16894e-08 0
1518 1 5.298 22.958 14.128 -4.44936 16946.2 198698 184763 3897.41 -50489.4 1082.17 12 11.0154 0.190941 0.574524 0.403915 0.012857 0.600083 1 1.65314e-08 1 1.65314e-08 0
1519 1 5.298 21.192 15.894 -4.44936 133163 168340 143247 -44694 -60366.8 -41116.6 12 11.0154 0.190941 0.574524 0.403915 0.012857 0.600083 1 0 1 0 0
1520 1 3.532 22.958 15.894 -4.44936 197147 188828 195380 4034.37 -2358.74 5819.41 12 11.0154 0.190941 0.574524 0.403915 0.012857 0.600083 1 0 1 0 0
1521 1 7.064 21.192 14.128 -4.44936 130930 192932 194931 -19922.9 16164.9 4746.39 12 11.0154 0.190941 0.574524 0.403915 0.012857 0.600083 1 1.16894e-08 1 1.16894e-08 0
1522 1 8.83 22.958 14.128 -4.44936 198759 189876 166150 -452.164 -865.533 -17047.1 12 11.0154 0.190941 0.574524 0.403915 0.012857 0.600083 1 2.33789e-08 1 2.33789e-08 0
1523 1 8.83 21.192 15.894 -4.44936 195694 179551 170321 -7705.5 9374.15 23395 12 11.0154 0.190941 0.574524 0.403915 0.012857 0.600083 1 0 1 0 0
1524 1 7.064 22.958 15.894 -4.44936 175941 140501 190376 -36485.8 13856.7 22134.4 12 11.0154 0.190941 0.574524 0.403915 0.012857 0.600083 1 1.65314e-08 1 1.65314e-08 0
1525 1 10.596 21.192 14.128 -4.44936 159192 197334 197923 -7571.01 5830.82 1115.05 12 11.0154 0.190941 0.574524 0.403915 0.012857 0.600083 1 1.16894e-08 1 1.16894e-08 0
1526 1 12.362 22.958 14.128 -4.44936 177862 155776 139804 29994.9 -35126 50363 12 11.0154 0.190941 0.574524 0.403915 0.012857 0.600083 1 1.65314e-08 1 1.65314e-08 0
1527 1 12.362 21.192 15.894 -4.44936 177076 185987 155240 16664.9 -30742.4 23603.2 12 11.0154 0.190941 0.574524 0.403915 0.012857 0.600083 1 1.16894e-08 1 1.16894e-08 0
1528 1 10.596 22.958 15.894 -4.44936 198489 117209 198555 4887.6 -257.785 4302.38 12 11.0154 0.190941 0.574524 0.403915 0.012857 0.600083 1 2.33789e-08 1 2.33789e-08 0
1529 1 14.128 21.192 14.128 -4.44936 101430 184238 144481 -37627.9 -72706.6 -28102.2 12 11.0154 0.190941 0.574524 0.403915 0.012857 0.600083 1 1.16894e-08 1 1.16894e-08 0
1530 1 15.894 22.958 14.128 -4.44936 181719 137282 198293 32394.1 2888.01 -5482.88 12 11.0154 0.190941 0.574524 0.403915 0.012857 0.600083 1 1.65314e-08 1 1.65314e-08 0
1531 1 15.894 21.192 15.894 -4.44936 195875 188264 188014 -5529.08 -5594.66 -10642.2 12 11.0154 0.190941 0.574524 0.403915 0.012857 0.600083 1 0 1 0 0
1532 1 14.128 22.958 15.894 -4.44936 198760 -9644.8 187158 2151.51 -508.095 49221.5 12 11.0154 0.190941 0.574524 0.403915 0.012857 0.600083 1 0 1 0 0
1533 1 17.66 21.192 14.128 -4.44936 174828 187537 168869 -16412.2 -26768.3 -18340.4 12 11.0154 0.190941 0.574524 0.403915 0.012857 0.600083 1 0 1 0 0
1534 1 19.426 22.958 14.128 -4.44936 181429 178458 139149 -18779.8 -32169 -34813.1 12 11.0154 0.190941 0.574524 0.403915 0.012857 0.600083 1 1.16894e-08 1 1.16894e-08 0
1535 1 19.426 21.192 15.894 -4.44936 188011 -83199.5 192280 -55111.4 8368.67 42818.9 12 11.0154 0.190941 0.574524 0.403915 0.012857 0.600083 1 0 1 0 0
1536 1 17.66 22.958 15.894 -4.44936 192899 93093.1 92645 -24935.2 24988.1 105913 12 11.0154 0.190941 0.574524 0.403915 0.012857 0.600083 1 2.02467e-08 1 2.02467e-08 0
1537 1 21.192 21.192 14.128 -4.44936 195064 185582 178064 7005.82 -8777.24 16537 12 11.0154 0.190941 0.574524 0.403915 0.012857 0.600083 1 2.33789e-08 1 2.33789e-08 0
1538 1 22.958 22.958 14.128 -4.44936 56691 198078 170980 -10001.8 62852.4 4424.19 12 11.0154 0.190941 0.574524 0.403915 0.012857 0.600083 1 1.16894e-08 1 1.16894e-08 0
1539 1 22.958 21.192 15.894 -4.44936 109843 192558 196455 23526.9 14387.2 -3805.82 12 11.0154 0.190941 0.574524 0.403915 0.012857 0.600083 1 1.65314e-08 1 1.65314e-08 0
1540 1 21.192 22.958 15.894 -4.44936 35093.3 152760 165602 -86794.8 73696.2 39077 12 11.0154 0.190941 0.574524 0.403915 0.012857 0.600083 1 1.65314e-08 1 1.65314e-08 0
1541 1 24.724 21.192 14.128 -4.44936 70287.9 193091 176859 27041.7 -53075.5 11169.8 12 11.0154 0.190941 0.574524 0.403915 0.012857 0.600083 1 1.65314e-08 1 1.65314e-08 0
1542 1 26.49 22.958 14.128 -4.44936 162243 182084 197625 24700.3 -6501.11 4394.76 12 11.0154 0.190941 0.574524 0.403915 0.012857 0.600083 1 2.33789e-08 1 2.33789e-08 0
1543 1 26.49 21.192 15.894 -4.44936 96498.2 198750 -71278.9 1819.11 166201 -2955.88 12 11.0154 0.190941 0.574524 0.403915 0.012857 0.600083 1 0 1 0 0
1544 1 24.724 22.958 15.894 -4.44936 181968 198604 -121162 -1729.11 73345.9 7542.6 12 11.0154 0.190941 0.574524 0.403915 0.012857 0.600083 1 2.61384e-08 1 2.61384e-08 0
1545 1 28.256 21.192 14.128 -4.44936 183893 190626 153505 -11019.6 -25963.9 -19216.6 12 11.0154 0.190941 0.574524 0.403915 0.012857 0.600083 1 2.33789e-08 1 2.33789e-08 0
1546 1 30.022 22.958 14.128 -4.44936 137957 198673 190980 -2569.37 21783.9 920.189 12 11.0154 0.190941 0.574524 0.403915 0.012857 0.600083 1 1.16894e-08 1 1.16894e-08 0
1547 1 30.022 21.192 15.894 -4.44936 166029 55624.1 144898 68475.4 -42010.3 87828.8 12 11.0154 0.190941 0.574524 0.403915 0.012857 0.600083 1 1.16894e-08 1 1.16894e-08 0
1548 1 28.256 22.958 15.894 -4.44936 198773 198710 172358 24.8511 -475.737 1380.32 12 11.0154 0.190941 0.574524 0.403915 0.012857 0.600083 1 1.16894e-08 1 1.16894e-08 0
1549 1 0 24.724 14.128 -4.44936 198775 14055.1 164087 -1105.05 -478.907 -80057.4 12 11.0154 0.190941 0.574524 0.403915 0.012857 0.600083 1 2.33789e-08 1 2.33789e-08 1.26218e-29
1550 1 1.766 26.49 14.128 -4.44936 56689.6 198206 109964 -9047.37 112340 7152.99 12 11.0154 0.190941 0.574524 0.403915 0.012857 0.600083 1 2.33789e-08 1 2.33789e-08 0
1551 1 1.766 24.724 15.894 -4.44936 195718 193423 137048 4052.38 -13754.3 18188.4 12 11.0154 0.190941 0.574524 0.403915 0.012857 0.600083 1 1.16894e-08 1 1.16894e-08 0
1552 1 0 26.49 15.894 -4.44936 192597 -69895.5 149666 -40763.4 17428.7 114875 12 11.0154 0.190941 0.574524 0.403915 0.012857 0.600083 1 1.65314e-08 1 1.65314e-08 1.26218e-29
1553 1 3.532 24.724 14.128 -4.44936 185021 184491 198748 -14023.6 -682.819 -695.859 12 11.0154 0.190941 0.574524 0.403915 0.012857 0.600083 1 2.86331e-08 1 2.86331e-08 0
1554 1 5.298 26.49 14.128 -4.44936 197464 198013 177898 1006.85 5245.66 -4008.51 12 11.0154 0.190941 0.574524 0.403915 0.012857 0.600083 1 2.33789e-08 1 2.33789e-08 0
1555 1 5.298 24.724 15.894 -4.44936 188590 110450 81626.1 -30005.3 -34555.8 -101728 12 11.0154 0.190941 0.574524 0.403915 0.012857 0.600083 1 2.61384e-08 1 2.61384e-08 0
1556 1 3.532 26.49 15.894 -4.44936 197123 198772 150005 -125.521 8995.31 680.633 12 11.0154 0.190941 0.574524 0.403915 0.012857 0.600083 1 1.65314e-08 1 1.65314e-08 0
1557 1 7.064 24.724 14.128 -4.44936 174266 182083 104217 -20233.7 48149.3 39738.8 12 11.0154 0.190941 0.574524 0.403915 0.012857 0.600083 1 2.33789e-08 1 2.33789e-08 0
1558 1 8.83 26.49 14.128 -4.44936 198303 193243 165868 1629.17 -3971.49 13501.7 12 11.0154 0.190941 0.574524 0.403915 0.012857 0.600083 1 2.33789e-08 1 2.33789e-08 0
1559 1 8.83 24.724 15.894 -4.44936 180244 150617 97953.3 29881.2 -43234.1 69687.6 12 11.0154 0.190941 0.574524 0.403915 0.012857 0.600083 1 1.16894e-08 1 1.16894e-08 0
1560 1 7.064 26.49 15.894 -4.44936 128375 175342 122677 40624.2 -73200.8 42236.1 12 11.0154 0.190941 0.574524 0.403915 0.012857 0.600083 1 2.33789e-08 1 2.33789e-08 0
1561 1 10.596 24.724 14.128 -4.44936 163161 187930 161483 -19660.9 -36450.4 -20118.8 12 11.0154 0.190941 0.574524 0.403915 0.012857 0.600083 1 2.86331e-08 1 2.86331e-08 0
1562 1 12.362 26.49 14.128 -4.44936 181311 133486 104810 -33775.9 40519.6 78332.8 12 11.0154 0.190941 0.574524 0.403915 0.012857 0.600083 1 2.33789e-08 1 2.33789e-08 0
1563 1 12.362 24.724 15.894 -4.44936 195654 103582 150681 -17255.1 12265.2 67669.9 12 11.0154 0.190941 0.574524 0.403915 0.012857 0.600083 1 2.86331e-08 1 2.86331e-08 0
1564 1 10.596 26.49 15.894 -4.44936 -86942.8 41910.7 198657 -211712 5964.45 4419.45 12 11.0154 0.190941 0.574524 0.403915 0.012857 0.600083 1 1.65314e-08 1 1.65314e-08 0
1565 1 14.128 24.724 14.128 -4.44936 165765 187013 182980 -19712.6 22841.5 13637.3 12 11.0154 0.190941 0.574524 0.403915 0.012857 0.600083 1 2.86331e-08 1 2.86331e-08 0
1566 1 15.894 26.49 14.128 -4.44936 120129 186461 179758 31129.7 38681.7 -15309.7 12 11.0154 0.190941 0.574524 0.403915 0.012857 0.600083 1 1.65314e-08 1 1.65314e-08 0
1567 1 15.894 24.724 15.894 -4.44936 190458 184339 148595 10964.6 20439.2 -26922.7 12 11.0154 0.190941 0.574524 0.403915 0.012857 0.600083 1 2.86331e-08 1 2.86331e-08 0
1568 1 14.128 26.49 15.894 -4.44936 74534.2 193100 196817 -26569.9 15626.7 3341.71 12 11.0154 0.190941 0.574524 0.403915 0.012857 0.600083 1 1.65314e-08 1 1.65314e-08 0
1569 1 17.66 24.724 14.128 -4.44936 149816 167701 139070 -39011.5 54072.7 43079.8 12 11.0154 0.190941 0.574524 0.403915 0.012857 0.600083 1 2.33789e-08 1 2.33789e-08 0
1570 1 19.426 26.49 14.128 -4.44936 182681 129284 163525 33451.5 23826.1 -49500.7 12 11.0154 0.190941 0.574524 0.403915 0.012857 0.600083 1 2.02467e-08 1 2.02467e-08 0
1571 1 19.426 24.724 15.894 -4.44936 195785 160702 190323 -10682.9 -5034.85 -17947.3 12 11.0154 0.190941 0.574524 0.403915 0.012857 0.600083 1 1.65314e-08 1 1.65314e-08 0
1572 1 17.66 26.49 15.894 -4.44936 137413 163554 131633 -46496 64193.8 48636.1 12 11.0154 0.190941 0.574524 0.403915 0.012857 0.600083 1 2.33789e-08 1 2.33789e-08 0
1573 1 21.192 24.724 14.128 -4.44936 146259 153935 193980 48533.4 -15881.3 14675.1 12 11.0154 0.190941 0.574524 0.403915 0.012857 0.600083 1 1.65314e-08 1 1.65314e-08 0
1574 1 22.958 26.49 14.128 -4.44936 180858 187277 42006 14360.1 53010.4 -42469.4 12 11.0154 0.190941 0.574524 0.403915 0.012857 0.600083 1 1.16894e-08 1 1.16894e-08 0
1575 1 22.958 24.724 15.894 -4.44936 137880 184325 142957 29672.7 58308.1 -28409.1 12 11.0154 0.190941 0.574524 0.403915 0.012857 0.600083 1 2.33789e-08 1 2.33789e-08 0
1576 1 21.192 26.49 15.894 -4.44936 180614 179058 196226 18930 -6814.48 7100.19 12 11.0154 0.190941 0.574524 0.403915 0.012857 0.600083 1 0 1 0 0
1577 1 24.724 24.724 14.128 -4.44936 197576 183187 196805 4337.63 1544.32 -5552.37 12 11.0154 0.190941 0.574524 0.403915 0.012857 0.600083 1 2.86331e-08 1 2.86331e-08 0
1578 1 26.49 26.49 14.128 -4.44936 194339 139273 162777 -16261 12648.4 46288.3 12 11.0154 0.190941 0.574524 0.403915 0.012857 0.600083 1 2.33789e-08 1 2.33789e-08 0
1579 1 26.49 24.724 15.894 -4.44936 139537 192888 186329 18686.7 27161.8 -8567.22 12 11.0154 0.190941 0.574524 0.403915 0.012857 0.600083 1 2.61384e-08 1 2.61384e-08 0
1580 1 24.724 26.49 15.894 -4.44936 28843.9 191291 176442 35679 -61614.6 12936.2 12 11.0154 0.190941 0.574524 0.403915 0.012857 0.600083 1 1.65314e-08 1 1.65314e-08 0
1581 1 28.256 24.724 14.128 -4.44936 198096 185564 197715 3011.91 -855.853 3755.98 12 11.0154 0.190941 0.574524 0.403915 0.012857 0.600083 1 1.65314e-08 1 1.65314e-08 0
1582 1 30.022 26.49 14.128 -4.44936 130811 194891 192571 -16262.6 20545.9 4915.77 12 11.0154 0.190941 0.574524 0.403915 0.012857 0.600083 1 2.02467e-08 1 2.02467e-08 0
1583 1 30.022 24.724 15.894 -4.44936 175778 198328 135515 3230.78 -38149.5 5357.91 12 11.0154 0.190941 0.574524 0.403915 0.012857 0.600083 1 1.65314e-08 1 1.65314e-08 0
1584 1 28.256 26.49 15.894 -4.44936 122278 189343 132044 26871.9 71454.3 -25098.2 12 11.0154 0.190941 0.574524 0.403915 0.012857 0.600083 1 1.16894e-08 1 1.16894e-08 0
1585 1 0 28.256 14.128 -4.44936 195610 160680 198782 10994.3 -34.7835 120.545 12 11.0154 0.190941 0.574524 0.403915 0.012857 0.600083 1 0 1 0 1.26218e-29
1586 1 1.766 30.022 14.128 -4.44936 180620 198687 -225769 1314.54 87810.7 -6355.61 12 11.0154 0.190941 0.574524 0.403915 0.012857 0.600083 1 2.33789e-08 1 2.33789e-08 0
1587 1 1.766 28.256 15.894 -4.44936 -82621.1 126351 178835 -142766 74921.6 38010.6 12 11.0154 0.190941 0.574524 0.403915 0.012857 0.600083 1 0 1 0 0
1588 1 0 30.022 15.894 -4.44936 189021 198648 103974 1145.38 -30420.7 3569.66 12 11.0154 0.190941 0.574524 0.403915 0.012857 0.600083 1 1.65314e-08 1 1.65314e-08 1.26218e-29
1589 1 3.532 28.256 14.128 -4.44936 5289.81 197173 112871 17644 -128930 11756.8 12 11.0154 0.190941 0.574524 0.403915 0.012857 0.600083 1 0 1 0 0
1590 1 5.298 30.022 14.128 -4.44936 28771.6 150841 132384 -90280.2 -106247 -56420 12 11.0154 0.190941 0.574524 0.403915 0.012857 0.600083 1 2.33789e-08 1 2.33789e-08 0
1591 1 5.298 28.256 15.894 -4.44936 198363 195300 187808 1208.54 2145.4 -6181.94 12 11.0154 0.190941 0.574524 0.403915 0.012857 0.600083 1 1.16894e-08 1 1.16894e-08 0
1592 1 3.532 30.022 15.894 -4.44936 159550 188593 191090 19993 -17371.9 8852.99 12 11.0154 0.190941 0.574524 0.403915 0.012857 0.600083 1 2.33789e-08 1 2.33789e-08 0
1593 1 7.064 28.256 14.128 -4.44936 185312 67099.2 143426 42115.7 27306.1 -85377.8 12 11.0154 0.190941 0.574524 0.403915 0.012857 0.600083 1 0 1 0 0
1594 1 8.83 30.022 14.128 -4.44936 180863 187413 198668 14272.9 -1429.27 1138.48 12 11.0154 0.190941 0.574524 0.403915 0.012857 0.600083 1 1.65314e-08 1 1.65314e-08 0
1595 1 8.83 28.256 15.894 -4.44936 198652 25353 58960.1 4754.08 -4268.68 155721 12 11.0154 0.190941 0.574524 0.403915 0.012857 0.600083 1 0 1 0 0
1596 1 7.064 30.022 15.894 -4.44936 136786 162765 192136 -47253.8 -20297.8 -15471.2 12 11.0154 0.190941 0.574524 0.403915 0.012857 0.600083 1 2.33789e-08 1 2.33789e-08 0
1597 1 10.596 28.256 14.128 -4.44936 175211 181398 194983 -20242.4 -9463.14 -8126.64 12 11.0154 0.190941 0.574524 0.403915 0.012857 0.600083 1 0 1 0 0
1598 1 12.362 30.022 14.128 -4.44936 184018 186991 171210 13194.4 -20176.4 18031 12 11.0154 0.190941 0.574524 0.403915 0.012857 0.600083 1 2.33789e-08 1 2.33789e-08 0
1599 1 12.362 28.256 15.894 -4.44936 172329 198780 197731 -231.608 -5273.74 -46.1743 12 11.0154 0.190941 0.574524 0.403915 0.012857 0.600083 1 0 1 0 0
1600 1 10.596 30.022 15.894 -4.44936 198745 187257 158191 655.728 1230.63 -21628.6 12 11.0154 0.190941 0.574524 0.403915 0.012857 0.600083 1 1.65314e-08 1 1.65314e-08 0
1601 1 14.128 28.256 14.128 -4.44936 195375 192015 155647 -4801.69 12123.2 17084.8 12 11.0154 0.190941 0.574524 0.403915 0.012857 0.600083 1 0 1 0 0
1602 1 15.894 30.022 14.128 -4.44936 173389 -91535.3 188470 -85860 -16181.4 -54714 12 11.0154 0.190941 0.574524 0.403915 0.012857 0.600083 1 2.33789e-08 1 2.33789e-08 0
1603 1 15.894 28.256 15.894 -4.44936 136561 197791 87389.5 7851.68 83252.4 -10505.6 12 11.0154 0.190941 0.574524 0.403915 0.012857 0.600083 1 0 1 0 0
1604 1 14.128 30.022 15.894 -4.44936 198085 172387 147880 4289.18 -5956.33 36654.4 12 11.0154 0.190941 0.574524 0.403915 0.012857 0.600083 1 2.33789e-08 1 2.33789e-08 0
1605 1 17.66 28.256 14.128 -4.44936 178523 179957 34233.2 19529 57737.3 -55656.8 12 11.0154 0.190941 0.574524 0.403915 0.012857 0.600083 1 0 1 0 0
1606 1 19.426 30.022 14.128 -4.44936 79152.6 177311 72173.8 50681 123069 -52138.3 12 11.0154 0.190941 0.574524 0.403915 0.012857 0.600083 1 1.16894e-08 1 1.16894e-08 0
1607 1 19.426 28.256 15.894 -4.44936 174555 193510 175419 -11301.7 23791.3 11098.2 12 11.0154 0.190941 0.574524 0.403915 0.012857 0.600083 1 1.16894e-08 1 1.16894e-08 0
1608 1 17.66 30.022 15.894 -4.44936 185706 189325 196239 -11120.2 -5766.22 -4903.62 12 11.0154 0.190941 0.574524 0.403915 0.012857 0.600083 1 2.33789e-08 1 2.33789e-08 0
1609 1 21.192 28.256 14.128 -4.44936 186222 197783 193568 3542.3 -8092.62 2282.46 12 11.0154 0.190941 0.574524 0.403915 0.012857 0.600083 1 2.33789e-08 1 2.33789e-08 0
1610 1 22.958 30.022 14.128 -4.44936 183560 134096 186766 31379.4 13524.6 -27879.8 12 11.0154 0.190941 0.574524 0.403915 0.012857 0.600083 1 1.16894e-08 1 1.16894e-08 0
1611 1 22.958 28.256 15.894 -4.44936 72833.5 197986 137902 10009.7 -87565.5 6959.2 12 11.0154 0.190941 0.574524 0.403915 0.012857 0.600083 1 1.16894e-08 1 1.16894e-08 0
1612 1 21.192 30.022 15.894 -4.44936 104966 188741 191291 -30692.8 26509.5 8672.85 12 11.0154 0.190941 0.574524 0.403915 0.012857 0.600083 1 1.16894e-08 1 1.16894e-08 0
1613 1 24.724 28.256 14.128 -4.44936 196605 197496 128668 1673.32 -12355.5 9495.58 12 11.0154 0.190941 0.574524 0.403915 0.012857 0.600083 1 1.65314e-08 1 1.65314e-08 0
1614 1 26.49 30.022 14.128 -4.44936 166340 195783 99709.2 -9863.07 56693.6 17235.8 12 11.0154 0.190941 0.574524 0.403915 0.012857 0.600083 1 2.02467e-08 1 2.02467e-08 0
1615 1 26.49 28.256 15.894 -4.44936 153982 158786 -44730.9 42330 -104448 98689.4 12 11.0154 0.190941 0.574524 0.403915 0.012857 0.600083 1 1.16894e-08 1 1.16894e-08 0
1616 1 24.724 30.022 15.894 -4.44936 186619 176192 179894 -16575.8 15157 20656.2 12 11.0154 0.190941 0.574524 0.403915 0.012857 0.600083 1 2.61384e-08 1 2.61384e-08 0
1617 1 28.256 28.256 14.128 -4.44936 113643 191403 92341.4 -25064.4 -95195.9 -28025.1 12 11.0154 0.190941 0.574524 0.403915 0.012857 0.600083 1 2.33789e-08 1 2.33789e-08 0
1618 1 30.022 30.022 14.128 -4.44936 14967.8 195372 194609 25036.3 27695.5 -3772.24 12 11.0154 0.190941 0.574524 0.403915 0.012857 0.600083 1 1.16894e-08 1 1.16894e-08 0
1619 1 30.022 28.256 15.894 -4.44936 148349 167169 169739 -39928.8 -38271.3 -30300.4 12 11.0154 0.190941 0.574524 0.403915 0.012857 0.600083 1 0 1 0 0
1620 1 28.256 30.022 15.894 -4.44936 179261 9226.6 77213.3 -60830.7 48715.3 151802 12 11.0154 0.190941 0.574524 0.403915 0.012857 0.600083 1 1.16894e-08 1 1.16894e-08 0
1621 1 0 0 17.66 -4.44936 184315 184261 174540 -14493.8 -18727.3 -18762.1 12 11.0154 0.190941 0.574524 0.403915 0.012857 0.600083 1 2.61384e-08 1 2.61384e-08 2.52435e-29
1622 1 1.766 1.766 17.66 -4.44936 172328 153628 188141 -34561.7 16778 21920 12 11.0154 0.190941 0.574524 0.403915 0.012857 0.600083 1 1.65314e-08 1 1.65314e-08 0
1623 1 1.766 0 19.426 -4.44936 93343.1 181292 157308 -42943.7 -66128.8 -26933.3 12 11.0154 0.190941 0.574524 0.403915 0.012857 0.600083 1 2.33789e-08 1 2.33789e-08 1.26218e-29
1624 1 0 1.766 19.426 -4.44936 178917 173147 173913 22566.6 -22226.9 25249.4 12 11.0154 0.190941 0.574524 0.403915 0.012857 0.600083 1 2.61384e-08 1 2.61384e-08 1.26218e-29
1625 1 3.532 0 17.66 -4.44936 70373 187755 184496 -37629.9 42830.6 12551.4 12 11.0154 0.190941 0.574524 0.403915 0.012857 0.600083 1 1.16894e-08 1 1.16894e-08 1.26218e-29
1626 1 5.298 1.766 17.66 -4.44936 141003 146408 174860 55010 37177.9 -35396.4 12 11.0154 0.190941 0.574524 0.403915 0.012857 0.600083 1 2.02467e-08 1 2.02467e-08 0
1627 1 5.298 0 19.426 -4.44936 183046 -52222.2 171042 62847.8 -20893.2 83444.1 12 11.0154 0.190941 0.574524 0.403915 0.012857 0.600083 1 2.61384e-08 1 2.61384e-08 1.26218e-29
1628 1 3.532 1.766 19.426 -4.44936 186457 64794.9 195066 40637.8 -6767.17 22312.1 12 11.0154 0.190941 0.574524 0.403915 0.012857 0.600083 1 1.65314e-08 1 1.65314e-08 0
1629 1 7.064 0 17.66 -4.44936 196931 189872 151169 4060.85 9387.09 -20597.5 12 11.0154 0.190941 0.574524 0.403915 0.012857 0.600083 1 2.61384e-08 1 2.61384e-08 1.26218e-29
1630 1 8.83 1.766 17.66 -4.44936 169758 196215 197354 -8632.39 6437.57 1914.66 12 11.0154 0.190941 0.574524 0.403915 0.012857 0.600083 1 1.65314e-08 1 1.65314e-08 0
1631 1 8.83 0 19.426 -4.44936 -93182.5 49722.1 198546 208615 -8294.84 5926.84 12 11.0154 0.190941 0.574524 0.403915 0.012857 0.600083 1 2.61384e-08 1 2.61384e-08 1.26218e-29
1632 1 7.064 1.766 19.426 -4.44936 147817 -214073 80895.9 -145056 -77511.7 -220612 12 11.0154 0.190941 0.574524 0.403915 0.012857 0.600083 1 1.65314e-08 1 1.65314e-08 0
1633 1 10.596 0 17.66 -4.44936 198781 196371 197880 46.9312 -28.7019 1474.63 12 11.0154 0.190941 0.574524 0.403915 0.012857 0.600083 1 2.61384e-08 1 2.61384e-08 1.26218e-29
1634 1 12.362 1.766 17.66 -4.44936 198713 196394 196353 404.918 -408.391 2408.14 12 11.0154 0.190941 0.574524 0.403915 0.012857 0.600083 1 1.65314e-08 1 1.65314e-08 0
1635 1 12.362 0 19.426 -4.44936 51838.3 190016 195221 35890.3 22873.8 -5586.8 12 11.0154 0.190941 0.574524 0.403915 0.012857 0.600083 1 0 1 0 1.26218e-29
1636 1 10.596 1.766 19.426 -4.44936 101446 140349 190387 -75416.2 28585.3 22148 12 11.0154 0.190941 0.574524 0.403915 0.012857 0.600083 1 2.33789e-08 1 2.33789e-08 0
1637 1 14.128 0 17.66 -4.44936 189665 176210 139487 -14345.7 23251.2 36584.2 12 11.0154 0.190941 0.574524 0.403915 0.012857 0.600083 1 1.16894e-08 1 1.16894e-08 1.26218e-29
1638 1 15.894 1.766 17.66 -4.44936 155740 198772 182034 660.348 26848.7 -411.909 12 11.0154 0.190941 0.574524 0.403915 0.012857 0.600083 1 2.02467e-08 1 2.02467e-08 0
1639 1 15.894 0 19.426 -4.44936 128011 164882 198317 -48981.4 -5734.72 -3969.05 12 11.0154 0.190941 0.574524 0.403915 0.012857 0.600083 1 1.16894e-08 1 1.16894e-08 1.26218e-29
1640 1 14.128 1.766 19.426 -4.44936 100382 -188733 191886 195273 -26049.5 51694.6 12 11.0154 0.190941 0.574524 0.403915 0.012857 0.600083 1 1.65314e-08 1 1.65314e-08 0
1641 1 17.66 0 17.66 -4.44936 174377 149223 76396.7 34777.6 -54651.5 77880.1 12 11.0154 0.190941 0.574524 0.403915 0.012857 0.600083 1 2.61384e-08 1 2.61384e-08 1.26218e-29
1642 1 19.426 1.766 17.66 -4.44936 182917 155897 184846 26084.1 14869.5 -24447 12 11.0154 0.190941 0.574524 0.403915 0.012857 0.600083 1 2.86331e-08 1 2.86331e-08 0
1643 1 19.426 0 19.426 -4.44936 180484 176683 152867 20109.3 -28985.6 31854.1 12 11.0154 0.190941 0.574524 0.403915 0.012857 0.600083 1 2.02467e-08 1 2.02467e-08 1.26218e-29
1644 1 17.66 1.766 19.426 -4.44936 195904 138034 176244 13223.2 8054.38 -37002.3 12 11.0154 0.190941 0.574524 0.403915 0.012857 0.600083 1 2.02467e-08 1 2.02467e-08 0
1645 1 21.192 0 17.66 -4.44936 198532 193855 184839 -1110.79 -1868.58 -8288.37 12 11.0154 0.190941 0.574524 0.403915 0.012857 0.600083 1 1.65314e-08 1 1.65314e-08 1.26218e-29
1646 1 22.958 1.766 17.66 -4.44936 194107 192654 196139 5352.06 3515.15 -4024.64 12 11.0154 0.190941 0.574524 0.403915 0.012857 0.600083 1 2.61384e-08 1 2.61384e-08 0
1647 1 22.958 0 19.426 -4.44936 197165 170131 153484 -6806.57 8558.46 36025.8 12 11.0154 0.190941 0.574524 0.403915 0.012857 0.600083 1 2.02467e-08 1 2.02467e-08 1.26218e-29
1648 1 21.192 1.766 19.426 -4.44936 183303 -6246.96 150263 -56334.8 27404.8 99738.7 12 11.0154 0.190941 0.574524 0.403915 0.012857 0.600083 1 2.02467e-08 1 2.02467e-08 0
1649 1 24.724 0 17.66 -4.44936 196691 152375 187568 -9849.48 -4841.63 -22811.9 12 11.0154 0.190941 0.574524 0.403915 0.012857 0.600083 1 2.33789e-08 1 2.33789e-08 1.26218e-29
1650 1 26.49 1.766 17.66 -4.44936 179385 198371 116812 2823.34 39874.4 -5803.99 12 11.0154 0.190941 0.574524 0.403915 0.012857 0.600083 1 2.33789e-08 1 2.33789e-08 0
1651 1 26.49 0 19.426 -4.44936 180023 42118.6 197187 -54211.2 -5469.25 -15805.5 12 11.0154 0.190941 0.574524 0.403915 0.012857 0.600083 1 2.61384e-08 1 2.61384e-08 1.26218e-29
1652 1 24.724 1.766 19.426 -4.44936 193547 198591 171688 998.706 11909.3 -2272.08 12 11.0154 0.190941 0.574524 0.403915 0.012857 0.600083 1 1.65314e-08 1 1.65314e-08 0
1653 1 28.256 0 17.66 -4.44936 188591 197311 194245 -3871.82 -6799.62 -2583.32 12 11.0154 0.190941 0.574524 0.403915 0.012857 0.600083 1 1.65314e-08 1 1.65314e-08 1.26218e-29
1654 1 30.022 1.766 17.66 -4.44936 197710 160506 183164 -6405.46 -4091.73 -24450 12 11.0154 0.190941 0.574524 0.403915 0.012857 0.600083 1 2.33789e-08 1 2.33789e-08 0
1655 1 30.022 0 19.426 -4.44936 198703 90981.3 168869 2917.51 1536.85 -56785.9 12 11.0154 0.190941 0.574524 0.403915 0.012857 0.600083 1 2.61384e-08 1 2.61384e-08 1.26218e-29
1656 1 28.256 1.766 19.426 -4.44936 150805 194017 152081 15119.6 47334.3 -14917.1 12 11.0154 0.190941 0.574524 0.403915 0.012857 0.600083 1 1.65314e-08 1 1.65314e-08 0
1657 1 0 3.532 17.66 -4.44936 188019 166484 182601 -18644.8 -13197.2 -22860.9 12 11.0154 0.190941 0.574524 0.403915 0.012857 0.600083 1 2.61384e-08 1 2.61384e-08 1.26218e-29
1658 1 1.766 5.298 17.66 -4.44936 191286 198344 196004 -1812.75 -4562.93 -1103.48 12 11.0154 0.190941 0.574524 0.403915 0.012857 0.600083 1 1.65314e-08 1 1.65314e-08 0
1659 1 1.766 3.532 19.426 -4.44936 107942 190993 182432 -26599.3 38538.3 11284.6 12 11.0154 0.190941 0.574524 0.403915 0.012857 0.600083 1 0 1 0 0
1660 1 0 5.298 19.426 -4.44936 65442.5 64245.4 172067 133937 -59684 59951.3 12 11.0154 0.190941 0.574524 0.403915 0.012857 0.600083 1 2.33789e-08 1 2.33789e-08 1.26218e-29
1661 1 3.532 3.532 17.66 -4.44936 94098.6 -118731 128125 -182314 86003.7 149782 12 11.0154 0.190941 0.574524 0.403915 0.012857 0.600083 1 2.02467e-08 1 2.02467e-08 0
1662 1 5.298 5.298 17.66 -4.44936 121873 143534 197593 65185.2 -9560.95 8103.48 12 11.0154 0.190941 0.574524 0.403915 0.012857 0.600083 1 2.61384e-08 1 2.61384e-08 0
1663 1 5.298 3.532 19.426 -4.44936 181150 188075 188821 13739.7 -13252.8 10327.1 12 11.0154 0.190941 0.574524 0.403915 0.012857 0.600083 1 2.33789e-08 1 2.33789e-08 0
1664 1 3.532 5.298 19.426 -4.44936 198260 142966 159191 5395.75 -4544.36 47008.7 12 11.0154 0.190941 0.574524 0.403915 0.012857 0.600083 1 1.65314e-08 1 1.65314e-08 0
1665 1 7.064 3.532 17.66 -4.44936 197630 118923 158517 9590.14 6809.67 -56705.5 12 11.0154 0.190941 0.574524 0.403915 0.012857 0.600083 1 2.02467e-08 1 2.02467e-08 0
1666 1 8.83 5.298 17.66 -4.44936 198712 194368 154398 554.165 -1757.2 13997.5 12 11.0154 0.190941 0.574524 0.403915 0.012857 0.600083 1 2.02467e-08 1 2.02467e-08 0
1667 1 8.83 3.532 19.426 -4.44936 178045 193359 198660 10604.7 1588.57 -812.368 12 11.0154 0.190941 0.574524 0.403915 0.012857 0.600083 1 0 1 0 0
1668 1 7.064 5.298 19.426 -4.44936 167605 188529 187304 17879.1 -18916.4 10848.1 12 11.0154 0.190941 0.574524 0.403915 0.012857 0.600083 1 1.65314e-08 1 1.65314e-08 0
1669 1 10.596 3.532 17.66 -4.44936 191603 198749 193878 -488.92 5933.46 404.088 12 11.0154 0.190941 0.574524 0.403915 0.012857 0.600083 1 1.65314e-08 1 1.65314e-08 0
1670 1 12.362 5.298 17.66 -4.44936 198398 143861 194307 -4591.29 -1310.5 -15676.2 12 11.0154 0.190941 0.574524 0.403915 0.012857 0.600083 1 1.65314e-08 1 1.65314e-08 0
1671 1 12.362 3.532 19.426 -4.44936 160946 198781 196216 172.612 9853.78 -44.9542 12 11.0154 0.190941 0.574524 0.403915 0.012857 0.600083 1 0 1 0 0
1672 1 10.596 5.298 19.426 -4.44936 198750 198762 198748 25.4544 -32.9287 26.1195 12 11.0154 0.190941 0.574524 0.403915 0.012857 0.600083 1 0 1 0 0
1673 1 14.128 3.532 17.66 -4.44936 148050 196909 190073 9748.73 21019.8 -4039.18 12 11.0154 0.190941 0.574524 0.403915 0.012857 0.600083 1 2.02467e-08 1 2.02467e-08 0
1674 1 15.894 5.298 17.66 -4.44936 30359.9 197389 122436 15317.5 -113395 10312.9 12 11.0154 0.190941 0.574524 0.403915 0.012857 0.600083 1 2.02467e-08 1 2.02467e-08 0
1675 1 15.894 3.532 19.426 -4.44936 157831 58067.5 -252708 -75910.4 -135974 -252054 12 11.0154 0.190941 0.574524 0.403915 0.012857 0.600083 1 2.33789e-08 1 2.33789e-08 0
1676 1 14.128 5.298 19.426 -4.44936 186702 197377 192021 4119.04 9037.23 -3081.5 12 11.0154 0.190941 0.574524 0.403915 0.012857 0.600083 1 1.65314e-08 1 1.65314e-08 0
1677 1 17.66 3.532 17.66 -4.44936 178847 191281 188832 12228.2 -14083.9 8639.27 12 11.0154 0.190941 0.574524 0.403915 0.012857 0.600083 1 1.16894e-08 1 1.16894e-08 0
1678 1 19.426 5.298 17.66 -4.44936 69075.6 138526 189119 -88405.9 35403.3 24130.4 12 11.0154 0.190941 0.574524 0.403915 0.012857 0.600083 1 2.86331e-08 1 2.86331e-08 0
1679 1 19.426 3.532 19.426 -4.44936 198637 138102 181773 -2968.49 -1571.66 -32126.5 12 11.0154 0.190941 0.574524 0.403915 0.012857 0.600083 1 2.02467e-08 1 2.02467e-08 0
1680 1 17.66 5.298 19.426 -4.44936 147492 133418 59254.8 57901.1 84595.3 -95499 12 11.0154 0.190941 0.574524 0.403915 0.012857 0.600083 1 2.33789e-08 1 2.33789e-08 0
1681 1 21.192 3.532 17.66 -4.44936 193605 195992 198529 3800.05 -1143.74 839.587 12 11.0154 0.190941 0.574524 0.403915 0.012857 0.600083 1 0 1 0 0
1682 1 22.958 5.298 17.66 -4.44936 175405 194538 185081 9960.11 -17896.5 7624.99 12 11.0154 0.190941 0.574524 0.403915 0.012857 0.600083 1 2.33789e-08 1 2.33789e-08 0
1683 1 22.958 3.532 19.426 -4.44936 195419 179638 198764 8023.8 -248.74 593.482 12 11.0154 0.190941 0.574524 0.403915 0.012857 0.600083 1 0 1 0 0
1684 1 21.192 5.298 19.426 -4.44936 197194 163767 175279 -7456.29 -6108.88 -28687.5 12 11.0154 0.190941 0.574524 0.403915 0.012857 0.600083 1 1.65314e-08 1 1.65314e-08 0
1685 1 24.724 3.532 17.66 -4.44936 104543 198621 191326 -3892.58 -26507.3 -1094.89 12 11.0154 0.190941 0.574524 0.403915 0.012857 0.600083 1 2.61384e-08 1 2.61384e-08 0
1686 1 26.49 5.298 17.66 -4.44936 198341 195634 189878 -1178.28 1981.66 5294.21 12 11.0154 0.190941 0.574524 0.403915 0.012857 0.600083 1 2.86331e-08 1 2.86331e-08 0
1687 1 26.49 3.532 19.426 -4.44936 71649.7 198202 118441 -8587.94 101064 6827 12 11.0154 0.190941 0.574524 0.403915 0.012857 0.600083 1 2.02467e-08 1 2.02467e-08 0
1688 1 24.724 5.298 19.426 -4.44936 170941 189529 86422.4 16050.1 -55930.1 32243.6 12 11.0154 0.190941 0.574524 0.403915 0.012857 0.600083 1 1.65314e-08 1 1.65314e-08 0
1689 1 28.256 3.532 17.66 -4.44936 198639 193227 159530 -891.389 2369.56 14765.8 12 11.0154 0.190941 0.574524 0.403915 0.012857 0.600083 1 1.16894e-08 1 1.16894e-08 0
1690 1 30.022 5.298 17.66 -4.44936 197524 198142 162324 897.165 6773.09 -4829.26 12 11.0154 0.190941 0.574524 0.403915 0.012857 0.600083 1 2.33789e-08 1 2.33789e-08 0
1691 1 30.022 3.532 19.426 -4.44936 198237 197691 193984 -770.967 -1616.5 -2288.48 12 11.0154 0.190941 0.574524 0.403915 0.012857 0.600083 1 1.65314e-08 1 1.65314e-08 0
1692 1 28.256 5.298 19.426 -4.44936 167658 17515.2 75060.3 75111.4 -62054 149755 12 11.0154 0.190941 0.574524 0.403915 0.012857 0.600083 1 1.65314e-08 1 1.65314e-08 0
1693 1 0 7.064 17.66 -4.44936 175318 160541 187335 -29954.4 -16388.4 -20922.1 12 11.0154 0.190941 0.574524 0.403915 0.012857 0.600083 1 2.02467e-08 1 2.02467e-08 1.26218e-29
1694 1 1.766 8.83 17.66 -4.44936 172201 140167 198172 39472 4026.24 -5978.89 12 11.0154 0.190941 0.574524 0.403915 0.012857 0.600083 1 1.65314e-08 1 1.65314e-08 0
1695 1 1.766 7.064 19.426 -4.44936 181405 198756 158487 676.61 -26461.1 1030.35 12 11.0154 0.190941 0.574524 0.403915 0.012857 0.600083 1 2.33789e-08 1 2.33789e-08 0
1696 1 0 8.83 19.426 -4.44936 166868 152420 187183 -38465.3 -19239.6 -23189.4 12 11.0154 0.190941 0.574524 0.403915 0.012857 0.600083 1 1.65314e-08 1 1.65314e-08 1.26218e-29
1697 1 3.532 7.064 17.66 -4.44936 196493 162299 173434 -9138.78 -7617.52 -30410 12 11.0154 0.190941 0.574524 0.403915 0.012857 0.600083 1 2.02467e-08 1 2.02467e-08 0
1698 1 5.298 8.83 17.66 -4.44936 149565 189337 197632 21560.7 7522.59 -3295.47 12 11.0154 0.190941 0.574524 0.403915 0.012857 0.600083 1 2.02467e-08 1 2.02467e-08 0
1699 1 5.298 7.064 19.426 -4.44936 191121 152083 198478 -18914.2 1525.47 3766.35 12 11.0154 0.190941 0.574524 0.403915 0.012857 0.600083 1 2.33789e-08 1 2.33789e-08 0
1700 1 3.532 8.83 19.426 -4.44936 197209 198321 193855 851.105 -2783.71 1506.54 12 11.0154 0.190941 0.574524 0.403915 0.012857 0.600083 1 0 1 0 0
1701 1 7.064 7.064 17.66 -4.44936 175220 192875 180597 11797.6 20699.4 -10364.3 12 11.0154 0.190941 0.574524 0.403915 0.012857 0.600083 1 1.65314e-08 1 1.65314e-08 0
1702 1 8.83 8.83 17.66 -4.44936 195651 197872 175739 -1687.7 8493.66 4578.75 12 11.0154 0.190941 0.574524 0.403915 0.012857 0.600083 1 2.02467e-08 1 2.02467e-08 0
1703 1 8.83 7.064 19.426 -4.44936 194161 44715.2 190637 -26680.9 6134.82 35425 12 11.0154 0.190941 0.574524 0.403915 0.012857 0.600083 1 2.33789e-08 1 2.33789e-08 0
1704 1 7.064 8.83 19.426 -4.44936 191890 152510 100498 17857.5 -26025.6 67437.2 12 11.0154 0.190941 0.574524 0.403915 0.012857 0.600083 1 0 1 0 0
1705 1 10.596 7.064 17.66 -4.44936 184887 86730.4 185955 39458.4 13350.6 -37912.2 12 11.0154 0.190941 0.574524 0.403915 0.012857 0.600083 1 2.33789e-08 1 2.33789e-08 0
1706 1 12.362 8.83 17.66 -4.44936 168878 198670 197858 -1826.58 -5256.93 -321.1 12 11.0154 0.190941 0.574524 0.403915 0.012857 0.600083 1 2.02467e-08 1 2.02467e-08 0
1707 1 12.362 7.064 19.426 -4.44936 190231 193745 198730 -6563.08 -668.119 -512.786 12 11.0154 0.190941 0.574524 0.403915 0.012857 0.600083 1 1.65314e-08 1 1.65314e-08 0
1708 1 10.596 8.83 19.426 -4.44936 192602 198660 175743 -867.65 11932 1675.34 12 11.0154 0.190941 0.574524 0.403915 0.012857 0.600083 1 2.33789e-08 1 2.33789e-08 0
1709 1 14.128 7.064 17.66 -4.44936 96419.3 164464 -26732 59269.5 -151935 87972.6 12 11.0154 0.190941 0.574524 0.403915 0.012857 0.600083 1 2.02467e-08 1 2.02467e-08 0
1710 1 15.894 8.83 17.66 -4.44936 184002 186112 172930 13684.8 -19547.5 18098.6 12 11.0154 0.190941 0.574524 0.403915 0.012857 0.600083 1 1.65314e-08 1 1.65314e-08 0
1711 1 15.894 7.064 19.426 -4.44936 198314 197785 113489 -683.238 6321.09 9219.23 12 11.0154 0.190941 0.574524 0.403915 0.012857 0.600083 1 2.33789e-08 1 2.33789e-08 0
1712 1 14.128 8.83 19.426 -4.44936 193364 172108 -32324.9 12021.6 35385.5 -78514.3 12 11.0154 0.190941 0.574524 0.403915 0.012857 0.600083 1 0 1 0 0
1713 1 17.66 7.064 17.66 -4.44936 -200732 178705 180878 -89561 -84573.8 -18959.3 12 11.0154 0.190941 0.574524 0.403915 0.012857 0.600083 1 2.02467e-08 1 2.02467e-08 0
1714 1 19.426 8.83 17.66 -4.44936 155564 198635 92783.7 2522.39 -67683.2 3950.3 12 11.0154 0.190941 0.574524 0.403915 0.012857 0.600083 1 2.86331e-08 1 2.86331e-08 0
1715 1 19.426 7.064 19.426 -4.44936 190264 179523 21933.8 -12808.2 38812.6 58360.1 12 11.0154 0.190941 0.574524 0.403915 0.012857 0.600083 1 1.16894e-08 1 1.16894e-08 0
1716 1 17.66 8.83 19.426 -4.44936 193226 135740 148570 -18714.8 -16702.3 -56262.6 12 11.0154 0.190941 0.574524 0.403915 0.012857 0.600083 1 2.33789e-08 1 2.33789e-08 0
1717 1 21.192 7.064 17.66 -4.44936 193854 197172 86750.3 -2816.67 -23496.3 -13430 12 11.0154 0.190941 0.574524 0.403915 0.012857 0.600083 1 1.16894e-08 1 1.16894e-08 0
1718 1 22.958 8.83 17.66 -4.44936 195139 198362 134907 1236.99 -15253.5 5179.95 12 11.0154 0.190941 0.574524 0.403915 0.012857 0.600083 1 2.02467e-08 1 2.02467e-08 0
1719 1 22.958 7.064 19.426 -4.44936 195371 180827 197945 -7825.74 -1689.12 -3875.41 12 11.0154 0.190941 0.574524 0.403915 0.012857 0.600083 1 1.16894e-08 1 1.16894e-08 0
1720 1 21.192 8.83 19.426 -4.44936 198611 172835 194909 2104.85 813.228 -10025 12 11.0154 0.190941 0.574524 0.403915 0.012857 0.600083 1 1.16894e-08 1 1.16894e-08 0
1721 1 24.724 7.064 17.66 -4.44936 97720.1 196898 195463 -13799 18315.5 2500.79 12 11.0154 0.190941 0.574524 0.403915 0.012857 0.600083 1 2.61384e-08 1 2.61384e-08 0
1722 1 26.49 8.83 17.66 -4.44936 187063 60607.7 161882 40239.5 -20794.6 71404.5 12 11.0154 0.190941 0.574524 0.403915 0.012857 0.600083 1 2.33789e-08 1 2.33789e-08 0
1723 1 26.49 7.064 19.426 -4.44936 138574 58874.4 137129 -91779.6 -60926.1 -92874.9 12 11.0154 0.190941 0.574524 0.403915 0.012857 0.600083 1 1.16894e-08 1 1.16894e-08 0
1724 1 24.724 8.83 19.426 -4.44936 55992.2 198524 100822 -6070.79 118270 5028.31 12 11.0154 0.190941 0.574524 0.403915 0.012857 0.600083 1 2.86331e-08 1 2.86331e-08 0
1725 1 28.256 7.064 17.66 -4.44936 94899.3 108212 178148 -96998.1 -46298.3 -43230 12 11.0154 0.190941 0.574524 0.403915 0.012857 0.600083 1 1.16894e-08 1 1.16894e-08 0
1726 1 30.022 8.83 17.66 -4.44936 176515 198731 185287 -1068.08 -17334.8 -831.49 12 11.0154 0.190941 0.574524 0.403915 0.012857 0.600083 1 2.33789e-08 1 2.33789e-08 0
1727 1 30.022 7.064 19.426 -4.44936 175648 185971 67341.1 -17215.6 -55142.8 -41035.8 12 11.0154 0.190941 0.574524 0.403915 0.012857 0.600083 1 0 1 0 0
1728 1 28.256 8.83 19.426 -4.44936 198325 193868 197894 -1498.67 -637.172 -2089.42 12 11.0154 0.190941 0.574524 0.403915 0.012857 0.600083 1 1.65314e-08 1 1.65314e-08 0
1729 1 0 10.596 17.66 -4.44936 150536 121139 198781 61204.3 151.596 -192.314 12 11.0154 0.190941 0.574524 0.403915 0.012857 0.600083 1 2.02467e-08 1 2.02467e-08 1.26218e-29
1730 1 1.766 12.362 17.66 -4.44936 188099 184540 152523 12334.8 -22230.3 25667.5 12 11.0154 0.190941 0.574524 0.403915 0.012857 0.600083 1 1.65314e-08 1 1.65314e-08 0
1731 1 1.766 10.596 19.426 -4.44936 56849.2 171391 186741 -62351.6 -41340.6 -18161.1 12 11.0154 0.190941 0.574524 0.403915 0.012857 0.600083 1 1.65314e-08 1 1.65314e-08 0
1732 1 0 12.362 19.426 -4.44936 193638 198342 170824 1504.29 -11992.6 3506.88 12 11.0154 0.190941 0.574524 0.403915 0.012857 0.600083 1 2.61384e-08 1 2.61384e-08 1.26218e-29
1733 1 3.532 10.596 17.66 -4.44936 139512 188714 194810 24427.8 -15343.4 6323.67 12 11.0154 0.190941 0.574524 0.403915 0.012857 0.600083 1 2.02467e-08 1 2.02467e-08 0
1734 1 5.298 12.362 17.66 -4.44936 193729 192177 44219.3 5777.1 -27947.1 31950.5 12 11.0154 0.190941 0.574524 0.403915 0.012857 0.600083 1 2.33789e-08 1 2.33789e-08 0
1735 1 5.298 10.596 19.426 -4.44936 5276.1 -31377.2 195572 211038 24922 -27180 12 11.0154 0.190941 0.574524 0.403915 0.012857 0.600083 1 1.65314e-08 1 1.65314e-08 0
1736 1 3.532 12.362 19.426 -4.44936 194936 198755 187451 322.139 6601.32 -552.947 12 11.0154 0.190941 0.574524 0.403915 0.012857 0.600083 1 2.33789e-08 1 2.33789e-08 0
1737 1 7.064 10.596 17.66 -4.44936 91383.6 71203.6 143424 -117054 -77106.4 -84038.9 12 11.0154 0.190941 0.574524 0.403915 0.012857 0.600083 1 1.65314e-08 1 1.65314e-08 0
1738 1 8.83 12.362 17.66 -4.44936 52705.5 191040 110271 -33629.3 113707 26177.4 12 11.0154 0.190941 0.574524 0.403915 0.012857 0.600083 1 1.65314e-08 1 1.65314e-08 0
1739 1 8.83 10.596 19.426 -4.44936 191968 186341 84986.4 9206.85 -27845.3 37625.7 12 11.0154 0.190941 0.574524 0.403915 0.012857 0.600083 1 0 1 0 0
1740 1 7.064 12.362 19.426 -4.44936 -128542 184386 160208 -68645.2 -112366 -23564.9 12 11.0154 0.190941 0.574524 0.403915 0.012857 0.600083 1 2.33789e-08 1 2.33789e-08 0
1741 1 10.596 10.596 17.66 -4.44936 170563 -44470.3 193305 82851.2 12432.4 -36501.7 12 11.0154 0.190941 0.574524 0.403915 0.012857 0.600083 1 2.61384e-08 1 2.61384e-08 0
1742 1 12.362 12.362 17.66 -4.44936 121321 176388 133525 -41649.2 71097.5 38227.7 12 11.0154 0.190941 0.574524 0.403915 0.012857 0.600083 1 1.65314e-08 1 1.65314e-08 0
1743 1 12.362 10.596 19.426 -4.44936 7756.27 173704 198781 69213.2 -307.046 111.25 12 11.0154 0.190941 0.574524 0.403915 0.012857 0.600083 1 1.65314e-08 1 1.65314e-08 0
1744 1 10.596 12.362 19.426 -4.44936 189353 197833 183180 2991.62 12129.2 -3848.2 12 11.0154 0.190941 0.574524 0.403915 0.012857 0.600083 1 2.33789e-08 1 2.33789e-08 0
1745 1 14.128 10.596 17.66 -4.44936 140182 168066 152111 42426.1 -52296.3 37862.2 12 11.0154 0.190941 0.574524 0.403915 0.012857 0.600083 1 2.02467e-08 1 2.02467e-08 0
1746 1 15.894 12.362 17.66 -4.44936 168464 198781 179572 -148.677 24132.8 118.345 12 11.0154 0.190941 0.574524 0.403915 0.012857 0.600083 1 2.02467e-08 1 2.02467e-08 0
1747 1 15.894 10.596 19.426 -4.44936 196878 186492 131110 -4837.73 11352.1 28838.7 12 11.0154 0.190941 0.574524 0.403915 0.012857 0.600083 1 1.65314e-08 1 1.65314e-08 0
1748 1 14.128 12.362 19.426 -4.44936 170331 173955 187193 26577.5 18157.9 -16962.2 12 11.0154 0.190941 0.574524 0.403915 0.012857 0.600083 1 2.33789e-08 1 2.33789e-08 0
1749 1 17.66 10.596 17.66 -4.44936 89170.8 195120 183153 -20033.6 41389.2 7564.7 12 11.0154 0.190941 0.574524 0.403915 0.012857 0.600083 1 2.02467e-08 1 2.02467e-08 0
1750 1 19.426 12.362 17.66 -4.44936 198187 177558 198581 -3554.65 -345.748 -2064.35 12 11.0154 0.190941 0.574524 0.403915 0.012857 0.600083 1 2.86331e-08 1 2.86331e-08 0
1751 1 19.426 10.596 19.426 -4.44936 20980.6 163108 196581 -79641.8 -19780.7 -8860.27 12 11.0154 0.190941 0.574524 0.403915 0.012857 0.600083 1 0 1 0 0
1752 1 17.66 12.362 19.426 -4.44936 185540 88683.2 132619 38183.3 29599.8 -85349 12 11.0154 0.190941 0.574524 0.403915 0.012857 0.600083 1 2.33789e-08 1 2.33789e-08 0
1753 1 21.192 10.596 17.66 -4.44936 195849 187132 198471 5845.2 -954.605 1902.53 12 11.0154 0.190941 0.574524 0.403915 0.012857 0.600083 1 2.02467e-08 1 2.02467e-08 0
1754 1 22.958 12.362 17.66 -4.44936 197373 189222 94628.6 -3670.53 12115.4 31554.6 12 11.0154 0.190941 0.574524 0.403915 0.012857 0.600083 1 2.33789e-08 1 2.33789e-08 0
1755 1 22.958 10.596 19.426 -4.44936 172006 147969 -86266.5 36886.4 -87364.6 120351 12 11.0154 0.190941 0.574524 0.403915 0.012857 0.600083 1 0 1 0 0
1756 1 21.192 12.362 19.426 -4.44936 106470 170418 190294 51169.8 27992.4 -15516.6 12 11.0154 0.190941 0.574524 0.403915 0.012857 0.600083 1 2.02467e-08 1 2.02467e-08 0
1757 1 24.724 10.596 17.66 -4.44936 198756 181709 -15387.2 -671.436 -2378.09 -60469.2 12 11.0154 0.190941 0.574524 0.403915 0.012857 0.600083 1 2.33789e-08 1 2.33789e-08 0
1758 1 26.49 12.362 17.66 -4.44936 -8938.84 172727 153977 -73567.3 -96472.5 -34167.1 12 11.0154 0.190941 0.574524 0.403915 0.012857 0.600083 1 2.86331e-08 1 2.86331e-08 0
1759 1 26.49 10.596 19.426 -4.44936 168133 157846 99762.8 -35420.8 -55089 -63666.9 12 11.0154 0.190941 0.574524 0.403915 0.012857 0.600083 1 1.16894e-08 1 1.16894e-08 0
1760 1 24.724 12.362 19.426 -4.44936 195077 152611 96653.9 -13079 -19451.9 -68668.1 12 11.0154 0.190941 0.574524 0.403915 0.012857 0.600083 1 2.86331e-08 1 2.86331e-08 0
1761 1 28.256 10.596 17.66 -4.44936 158449 187500 197247 21331.7 -7867.02 4160.81 12 11.0154 0.190941 0.574524 0.403915 0.012857 0.600083 1 2.02467e-08 1 2.02467e-08 0
1762 1 30.022 12.362 17.66 -4.44936 172853 58158.7 173476 -60384 25615.7 59654.4 12 11.0154 0.190941 0.574524 0.403915 0.012857 0.600083 1 2.33789e-08 1 2.33789e-08 0
1763 1 30.022 10.596 19.426 -4.44936 190415 104113 179463 -28145 -12714.2 -42765.8 12 11.0154 0.190941 0.574524 0.403915 0.012857 0.600083 1 1.16894e-08 1 1.16894e-08 0
1764 1 28.256 12.362 19.426 -4.44936 180864 72574.5 188827 -47553.4 -13355.6 -35446 12 11.0154 0.190941 0.574524 0.403915 0.012857 0.600083 1 1.16894e-08 1 1.16894e-08 0
1765 1 0 14.128 17.66 -4.44936 195661 136149 89094.3 13982.3 18503.5 -82886.1 12 11.0154 0.190941 0.574524 0.403915 0.012857 0.600083 1 2.61384e-08 1 2.61384e-08 1.26218e-29
1766 1 1.766 15.894 17.66 -4.44936 109999 197103 103208 12209.4 -92115.6 12667.7 12 11.0154 0.190941 0.574524 0.403915 0.012857 0.600083 1 1.65314e-08 1 1.65314e-08 0
1767 1 1.766 14.128 19.426 -4.44936 171732 184981 157845 19321.1 -33276.6 23768.8 12 11.0154 0.190941 0.574524 0.403915 0.012857 0.600083 1 0 1 0 0
1768 1 0 15.894 19.426 -4.44936 170659 195985 87823.1 8869.61 -55861.8 17617.8 12 11.0154 0.190941 0.574524 0.403915 0.012857 0.600083 1 2.33789e-08 1 2.33789e-08 1.26218e-29
1769 1 3.532 14.128 17.66 -4.44936 140640 92725 176003 78526.3 -36392.8 49151.8 12 11.0154 0.190941 0.574524 0.403915 0.012857 0.600083 1 2.02467e-08 1 2.02467e-08 0
1770 1 5.298 15.894 17.66 -4.44936 151139 181138 198748 -28993 -1269.83 -772.754 12 11.0154 0.190941 0.574524 0.403915 0.012857 0.600083 1 1.65314e-08 1 1.65314e-08 0
1771 1 5.298 14.128 19.426 -4.44936 193549 173365 193976 11533.1 5015.32 -11052.7 12 11.0154 0.190941 0.574524 0.403915 0.012857 0.600083 1 2.33789e-08 1 2.33789e-08 0
1772 1 3.532 15.894 19.426 -4.44936 93248.9 183505 113167 -40152.4 95054 36165.4 12 11.0154 0.190941 0.574524 0.403915 0.012857 0.600083 1 1.65314e-08 1 1.65314e-08 0
1773 1 7.064 14.128 17.66 -4.44936 198164 192253 94463.2 -2008.87 8029.83 26098.1 12 11.0154 0.190941 0.574524 0.403915 0.012857 0.600083 1 2.02467e-08 1 2.02467e-08 0
1774 1 8.83 15.894 17.66 -4.44936 190421 35992 99825.5 -36893.2 28764.3 126922 12 11.0154 0.190941 0.574524 0.403915 0.012857 0.600083 1 1.65314e-08 1 1.65314e-08 0
1775 1 8.83 14.128 19.426 -4.44936 196598 188848 96894.9 4657.76 14917 -31813.8 12 11.0154 0.190941 0.574524 0.403915 0.012857 0.600083 1 0 1 0 0
1776 1 7.064 15.894 19.426 -4.44936 197228 186876 172748 -4301.49 6360.85 17605.6 12 11.0154 0.190941 0.574524 0.403915 0.012857 0.600083 1 0 1 0 0
1777 1 10.596 14.128 17.66 -4.44936 180207 124597 188048 -37121 -14120.3 -28218.8 12 11.0154 0.190941 0.574524 0.403915 0.012857 0.600083 1 1.65314e-08 1 1.65314e-08 0
1778 1 12.362 15.894 17.66 -4.44936 194622 130584 196486 16843.9 3090.37 -12512.3 12 11.0154 0.190941 0.574524 0.403915 0.012857 0.600083 1 1.65314e-08 1 1.65314e-08 0
1779 1 12.362 14.128 19.426 -4.44936 142883 196618 151354 10999.2 -51489.5 10131.6 12 11.0154 0.190941 0.574524 0.403915 0.012857 0.600083 1 0 1 0 0
1780 1 10.596 15.894 19.426 -4.44936 140958 173093 193730 38541.2 -17092.2 11392.4 12 11.0154 0.190941 0.574524 0.403915 0.012857 0.600083 1 1.65314e-08 1 1.65314e-08 0
1781 1 14.128 14.128 17.66 -4.44936 179509 185468 -75698.1 16019.2 72733.3 -60452.9 12 11.0154 0.190941 0.574524 0.403915 0.012857 0.600083 1 2.02467e-08 1 2.02467e-08 0
1782 1 15.894 15.894 17.66 -4.44936 193092 196061 196574 -3934.95 3544.39 2451.31 12 11.0154 0.190941 0.574524 0.403915 0.012857 0.600083 1 2.02467e-08 1 2.02467e-08 0
1783 1 15.894 14.128 19.426 -4.44936 195331 182265 108631 -7550.15 -17639.1 -38587.8 12 11.0154 0.190941 0.574524 0.403915 0.012857 0.600083 1 2.33789e-08 1 2.33789e-08 0
1784 1 14.128 15.894 19.426 -4.44936 165993 154107 159113 38273 36065.1 -42097.4 12 11.0154 0.190941 0.574524 0.403915 0.012857 0.600083 1 1.65314e-08 1 1.65314e-08 0
1785 1 17.66 14.128 17.66 -4.44936 196746 160404 173919 -8839.39 -7114.75 -30890.3 12 11.0154 0.190941 0.574524 0.403915 0.012857 0.600083 1 1.16894e-08 1 1.16894e-08 0
1786 1 19.426 15.894 17.66 -4.44936 198763 196711 189555 198.593 -419.229 4371.03 12 11.0154 0.190941 0.574524 0.403915 0.012857 0.600083 1 2.33789e-08 1 2.33789e-08 0
1787 1 19.426 14.128 19.426 -4.44936 198779 198452 197801 -32.4954 56.0031 569.167 12 11.0154 0.190941 0.574524 0.403915 0.012857 0.600083 1 2.02467e-08 1 2.02467e-08 0
1788 1 17.66 15.894 19.426 -4.44936 198527 57445.2 192665 5998.16 1247.84 -29403.3 12 11.0154 0.190941 0.574524 0.403915 0.012857 0.600083 1 2.33789e-08 1 2.33789e-08 0
1789 1 21.192 14.128 17.66 -4.44936 181753 47004.8 120840 -50838.6 36431.5 108765 12 11.0154 0.190941 0.574524 0.403915 0.012857 0.600083 1 0 1 0 0
1790 1 22.958 15.894 17.66 -4.44936 163275 126255 145224 50746.7 43608.5 -62325 12 11.0154 0.190941 0.574524 0.403915 0.012857 0.600083 1 2.33789e-08 1 2.33789e-08 0
1791 1 22.958 14.128 19.426 -4.44936 189893 197124 59381.4 3838.79 35201.7 -15201.8 12 11.0154 0.190941 0.574524 0.403915 0.012857 0.600083 1 0 1 0 0
1792 1 21.192 15.894 19.426 -4.44936 -169176 153203 198007 -129503 16883.3 5942.1 12 11.0154 0.190941 0.574524 0.403915 0.012857 0.600083 1 2.02467e-08 1 2.02467e-08 0
1793 1 24.724 14.128 17.66 -4.44936 193598 194669 197372 -4617.47 2703.88 2408.32 12 11.0154 0.190941 0.574524 0.403915 0.012857 0.600083 1 2.61384e-08 1 2.61384e-08 0
1794 1 26.49 15.894 17.66 -4.44936 197814 181719 187084 4062.98 3364.16 -14127.9 12 11.0154 0.190941 0.574524 0.403915 0.012857 0.600083 1 2.33789e-08 1 2.33789e-08 0
1795 1 26.49 14.128 19.426 -4.44936 142264 197664 190413 -7947.65 -21748.4 -3058.28 12 11.0154 0.190941 0.574524 0.403915 0.012857 0.600083 1 2.02467e-08 1 2.02467e-08 0
1796 1 24.724 15.894 19.426 -4.44936 198781 183345 197216 -102.064 32.5025 4916.06 12 11.0154 0.190941 0.574524 0.403915 0.012857 0.600083 1 1.65314e-08 1 1.65314e-08 0
1797 1 28.256 14.128 17.66 -4.44936 184796 198502 194787 1979.86 7474.33 -1058.09 12 11.0154 0.190941 0.574524 0.403915 0.012857 0.600083 1 1.16894e-08 1 1.16894e-08 0
1798 1 30.022 15.894 17.66 -4.44936 136210 190787 197460 22366.4 -9093.65 3250.52 12 11.0154 0.190941 0.574524 0.403915 0.012857 0.600083 1 2.02467e-08 1 2.02467e-08 0
1799 1 30.022 14.128 19.426 -4.44936 63248.9 170566 137060 61840.6 -91462.7 41732.3 12 11.0154 0.190941 0.574524 0.403915 0.012857 0.600083 1 1.65314e-08 1 1.65314e-08 0
1800 1 28.256 15.894 19.426 -4.44936 198616 143413 194508 -3030.82 842.045 15383.1 12 11.0154 0.190941 0.574524 0.403915 0.012857 0.600083 1 1.16894e-08 1 1.16894e-08 0
1801 1 0 17.66 17.66 -4.44936 176969 195406 191618 8581.39 12500.9 -4917.85 12 11.0154 0.190941 0.574524 0.403915 0.012857 0.600083 1 2.61384e-08 1 2.61384e-08 1.26218e-29
1802 1 1.766 19.426 17.66 -4.44936 174786 197807 195791 -4836.97 -8472.16 -1707.79 12 11.0154 0.190941 0.574524 0.403915 0.012857 0.600083 1 2.33789e-08 1 2.33789e-08 0
1803 1 1.766 17.66 19.426 -4.44936 101232 167717 125537 -55048.6 -84528 -47700.4 12 11.0154 0.190941 0.574524 0.403915 0.012857 0.600083 1 1.65314e-08 1 1.65314e-08 0
1804 1 0 19.426 19.426 -4.44936 190647 116004 196158 25950.6 -4620.01 14737 12 11.0154 0.190941 0.574524 0.403915 0.012857 0.600083 1 1.65314e-08 1 1.65314e-08 1.26218e-29
1805 1 3.532 17.66 17.66 -4.44936 198517 194888 198617 -1015.71 -208.929 -801.023 12 11.0154 0.190941 0.574524 0.403915 0.012857 0.600083 1 1.16894e-08 1 1.16894e-08 0
1806 1 5.298 19.426 17.66 -4.44936 182670 189022 179649 -12539.9 17557.8 13664.8 12 11.0154 0.190941 0.574524 0.403915 0.012857 0.600083 1 2.02467e-08 1 2.02467e-08 0
1807 1 5.298 17.66 19.426 -4.44936 194997 137664 198374 -15208.8 -1241.83 -4990.45 12 11.0154 0.190941 0.574524 0.403915 0.012857 0.600083 1 2.33789e-08 1 2.33789e-08 0
1808 1 3.532 19.426 19.426 -4.44936 171662 198775 182376 426.776 21093.7 -331.942 12 11.0154 0.190941 0.574524 0.403915 0.012857 0.600083 1 1.16894e-08 1 1.16894e-08 0
1809 1 7.064 17.66 17.66 -4.44936 194232 142617 109568 -15985.6 -20147.2 -70785.9 12 11.0154 0.190941 0.574524 0.403915 0.012857 0.600083 1 2.61384e-08 1 2.61384e-08 0
1810 1 8.83 19.426 17.66 -4.44936 127727 194483 133259 17477.5 -68233.1 16783.3 12 11.0154 0.190941 0.574524 0.403915 0.012857 0.600083 1 2.86331e-08 1 2.86331e-08 0
1811 1 8.83 17.66 19.426 -4.44936 170036 192164 101750 -13793 52813.4 25341.2 12 11.0154 0.190941 0.574524 0.403915 0.012857 0.600083 1 0 1 0 0
1812 1 7.064 19.426 19.426 -4.44936 183803 24941.3 197433 -51029.5 -4495.16 -15313.5 12 11.0154 0.190941 0.574524 0.403915 0.012857 0.600083 1 2.33789e-08 1 2.33789e-08 0
1813 1 10.596 17.66 17.66 -4.44936 193836 197832 142232 -2168.17 16724.7 7331.06 12 11.0154 0.190941 0.574524 0.403915 0.012857 0.600083 1 1.16894e-08 1 1.16894e-08 0
1814 1 12.362 19.426 17.66 -4.44936 180410 112566 175765 -39799.3 20563.7 44546.6 12 11.0154 0.190941 0.574524 0.403915 0.012857 0.600083 1 2.33789e-08 1 2.33789e-08 0
1815 1 12.362 17.66 19.426 -4.44936 193951 198694 156506 -651.529 14291 1927.35 12 11.0154 0.190941 0.574524 0.403915 0.012857 0.600083 1 2.02467e-08 1 2.02467e-08 0
1816 1 10.596 19.426 19.426 -4.44936 181470 167790 152305 -23163.2 -28365.8 -37952.7 12 11.0154 0.190941 0.574524 0.403915 0.012857 0.600083 1 1.16894e-08 1 1.16894e-08 0
1817 1 14.128 17.66 17.66 -4.44936 169884 173691 189363 -26927.1 -16498 -15372.7 12 11.0154 0.190941 0.574524 0.403915 0.012857 0.600083 1 1.16894e-08 1 1.16894e-08 0
1818 1 15.894 19.426 17.66 -4.44936 166305 191440 194701 15441.8 -11512.7 5473.85 12 11.0154 0.190941 0.574524 0.403915 0.012857 0.600083 1 2.33789e-08 1 2.33789e-08 0
1819 1 15.894 17.66 19.426 -4.44936 180013 100104 186574 43035.6 15137 -34708.3 12 11.0154 0.190941 0.574524 0.403915 0.012857 0.600083 1 1.65314e-08 1 1.65314e-08 0
1820 1 14.128 19.426 19.426 -4.44936 196668 150603 118587 10091.6 -13019.8 62159 12 11.0154 0.190941 0.574524 0.403915 0.012857 0.600083 1 1.16894e-08 1 1.16894e-08 0
1821 1 17.66 17.66 17.66 -4.44936 109261 86684.2 194744 -100175 19012.2 21274.9 12 11.0154 0.190941 0.574524 0.403915 0.012857 0.600083 1 2.61384e-08 1 2.61384e-08 0
1822 1 19.426 19.426 17.66 -4.44936 -164920 193695 103612 43014.9 186047 -22003.7 12 11.0154 0.190941 0.574524 0.403915 0.012857 0.600083 1 2.61384e-08 1 2.61384e-08 0
1823 1 19.426 17.66 19.426 -4.44936 157966 139047 2895.44 49377.4 -89416.2 108172 12 11.0154 0.190941 0.574524 0.403915 0.012857 0.600083 1 2.02467e-08 1 2.02467e-08 0
1824 1 17.66 19.426 19.426 -4.44936 194480 126295 197130 17659.4 -2666.21 10944 12 11.0154 0.190941 0.574524 0.403915 0.012857 0.600083 1 2.33789e-08 1 2.33789e-08 0
1825 1 21.192 17.66 17.66 -4.44936 171664 186590 129284 -18183.3 43412.5 29109 12 11.0154 0.190941 0.574524 0.403915 0.012857 0.600083 1 1.65314e-08 1 1.65314e-08 0
1826 1 22.958 19.426 17.66 -4.44936 198294 197809 159226 -689.415 -4395.06 -6204.86 12 11.0154 0.190941 0.574524 0.403915 0.012857 0.600083 1 1.65314e-08 1 1.65314e-08 0
1827 1 22.958 17.66 19.426 -4.44936 126579 104059 198545 -82699.7 -4140.58 -4742.56 12 11.0154 0.190941 0.574524 0.403915 0.012857 0.600083 1 1.65314e-08 1 1.65314e-08 0
1828 1 21.192 19.426 19.426 -4.44936 198471 197425 191343 649.876 -1521.82 3176.9 12 11.0154 0.190941 0.574524 0.403915 0.012857 0.600083 1 1.65314e-08 1 1.65314e-08 0
1829 1 24.724 17.66 17.66 -4.44936 191656 174185 197111 -13239.2 -3450.35 -6410.27 12 11.0154 0.190941 0.574524 0.403915 0.012857 0.600083 1 2.86331e-08 1 2.86331e-08 0
1830 1 26.49 19.426 17.66 -4.44936 197845 198778 98447.6 -62.5007 -9697.61 -646.651 12 11.0154 0.190941 0.574524 0.403915 0.012857 0.600083 1 2.61384e-08 1 2.61384e-08 0
1831 1 26.49 17.66 19.426 -4.44936 161474 145597 198261 -44545 -4406.76 -5261.53 12 11.0154 0.190941 0.574524 0.403915 0.012857 0.600083 1 1.16894e-08 1 1.16894e-08 0
1832 1 24.724 19.426 19.426 -4.44936 196149 112110 183371 15105.1 -6369.32 36546.9 12 11.0154 0.190941 0.574524 0.403915 0.012857 0.600083 1 2.86331e-08 1 2.86331e-08 0
1833 1 28.256 17.66 17.66 -4.44936 193497 -40754.4 -15703.6 -35578.6 33666.9 226665 12 11.0154 0.190941 0.574524 0.403915 0.012857 0.600083 1 0 1 0 0
1834 1 30.022 19.426 17.66 -4.44936 197116 123541 197445 11194.8 -1492.25 10029.6 12 11.0154 0.190941 0.574524 0.403915 0.012857 0.600083 1 2.02467e-08 1 2.02467e-08 0
1835 1 30.022 17.66 19.426 -4.44936 44670 185000 192778 -46087 30418.8 9096.69 12 11.0154 0.190941 0.574524 0.403915 0.012857 0.600083 1 2.02467e-08 1 2.02467e-08 0
1836 1 28.256 19.426 19.426 -4.44936 184474 198728 188736 -879.4 11989.4 736.871 12 11.0154 0.190941 0.574524 0.403915 0.012857 0.600083 1 1.16894e-08 1 1.16894e-08 0
1837 1 0 21.192 17.66 -4.44936 171491 150572 190420 -36272.3 15106.1 20077.7 12 11.0154 0.190941 0.574524 0.403915 0.012857 0.600083 1 2.86331e-08 1 2.86331e-08 1.26218e-29
1838 1 1.766 22.958 17.66 -4.44936 195114 144284 198770 14137.8 206.351 -795.431 12 11.0154 0.190941 0.574524 0.403915 0.012857 0.600083 1 2.33789e-08 1 2.33789e-08 0
1839 1 1.766 21.192 19.426 -4.44936 15635.1 193972 194512 29680.8 27965.3 -4532.05 12 11.0154 0.190941 0.574524 0.403915 0.012857 0.600083 1 1.16894e-08 1 1.16894e-08 0
1840 1 0 22.958 19.426 -4.44936 197412 171853 178030 6073.11 -5331.24 23639.7 12 11.0154 0.190941 0.574524 0.403915 0.012857 0.600083 1 2.02467e-08 1 2.02467e-08 1.26218e-29
1841 1 3.532 21.192 17.66 -4.44936 193536 192018 191830 5957.05 -6039.3 6857.55 12 11.0154 0.190941 0.574524 0.403915 0.012857 0.600083 1 1.16894e-08 1 1.16894e-08 0
1842 1 5.298 22.958 17.66 -4.44936 195501 198782 92038.5 -16.2722 18713.5 92.8182 12 11.0154 0.190941 0.574524 0.403915 0.012857 0.600083 1 2.86331e-08 1 2.86331e-08 0
1843 1 5.298 21.192 19.426 -4.44936 197175 196918 167251 -1730.54 7118.31 7665.62 12 11.0154 0.190941 0.574524 0.403915 0.012857 0.600083 1 1.16894e-08 1 1.16894e-08 0
1844 1 3.532 22.958 19.426 -4.44936 157511 184016 185020 -24686.1 23832.1 14255.2 12 11.0154 0.190941 0.574524 0.403915 0.012857 0.600083 1 1.16894e-08 1 1.16894e-08 0
1845 1 7.064 21.192 17.66 -4.44936 194544 158008 192277 -13145.8 5250.7 16286 12 11.0154 0.190941 0.574524 0.403915 0.012857 0.600083 1 1.65314e-08 1 1.65314e-08 0
1846 1 8.83 22.958 17.66 -4.44936 101832 186016 172907 35181 -50085.5 18174.9 12 11.0154 0.190941 0.574524 0.403915 0.012857 0.600083 1 2.86331e-08 1 2.86331e-08 0
1847 1 8.83 21.192 19.426 -4.44936 186738 -13938 195515 50615.7 6272.46 -26361 12 11.0154 0.190941 0.574524 0.403915 0.012857 0.600083 1 2.02467e-08 1 2.02467e-08 0
1848 1 7.064 22.958 19.426 -4.44936 198051 175554 195107 4120.44 -1638.87 9238.57 12 11.0154 0.190941 0.574524 0.403915 0.012857 0.600083 1 2.33789e-08 1 2.33789e-08 0
1849 1 10.596 21.192 17.66 -4.44936 187273 -97345.1 79575.3 58379.2 37039.9 -187884 12 11.0154 0.190941 0.574524 0.403915 0.012857 0.600083 1 0 1 0 0
1850 1 12.362 22.958 17.66 -4.44936 198367 197373 176535 -764.306 -3036.71 -5599.41 12 11.0154 0.190941 0.574524 0.403915 0.012857 0.600083 1 2.33789e-08 1 2.33789e-08 0
1851 1 12.362 21.192 19.426 -4.44936 186016 176145 182674 16999.4 -14340.1 19095.6 12 11.0154 0.190941 0.574524 0.403915 0.012857 0.600083 1 1.65314e-08 1 1.65314e-08 0
1852 1 10.596 22.958 19.426 -4.44936 194369 49395.4 74763.2 -25675.4 23394.1 136113 12 11.0154 0.190941 0.574524 0.403915 0.012857 0.600083 1 1.65314e-08 1 1.65314e-08 0
1853 1 14.128 21.192 17.66 -4.44936 186944 124543 198743 29645.4 677.503 -1696.61 12 11.0154 0.190941 0.574524 0.403915 0.012857 0.600083 1 1.16894e-08 1 1.16894e-08 0
1854 1 15.894 22.958 17.66 -4.44936 -38915.3 -175420 198553 -298240 -7384.02 -9264.75 12 11.0154 0.190941 0.574524 0.403915 0.012857 0.600083 1 2.86331e-08 1 2.86331e-08 0
1855 1 15.894 21.192 19.426 -4.44936 75109.1 188723 152859 -35271.1 -75362.1 -21493.1 12 11.0154 0.190941 0.574524 0.403915 0.012857 0.600083 1 2.02467e-08 1 2.02467e-08 0
1856 1 14.128 22.958 19.426 -4.44936 190098 185386 165493 -10786 -17002.6 -21117.4 12 11.0154 0.190941 0.574524 0.403915 0.012857 0.600083 1 1.16894e-08 1 1.16894e-08 0
1857 1 17.66 21.192 17.66 -4.44936 186050 198762 169223 -509.144 19399.3 775.788 12 11.0154 0.190941 0.574524 0.403915 0.012857 0.600083 1 1.65314e-08 1 1.65314e-08 0
1858 1 19.426 22.958 17.66 -4.44936 181999 194358 183206 -8617.16 -16168.3 -8301.45 12 11.0154 0.190941 0.574524 0.403915 0.012857 0.600083 1 2.33789e-08 1 2.33789e-08 0
1859 1 19.426 21.192 19.426 -4.44936 195453 166365 198171 -10387.5 -1426.48 -4451.66 12 11.0154 0.190941 0.574524 0.403915 0.012857 0.600083 1 1.65314e-08 1 1.65314e-08 0
1860 1 17.66 22.958 19.426 -4.44936 197223 145844 179516 9085.59 5480.98 -31935.7 12 11.0154 0.190941 0.574524 0.403915 0.012857 0.600083 1 2.02467e-08 1 2.02467e-08 0
1861 1 21.192 21.192 17.66 -4.44936 190913 161490 147443 17130.3 20099.3 -43755.7 12 11.0154 0.190941 0.574524 0.403915 0.012857 0.600083 1 1.65314e-08 1 1.65314e-08 0
1862 1 22.958 22.958 17.66 -4.44936 135584 185876 57815.8 28559.7 94386.1 -42654 12 11.0154 0.190941 0.574524 0.403915 0.012857 0.600083 1 2.33789e-08 1 2.33789e-08 0
1863 1 22.958 21.192 19.426 -4.44936 146231 182888 132478 28900.7 -59028.4 32462.8 12 11.0154 0.190941 0.574524 0.403915 0.012857 0.600083 1 2.61384e-08 1 2.61384e-08 0
1864 1 21.192 22.958 19.426 -4.44936 -172281 124832 137266 -165650 -151084 -67446.9 12 11.0154 0.190941 0.574524 0.403915 0.012857 0.600083 1 1.65314e-08 1 1.65314e-08 0
1865 1 24.724 21.192 17.66 -4.44936 183551 183512 168725 15250.7 -21396.1 21423.7 12 11.0154 0.190941 0.574524 0.403915 0.012857 0.600083 1 1.16894e-08 1 1.16894e-08 0
1866 1 26.49 22.958 17.66 -4.44936 169402 187085 182445 -18538 -21908.1 -13823.7 12 11.0154 0.190941 0.574524 0.403915 0.012857 0.600083 1 2.61384e-08 1 2.61384e-08 0
1867 1 26.49 21.192 19.426 -4.44936 197850 176282 56766.8 -4580.01 -11506.4 -56527.6 12 11.0154 0.190941 0.574524 0.403915 0.012857 0.600083 1 0 1 0 0
1868 1 24.724 22.958 19.426 -4.44936 46659.3 190278 193526 35967.1 -28276.6 6685.58 12 11.0154 0.190941 0.574524 0.403915 0.012857 0.600083 1 1.65314e-08 1 1.65314e-08 0
1869 1 28.256 21.192 17.66 -4.44936 197550 47367.7 151800 13659.3 -7608.69 84342.8 12 11.0154 0.190941 0.574524 0.403915 0.012857 0.600083 1 1.65314e-08 1 1.65314e-08 0
1870 1 30.022 22.958 17.66 -4.44936 198299 27777.9 148431 9089.52 -4932.22 92791.5 12 11.0154 0.190941 0.574524 0.403915 0.012857 0.600083 1 2.02467e-08 1 2.02467e-08 0
1871 1 30.022 21.192 19.426 -4.44936 178412 177679 179529 20733.4 -19803.7 20157 12 11.0154 0.190941 0.574524 0.403915 0.012857 0.600083 1 0 1 0 0
1872 1 28.256 22.958 19.426 -4.44936 -90914.5 198540 163556 8369.16 101020 -2918.4 12 11.0154 0.190941 0.574524 0.403915 0.012857 0.600083 1 1.16894e-08 1 1.16894e-08 0
1873 1 0 24.724 17.66 -4.44936 179667 154944 153970 28947.6 -29267.3 44322.3 12 11.0154 0.190941 0.574524 0.403915 0.012857 0.600083 1 2.33789e-08 1 2.33789e-08 1.26218e-29
1874 1 1.766 26.49 17.66 -4.44936 161396 198749 178742 1103.74 -27371.5 808.084 12 11.0154 0.190941 0.574524 0.403915 0.012857 0.600083 1 2.33789e-08 1 2.33789e-08 0
1875 1 1.766 24.724 19.426 -4.44936 196364 191694 191907 -4139.92 4077.37 6980.66 12 11.0154 0.190941 0.574524 0.403915 0.012857 0.600083 1 2.33789e-08 1 2.33789e-08 0
1876 1 0 26.49 19.426 -4.44936 168329 147280 170049 39602.5 29580.3 -38468.2 12 11.0154 0.190941 0.574524 0.403915 0.012857 0.600083 1 0 1 0 1.26218e-29
1877 1 3.532 24.724 17.66 -4.44936 198676 195750 38166.6 566.638 -4123.94 22068.9 12 11.0154 0.190941 0.574524 0.403915 0.012857 0.600083 1 2.33789e-08 1 2.33789e-08 0
1878 1 5.298 26.49 17.66 -4.44936 197923 198522 140546 472.279 7074.38 -3887.81 12 11.0154 0.190941 0.574524 0.403915 0.012857 0.600083 1 2.86331e-08 1 2.86331e-08 0
1879 1 5.298 24.724 19.426 -4.44936 198425 196715 196389 858.731 -923.961 2223.6 12 11.0154 0.190941 0.574524 0.403915 0.012857 0.600083 1 2.33789e-08 1 2.33789e-08 0
1880 1 3.532 26.49 19.426 -4.44936 185490 197833 165688 3552.19 20973.2 -5605.02 12 11.0154 0.190941 0.574524 0.403915 0.012857 0.600083 1 1.16894e-08 1 1.16894e-08 0
1881 1 7.064 24.724 17.66 -4.44936 104137 198742 51602.2 1954.03 118025 -2436.72 12 11.0154 0.190941 0.574524 0.403915 0.012857 0.600083 1 2.61384e-08 1 2.61384e-08 0
1882 1 8.83 26.49 17.66 -4.44936 183586 180230 198782 -16790.5 56.4025 62.3208 12 11.0154 0.190941 0.574524 0.403915 0.012857 0.600083 1 2.86331e-08 1 2.86331e-08 0
1883 1 8.83 24.724 19.426 -4.44936 192892 187474 107668 -8160.97 -23165.1 -32099.1 12 11.0154 0.190941 0.574524 0.403915 0.012857 0.600083 1 2.33789e-08 1 2.33789e-08 0
1884 1 7.064 26.49 19.426 -4.44936 139057 184557 189170 29147.8 -23959.8 11693.2 12 11.0154 0.190941 0.574524 0.403915 0.012857 0.600083 1 1.16894e-08 1 1.16894e-08 0
1885 1 10.596 24.724 17.66 -4.44936 196337 -53181.9 159919 24818.1 9746.95 -98955.1 12 11.0154 0.190941 0.574524 0.403915 0.012857 0.600083 1 2.61384e-08 1 2.61384e-08 0
1886 1 12.362 26.49 17.66 -4.44936 53536.8 192456 181149 30311.4 50607.8 -10561.4 12 11.0154 0.190941 0.574524 0.403915 0.012857 0.600083 1 2.33789e-08 1 2.33789e-08 0
1887 1 12.362 24.724 19.426 -4.44936 194324 132518 188038 17187 -6920.69 26682.7 12 11.0154 0.190941 0.574524 0.403915 0.012857 0.600083 1 2.33789e-08 1 2.33789e-08 0
1888 1 10.596 26.49 19.426 -4.44936 192799 198782 102490 5.8119 24002.6 -23.3156 12 11.0154 0.190941 0.574524 0.403915 0.012857 0.600083 1 1.16894e-08 1 1.16894e-08 0
1889 1 14.128 24.724 17.66 -4.44936 194146 192882 198311 -5229.89 -1477.21 -1666.61 12 11.0154 0.190941 0.574524 0.403915 0.012857 0.600083 1 2.33789e-08 1 2.33789e-08 0
1890 1 15.894 26.49 17.66 -4.44936 -31443.1 196858 187701 21045.5 50508 -4617.07 12 11.0154 0.190941 0.574524 0.403915 0.012857 0.600083 1 2.86331e-08 1 2.86331e-08 0
1891 1 15.894 24.724 19.426 -4.44936 194955 126720 103871 -16606.6 -19058.4 -82701.2 12 11.0154 0.190941 0.574524 0.403915 0.012857 0.600083 1 1.65314e-08 1 1.65314e-08 0
1892 1 14.128 26.49 19.426 -4.44936 104067 189775 154360 -29208.5 -64864.5 -20003.1 12 11.0154 0.190941 0.574524 0.403915 0.012857 0.600083 1 1.16894e-08 1 1.16894e-08 0
1893 1 17.66 24.724 17.66 -4.44936 111853 173888 184679 -46519.1 35013.3 18736.9 12 11.0154 0.190941 0.574524 0.403915 0.012857 0.600083 1 2.86331e-08 1 2.86331e-08 0
1894 1 19.426 26.49 17.66 -4.44936 94857.9 174810 77456.9 49912.6 112288 -53929.7 12 11.0154 0.190941 0.574524 0.403915 0.012857 0.600083 1 2.61384e-08 1 2.61384e-08 0
1895 1 19.426 24.724 19.426 -4.44936 -365684 169507 195845 -128550 -40717.6 -9272.9 12 11.0154 0.190941 0.574524 0.403915 0.012857 0.600083 1 1.65314e-08 1 1.65314e-08 0
1896 1 17.66 26.49 19.426 -4.44936 189607 195811 56071.5 -5220.49 36184.5 20589.5 12 11.0154 0.190941 0.574524 0.403915 0.012857 0.600083 1 1.16894e-08 1 1.16894e-08 0
1897 1 21.192 24.724 17.66 -4.44936 191657 198155 194662 -2113.92 -5418.23 -1607.47 12 11.0154 0.190941 0.574524 0.403915 0.012857 0.600083 1 2.61384e-08 1 2.61384e-08 0
1898 1 22.958 26.49 17.66 -4.44936 197735 181567 185123 4245.87 3782.08 -15334.3 12 11.0154 0.190941 0.574524 0.403915 0.012857 0.600083 1 2.02467e-08 1 2.02467e-08 0
1899 1 22.958 24.724 19.426 -4.44936 197772 198782 139178 -14.2047 7757.28 109.144 12 11.0154 0.190941 0.574524 0.403915 0.012857 0.600083 1 0 1 0 0
1900 1 21.192 26.49 19.426 -4.44936 190370 168736 192541 15897.8 -7245.58 13693.6 12 11.0154 0.190941 0.574524 0.403915 0.012857 0.600083 1 1.16894e-08 1 1.16894e-08 0
1901 1 24.724 24.724 17.66 -4.44936 185929 149141 125139 25259.4 -30765.6 60462.4 12 11.0154 0.190941 0.574524 0.403915 0.012857 0.600083 1 2.33789e-08 1 2.33789e-08 0
1902 1 26.49 26.49 17.66 -4.44936 113827 190986 196909 -25734.5 12614.9 3821.3 12 11.0154 0.190941 0.574524 0.403915 0.012857 0.600083 1 1.65314e-08 1 1.65314e-08 0
1903 1 26.49 24.724 19.426 -4.44936 162087 197303 198002 7366.5 -5350.99 1074.22 12 11.0154 0.190941 0.574524 0.403915 0.012857 0.600083 1 1.65314e-08 1 1.65314e-08 0
1904 1 24.724 26.49 19.426 -4.44936 183127 -32874.4 -25886.4 60221.8 -59306.6 228136 12 11.0154 0.190941 0.574524 0.403915 0.012857 0.600083 1 1.65314e-08 1 1.65314e-08 0
1905 1 28.256 24.724 17.66 -4.44936 159935 79980.8 121739 -67934.1 -54707.3 -95670.5 12 11.0154 0.190941 0.574524 0.403915 0.012857 0.600083 1 2.61384e-08 1 2.61384e-08 0
1906 1 30.022 26.49 17.66 -4.44936 193963 162227 183219 13272.1 -8660.01 23852 12 11.0154 0.190941 0.574524 0.403915 0.012857 0.600083 1 2.02467e-08 1 2.02467e-08 0
1907 1 30.022 24.724 19.426 -4.44936 184827 83045.2 136322 -40188.9 29523.8 85023.2 12 11.0154 0.190941 0.574524 0.403915 0.012857 0.600083 1 1.65314e-08 1 1.65314e-08 0
1908 1 28.256 26.49 19.426 -4.44936 186201 163691 173029 21011.7 18000 -30061.6 12 11.0154 0.190941 0.574524 0.403915 0.012857 0.600083 1 0 1 0 0
1909 1 0 28.256 17.66 -4.44936 192532 166863 196389 -14124.6 3867.08 8738.86 12 11.0154 0.190941 0.574524 0.403915 0.012857 0.600083 1 1.65314e-08 1 1.65314e-08 1.26218e-29
1910 1 1.766 30.022 17.66 -4.44936 90017.9 197970 193709 -9398.51 23489.6 2029.78 12 11.0154 0.190941 0.574524 0.403915 0.012857 0.600083 1 1.65314e-08 1 1.65314e-08 0
1911 1 1.766 28.256 19.426 -4.44936 198674 123270 195731 2850.4 -572.903 15177.3 12 11.0154 0.190941 0.574524 0.403915 0.012857 0.600083 1 1.16894e-08 1 1.16894e-08 0
1912 1 0 30.022 19.426 -4.44936 60875.9 189039 170577 -36655.8 -62366.7 -16577.2 12 11.0154 0.190941 0.574524 0.403915 0.012857 0.600083 1 2.61384e-08 1 2.61384e-08 1.26218e-29
1913 1 3.532 28.256 17.66 -4.44936 181406 152601 158980 28327.3 26298.1 -42873.2 12 11.0154 0.190941 0.574524 0.403915 0.012857 0.600083 1 1.65314e-08 1 1.65314e-08 0
1914 1 5.298 30.022 17.66 -4.44936 159320 196732 197220 -8994.49 7849.83 1789.18 12 11.0154 0.190941 0.574524 0.403915 0.012857 0.600083 1 1.65314e-08 1 1.65314e-08 0
1915 1 5.298 28.256 19.426 -4.44936 197759 167396 185014 -5667.46 -3753.66 -20787.8 12 11.0154 0.190941 0.574524 0.403915 0.012857 0.600083 1 0 1 0 0
1916 1 3.532 30.022 19.426 -4.44936 37697.9 182302 188529 -51524 40639.7 12998.9 12 11.0154 0.190941 0.574524 0.403915 0.012857 0.600083 1 2.02467e-08 1 2.02467e-08 0
1917 1 7.064 28.256 17.66 -4.44936 194248 198778 188133 125.319 6948.65 -192.059 12 11.0154 0.190941 0.574524 0.403915 0.012857 0.600083 1 0 1 0 0
1918 1 8.83 30.022 17.66 -4.44936 198671 195935 166411 561.629 1893.72 -9600.4 12 11.0154 0.190941 0.574524 0.403915 0.012857 0.600083 1 2.86331e-08 1 2.86331e-08 0
1919 1 8.83 28.256 19.426 -4.44936 198437 175439 198770 -2836.72 -63.0872 -519.135 12 11.0154 0.190941 0.574524 0.403915 0.012857 0.600083 1 0 1 0 0
1920 1 7.064 30.022 19.426 -4.44936 103592 187876 153962 32220.4 65317.9 -22109.2 12 11.0154 0.190941 0.574524 0.403915 0.012857 0.600083 1 1.16894e-08 1 1.16894e-08 0
1921 1 10.596 28.256 17.66 -4.44936 188579 186726 196326 11090.8 -5005.46 5441 12 11.0154 0.190941 0.574524 0.403915 0.012857 0.600083 1 1.65314e-08 1 1.65314e-08 0
1922 1 12.362 30.022 17.66 -4.44936 181855 195971 117443 6898.44 37105.8 -15122 12 11.0154 0.190941 0.574524 0.403915 0.012857 0.600083 1 1.65314e-08 1 1.65314e-08 0
1923 1 12.362 28.256 19.426 -4.44936 188537 91678.7 141635 -33125.1 24196.5 78234.4 12 11.0154 0.190941 0.574524 0.403915 0.012857 0.600083 1 0 1 0 0
1924 1 10.596 30.022 19.426 -4.44936 76760.9 183914 179159 -42593.7 48932.5 17080.8 12 11.0154 0.190941 0.574524 0.403915 0.012857 0.600083 1 1.65314e-08 1 1.65314e-08 0
1925 1 14.128 28.256 17.66 -4.44936 95737.5 169317 165097 -55101.5 58916 31504.5 12 11.0154 0.190941 0.574524 0.403915 0.012857 0.600083 1 1.65314e-08 1 1.65314e-08 0
1926 1 15.894 30.022 17.66 -4.44936 165629 198581 184801 2583.08 -21529.1 1677.41 12 11.0154 0.190941 0.574524 0.403915 0.012857 0.600083 1 2.86331e-08 1 2.86331e-08 0
1927 1 15.894 28.256 19.426 -4.44936 178717 198314 198776 -3063.02 335.091 51.1533 12 11.0154 0.190941 0.574524 0.403915 0.012857 0.600083 1 0 1 0 0
1928 1 14.128 30.022 19.426 -4.44936 -93830.2 182939 191492 -68086.2 -46185 -10746.5 12 11.0154 0.190941 0.574524 0.403915 0.012857 0.600083 1 2.02467e-08 1 2.02467e-08 0
1929 1 17.66 28.256 17.66 -4.44936 180726 197879 159163 -4036.71 -26746.3 -5979.56 12 11.0154 0.190941 0.574524 0.403915 0.012857 0.600083 1 0 1 0 0
1930 1 19.426 30.022 17.66 -4.44936 117768 197280 187884 -11029.3 29713 4045.12 12 11.0154 0.190941 0.574524 0.403915 0.012857 0.600083 1 2.61384e-08 1 2.61384e-08 0
1931 1 19.426 28.256 19.426 -4.44936 198499 196531 197981 797.331 -475.508 1342.24 12 11.0154 0.190941 0.574524 0.403915 0.012857 0.600083 1 0 1 0 0
1932 1 17.66 30.022 19.426 -4.44936 198774 197049 61835.2 114.856 1020.91 -15407.1 12 11.0154 0.190941 0.574524 0.403915 0.012857 0.600083 1 2.02467e-08 1 2.02467e-08 0
1933 1 21.192 28.256 17.66 -4.44936 196158 191166 90933.7 -4470.6 16823.5 28659.1 12 11.0154 0.190941 0.574524 0.403915 0.012857 0.600083 1 1.16894e-08 1 1.16894e-08 0
1934 1 22.958 30.022 17.66 -4.44936 198368 186815 197677 -2226.2 676.504 3636.47 12 11.0154 0.190941 0.574524 0.403915 0.012857 0.600083 1 2.02467e-08 1 2.02467e-08 0
1935 1 22.958 28.256 19.426 -4.44936 186476 198483 187467 -1919.49 11800.2 1840.53 12 11.0154 0.190941 0.574524 0.403915 0.012857 0.600083 1 0 1 0 0
1936 1 21.192 30.022 19.426 -4.44936 119073 194140 80671.3 -19236.5 -97028 -23416.3 12 11.0154 0.190941 0.574524 0.403915 0.012857 0.600083 1 1.65314e-08 1 1.65314e-08 0
1937 1 24.724 28.256 17.66 -4.44936 158874 120086 168797 -56040.9 -34592.5 -48576.7 12 11.0154 0.190941 0.574524 0.403915 0.012857 0.600083 1 2.61384e-08 1 2.61384e-08 0
1938 1 26.49 30.022 17.66 -4.44936 189552 192767 193511 -7450.68 -6975.07 -5630.55 12 11.0154 0.190941 0.574524 0.403915 0.012857 0.600083 1 2.33789e-08 1 2.33789e-08 0
1939 1 26.49 28.256 19.426 -4.44936 24363.9 195332 183876 -24531.3 50988.4 7171.33 12 11.0154 0.190941 0.574524 0.403915 0.012857 0.600083 1 1.16894e-08 1 1.16894e-08 0
1940 1 24.724 30.022 19.426 -4.44936 166737 185038 116613 20986.2 51313.5 -33605.5 12 11.0154 0.190941 0.574524 0.403915 0.012857 0.600083 1 2.33789e-08 1 2.33789e-08 0
1941 1 28.256 28.256 17.66 -4.44936 197856 195798 136934 1662.27 7567.95 -13584.6 12 11.0154 0.190941 0.574524 0.403915 0.012857 0.600083 1 1.65314e-08 1 1.65314e-08 0
1942 1 30.022 30.022 17.66 -4.44936 194825 196146 174716 -3229.95 -9758.92 -7965.07 12 11.0154 0.190941 0.574524 0.403915 0.012857 0.600083 1 2.61384e-08 1 2.61384e-08 0
1943 1 30.022 28.256 19.426 -4.44936 160374 198358 91945.3 -4033.72 -64057.6 -6727.53 12 11.0154 0.190941 0.574524 0.403915 0.012857 0.600083 1 1.16894e-08 1 1.16894e-08 0
1944 1 28.256 30.022 19.426 -4.44936 33988 95649.2 198172 -130367 10024.1 7930.03 12 11.0154 0.190941 0.574524 0.403915 0.012857 0.600083 1 1.65314e-08 1 1.65314e-08 0
1945 1 0 0 21.192 -4.44936 154508 188811 194775 21010.7 13319.7 -6321 12 11.0154 0.190941 0.574524 0.403915 0.012857 0.600083 1 1.65314e-08 1 1.65314e-08 2.52435e-29
1946 1 1.766 1.766 21.192 -4.44936 197631 193391 187840 -2490.73 3548.53 7680.11 12 11.0154 0.190941 0.574524 0.403915 0.012857 0.600083 1 1.65314e-08 1 1.65314e-08 0
1947 1 1.766 0 22.958 -4.44936 197695 177353 157118 -4825.94 -6729.27 -29879.8 12 11.0154 0.190941 0.574524 0.403915 0.012857 0.600083 1 2.61384e-08 1 2.61384e-08 1.26218e-29
1948 1 0 1.766 22.958 -4.44936 157598 141523 159612 -48560.6 40164.4 47358.5 12 11.0154 0.190941 0.574524 0.403915 0.012857 0.600083 1 2.33789e-08 1 2.33789e-08 1.26218e-29
1949 1 3.532 0 21.192 -4.44936 147666 198502 -36959.9 3782.44 -109773 8122.92 12 11.0154 0.190941 0.574524 0.403915 0.012857 0.600083 1 1.65314e-08 1 1.65314e-08 1.26218e-29
1950 1 5.298 1.766 21.192 -4.44936 59069.7 196080 189478 19427.9 36053.5 -5013.48 12 11.0154 0.190941 0.574524 0.403915 0.012857 0.600083 1 1.65314e-08 1 1.65314e-08 0
1951 1 5.298 0 22.958 -4.44936 172404 181768 196124 21185 8373.45 -6724.92 12 11.0154 0.190941 0.574524 0.403915 0.012857 0.600083 1 0 1 0 1.26218e-29
1952 1 3.532 1.766 22.958 -4.44936 181497 123127 167852 -36162.2 -23121.8 -48373.4 12 11.0154 0.190941 0.574524 0.403915 0.012857 0.600083 1 2.33789e-08 1 2.33789e-08 0
1953 1 7.064 0 21.192 -4.44936 198771 181863 180311 -427.193 446.365 17677.9 12 11.0154 0.190941 0.574524 0.403915 0.012857 0.600083 1 1.16894e-08 1 1.16894e-08 1.26218e-29
1954 1 8.83 1.766 21.192 -4.44936 152584 24364.2 179908 89765.1 29528.7 -57375.5 12 11.0154 0.190941 0.574524 0.403915 0.012857 0.600083 1 1.65314e-08 1 1.65314e-08 0
1955 1 8.83 0 22.958 -4.44936 144268 192135 153218 19036.3 49838.5 -17403.5 12 11.0154 0.190941 0.574524 0.403915 0.012857 0.600083 1 0 1 0 1.26218e-29
1956 1 7.064 1.766 22.958 -4.44936 134282 174359 166362 39689.8 -45728.1 28138.7 12 11.0154 0.190941 0.574524 0.403915 0.012857 0.600083 1 2.33789e-08 1 2.33789e-08 0
1957 1 10.596 0 21.192 -4.44936 165564 197193 36655.7 7265.62 73386.4 -16051.3 12 11.0154 0.190941 0.574524 0.403915 0.012857 0.600083 1 1.16894e-08 1 1.16894e-08 1.26218e-29
1958 1 12.362 1.766 21.192 -4.44936 161846 167361 198726 34067.3 -1440.29 1328.41 12 11.0154 0.190941 0.574524 0.403915 0.012857 0.600083 1 1.16894e-08 1 1.16894e-08 0
1959 1 12.362 0 22.958 -4.44936 137838 182987 196207 31025.9 -12527.2 6377.46 12 11.0154 0.190941 0.574524 0.403915 0.012857 0.600083 1 0 1 0 1.26218e-29
1960 1 10.596 1.766 22.958 -4.44936 101906 185793 198177 -35472.4 -7653.45 -2802.39 12 11.0154 0.190941 0.574524 0.403915 0.012857 0.600083 1 2.33789e-08 1 2.33789e-08 0
1961 1 14.128 0 21.192 -4.44936 188747 198087 182708 2640.06 12700.5 -3341.34 12 11.0154 0.190941 0.574524 0.403915 0.012857 0.600083 1 1.65314e-08 1 1.65314e-08 1.26218e-29
1962 1 15.894 1.766 21.192 -4.44936 165445 11847.2 166660 -78942.1 32723.9 77490.1 12 11.0154 0.190941 0.574524 0.403915 0.012857 0.600083 1 1.65314e-08 1 1.65314e-08 0
1963 1 15.894 0 22.958 -4.44936 198589 196506 -146381 661.921 8151.23 -28029 12 11.0154 0.190941 0.574524 0.403915 0.012857 0.600083 1 1.65314e-08 1 1.65314e-08 1.26218e-29
1964 1 14.128 1.766 22.958 -4.44936 184181 179309 31572.8 -16862.1 -49411.1 -57062.2 12 11.0154 0.190941 0.574524 0.403915 0.012857 0.600083 1 2.33789e-08 1 2.33789e-08 0
1965 1 17.66 0 21.192 -4.44936 197261 185354 179684 4519 -5389.21 16014.2 12 11.0154 0.190941 0.574524 0.403915 0.012857 0.600083 1 2.33789e-08 1 2.33789e-08 1.26218e-29
1966 1 19.426 1.766 21.192 -4.44936 185837 95952 100934 -36484.4 35589.6 100308 12 11.0154 0.190941 0.574524 0.403915 0.012857 0.600083 1 1.16894e-08 1 1.16894e-08 0
1967 1 19.426 0 22.958 -4.44936 48246.9 198459 189661 -6967.72 37054.4 1715.11 12 11.0154 0.190941 0.574524 0.403915 0.012857 0.600083 1 2.33789e-08 1 2.33789e-08 1.26218e-29
1968 1 17.66 1.766 22.958 -4.44936 198639 194906 188709 -744.812 -1200.74 -6248.34 12 11.0154 0.190941 0.574524 0.403915 0.012857 0.600083 1 2.33789e-08 1 2.33789e-08 0
1969 1 21.192 0 21.192 -4.44936 122513 193523 157972 20026.6 55790.2 -14649.3 12 11.0154 0.190941 0.574524 0.403915 0.012857 0.600083 1 1.16894e-08 1 1.16894e-08 1.26218e-29
1970 1 22.958 1.766 21.192 -4.44936 188838 168146 184252 17454.3 -12020.7 21098.5 12 11.0154 0.190941 0.574524 0.403915 0.012857 0.600083 1 0 1 0 0
1971 1 22.958 0 22.958 -4.44936 153315 -34616.7 140697 -103014 -51389.9 -116434 12 11.0154 0.190941 0.574524 0.403915 0.012857 0.600083 1 2.61384e-08 1 2.61384e-08 1.26218e-29
1972 1 21.192 1.766 22.958 -4.44936 198197 153886 180311 5124.19 3286.7 -28796.8 12 11.0154 0.190941 0.574524 0.403915 0.012857 0.600083 1 1.16894e-08 1 1.16894e-08 0
1973 1 24.724 0 21.192 -4.44936 194249 153441 109794 14336 20083.9 -63520.3 12 11.0154 0.190941 0.574524 0.403915 0.012857 0.600083 1 2.02467e-08 1 2.02467e-08 1.26218e-29
1974 1 26.49 1.766 21.192 -4.44936 124908 189919 197425 25587.9 -10013.9 3468.51 12 11.0154 0.190941 0.574524 0.403915 0.012857 0.600083 1 1.16894e-08 1 1.16894e-08 0
1975 1 26.49 0 22.958 -4.44936 158904 156269 176995 -41174.5 29476.2 30434.3 12 11.0154 0.190941 0.574524 0.403915 0.012857 0.600083 1 2.61384e-08 1 2.61384e-08 1.26218e-29
1976 1 24.724 1.766 22.958 -4.44936 184495 150129 190072 -26365 -11155.5 -20586.1 12 11.0154 0.190941 0.574524 0.403915 0.012857 0.600083 1 1.65314e-08 1 1.65314e-08 0
1977 1 28.256 0 21.192 -4.44936 181043 123994 198552 -36423 -2019.45 -4146.56 12 11.0154 0.190941 0.574524 0.403915 0.012857 0.600083 1 1.16894e-08 1 1.16894e-08 1.26218e-29
1978 1 30.022 1.766 21.192 -4.44936 186085 197742 188930 3634.01 -11184.7 3201.1 12 11.0154 0.190941 0.574524 0.403915 0.012857 0.600083 1 1.16894e-08 1 1.16894e-08 0
1979 1 30.022 0 22.958 -4.44936 100791 194165 145296 21269.5 72396 -15713.9 12 11.0154 0.190941 0.574524 0.403915 0.012857 0.600083 1 2.02467e-08 1 2.02467e-08 1.26218e-29
1980 1 28.256 1.766 22.958 -4.44936 153904 195749 117576 11667.1 -60368.6 15694.4 12 11.0154 0.190941 0.574524 0.403915 0.012857 0.600083 1 1.16894e-08 1 1.16894e-08 0
1981 1 0 3.532 21.192 -4.44936 174645 193680 198722 11096.6 -1202.71 552.924 12 11.0154 0.190941 0.574524 0.403915 0.012857 0.600083 1 1.65314e-08 1 1.65314e-08 1.26218e-29
1982 1 1.766 5.298 21.192 -4.44936 160134 197355 193220 -7427.01 14661.7 2817.54 12 11.0154 0.190941 0.574524 0.403915 0.012857 0.600083 1 1.65314e-08 1 1.65314e-08 0
1983 1 1.766 3.532 22.958 -4.44936 195385 187036 168160 -6316.67 10199.3 18965.1 12 11.0154 0.190941 0.574524 0.403915 0.012857 0.600083 1 2.33789e-08 1 2.33789e-08 0
1984 1 0 5.298 22.958 -4.44936 180190 -23845.9 172691 -64336.2 -22024.9 -76214.7 12 11.0154 0.190941 0.574524 0.403915 0.012857 0.600083 1 2.61384e-08 1 2.61384e-08 1.26218e-29
1985 1 3.532 3.532 21.192 -4.44936 174183 164656 198750 28973.4 -889.324 1047.48 12 11.0154 0.190941 0.574524 0.403915 0.012857 0.600083 1 1.16894e-08 1 1.16894e-08 0
1986 1 5.298 5.298 21.192 -4.44936 155508 164105 198323 38737.9 4458.43 -3991.07 12 11.0154 0.190941 0.574524 0.403915 0.012857 0.600083 1 1.65314e-08 1 1.65314e-08 0
1987 1 5.298 3.532 22.958 -4.44936 197990 89697.8 193265 9291.89 2089.71 -24532.7 12 11.0154 0.190941 0.574524 0.403915 0.012857 0.600083 1 2.33789e-08 1 2.33789e-08 0
1988 1 3.532 5.298 22.958 -4.44936 123643 195321 118986 16126.6 -77432.6 16618.8 12 11.0154 0.190941 0.574524 0.403915 0.012857 0.600083 1 0 1 0 0
1989 1 7.064 3.532 21.192 -4.44936 187299 178680 187309 -15192.7 11477.9 15186.6 12 11.0154 0.190941 0.574524 0.403915 0.012857 0.600083 1 1.65314e-08 1 1.65314e-08 0
1990 1 8.83 5.298 21.192 -4.44936 190040 155631 180435 19422.6 12664.7 -28137.2 12 11.0154 0.190941 0.574524 0.403915 0.012857 0.600083 1 1.65314e-08 1 1.65314e-08 0
1991 1 8.83 3.532 22.958 -4.44936 111139 175833 196122 -44847.4 -15269.3 -7813.33 12 11.0154 0.190941 0.574524 0.403915 0.012857 0.600083 1 2.33789e-08 1 2.33789e-08 0
1992 1 7.064 5.298 22.958 -4.44936 198082 197348 149452 -1001.86 5877.08 8409.3 12 11.0154 0.190941 0.574524 0.403915 0.012857 0.600083 1 0 1 0 0
1993 1 10.596 3.532 21.192 -4.44936 166775 198590 197358 -2480.75 6752.16 523.342 12 11.0154 0.190941 0.574524 0.403915 0.012857 0.600083 1 1.65314e-08 1 1.65314e-08 0
1994 1 12.362 5.298 21.192 -4.44936 118306 194234 194283 19130.7 -19027.6 4523.22 12 11.0154 0.190941 0.574524 0.403915 0.012857 0.600083 1 1.16894e-08 1 1.16894e-08 0
1995 1 12.362 3.532 22.958 -4.44936 129143 183966 198493 -32121.5 -4482.78 -2067.71 12 11.0154 0.190941 0.574524 0.403915 0.012857 0.600083 1 2.33789e-08 1 2.33789e-08 0
1996 1 10.596 5.298 22.958 -4.44936 197272 178272 64778.8 5565.7 14226.4 -52425 12 11.0154 0.190941 0.574524 0.403915 0.012857 0.600083 1 2.33789e-08 1 2.33789e-08 0
1997 1 14.128 3.532 21.192 -4.44936 196543 136114 172475 -11846.5 -7675.39 -40602.9 12 11.0154 0.190941 0.574524 0.403915 0.012857 0.600083 1 1.16894e-08 1 1.16894e-08 0
1998 1 15.894 5.298 21.192 -4.44936 160184 188222 -5418.95 -20188.9 -88779.3 -46436.4 12 11.0154 0.190941 0.574524 0.403915 0.012857 0.600083 1 1.65314e-08 1 1.65314e-08 0
1999 1 15.894 3.532 22.958 -4.44936 177048 190883 196234 13102.4 7441.58 -4486.23 12 11.0154 0.190941 0.574524 0.403915 0.012857 0.600083 1 2.33789e-08 1 2.33789e-08 0
2000 1 14.128 5.298 22.958 -4.44936 172058 190255 198548 15095.6 2500.38 -1412.39 12 11.0154 0.190941 0.574524 0.403915 0.012857 0.600083 1 0 1 0 0
2001 1 17.66 3.532 21.192 -4.44936 197358 138816 133580 -9241.61 -9636.69 -62529 12 11.0154 0.190941 0.574524 0.403915 0.012857 0.600083 1 0 1 0 0
2002 1 19.426 5.298 21.192 -4.44936 187957 198569 157059 -1517.36 21251.9 2978.96 12 11.0154 0.190941 0.574524 0.403915 0.012857 0.600083 1 1.16894e-08 1 1.16894e-08 0
2003 1 19.426 3.532 22.958 -4.44936 198746 128663 165205 -1587.56 -1098.58 -48522.2 12 11.0154 0.190941 0.574524 0.403915 0.012857 0.600083 1 1.65314e-08 1 1.65314e-08 0
2004 1 17.66 5.298 22.958 -4.44936 198503 193308 188599 1236.77 1686.87 -7466.15 12 11.0154 0.190941 0.574524 0.403915 0.012857 0.600083 1 2.33789e-08 1 2.33789e-08 0
2005 1 21.192 3.532 21.192 -4.44936 198329 190091 197948 -1983.93 -614.479 -2691.86 12 11.0154 0.190941 0.574524 0.403915 0.012857 0.600083 1 2.33789e-08 1 2.33789e-08 0
2006 1 22.958 5.298 21.192 -4.44936 197292 -5320.99 196935 17437.8 1658.89 -19416.7 12 11.0154 0.190941 0.574524 0.403915 0.012857 0.600083 1 1.16894e-08 1 1.16894e-08 0
2007 1 22.958 3.532 22.958 -4.44936 182103 35428.8 198463 52197.7 -2307.02 7219.83 12 11.0154 0.190941 0.574524 0.403915 0.012857 0.600083 1 1.16894e-08 1 1.16894e-08 0
2008 1 21.192 5.298 22.958 -4.44936 195601 174725 175347 8747.71 8633.92 -23743.7 12 11.0154 0.190941 0.574524 0.403915 0.012857 0.600083 1 1.65314e-08 1 1.65314e-08 0
2009 1 24.724 3.532 21.192 -4.44936 -44602.9 -90083.1 -70480.7 -265152 -255997 -278892 12 11.0154 0.190941 0.574524 0.403915 0.012857 0.600083 1 1.65314e-08 1 1.65314e-08 0
2010 1 26.49 5.298 21.192 -4.44936 132232 176781 92257.1 -38264.2 84197.6 48410.9 12 11.0154 0.190941 0.574524 0.403915 0.012857 0.600083 1 1.16894e-08 1 1.16894e-08 0
2011 1 26.49 3.532 22.958 -4.44936 161697 192464 143928 -15307.2 45102.6 18616.7 12 11.0154 0.190941 0.574524 0.403915 0.012857 0.600083 1 2.02467e-08 1 2.02467e-08 0
2012 1 24.724 5.298 22.958 -4.44936 40092.2 144927 86186 -92445.5 -133671 -77870.5 12 11.0154 0.190941 0.574524 0.403915 0.012857 0.600083 1 2.33789e-08 1 2.33789e-08 0
2013 1 28.256 3.532 21.192 -4.44936 195331 190273 50241.7 5418.8 -22640.2 35552.3 12 11.0154 0.190941 0.574524 0.403915 0.012857 0.600083 1 2.33789e-08 1 2.33789e-08 0
2014 1 30.022 5.298 21.192 -4.44936 10890.5 179487 198220 -60211.3 10277.1 3293.39 12 11.0154 0.190941 0.574524 0.403915 0.012857 0.600083 1 1.16894e-08 1 1.16894e-08 0
2015 1 30.022 3.532 22.958 -4.44936 198778 186540 170837 -228.175 344.739 18495.9 12 11.0154 0.190941 0.574524 0.403915 0.012857 0.600083 1 1.16894e-08 1 1.16894e-08 0
2016 1 28.256 5.298 22.958 -4.44936 190183 198533 175065 -1463.82 14280.6 2431.1 12 11.0154 0.190941 0.574524 0.403915 0.012857 0.600083 1 1.65314e-08 1 1.65314e-08 0
2017 1 0 7.064 21.192 -4.44936 168428 196599 164359 8139.81 32324.5 -8668.16 12 11.0154 0.190941 0.574524 0.403915 0.012857 0.600083 1 1.65314e-08 1 1.65314e-08 1.26218e-29
2018 1 1.766 8.83 21.192 -4.44936 89508.4 110891 187319 98001.1 -35392.1 31741.1 12 11.0154 0.190941 0.574524 0.403915 0.012857 0.600083 1 1.16894e-08 1 1.16894e-08 0
2019 1 1.766 7.064 22.958 -4.44936 179988 198777 126441 318.967 36872.9 -625.782 12 11.0154 0.190941 0.574524 0.403915 0.012857 0.600083 1 0 1 0 0
2020 1 0 8.83 22.958 -4.44936 171830 168845 197885 -28405.1 4917.86 5183.1 12 11.0154 0.190941 0.574524 0.403915 0.012857 0.600083 1 1.65314e-08 1 1.65314e-08 1.26218e-29
2021 1 3.532 7.064 21.192 -4.44936 130895 4121.42 198396 -114956 -5121.5 -8672.47 12 11.0154 0.190941 0.574524 0.403915 0.012857 0.600083 1 1.65314e-08 1 1.65314e-08 0
2022 1 5.298 8.83 21.192 -4.44936 197065 152707 135083 8895.55 10459.4 -54174.8 12 11.0154 0.190941 0.574524 0.403915 0.012857 0.600083 1 1.65314e-08 1 1.65314e-08 0
2023 1 5.298 7.064 22.958 -4.44936 196440 -61199.2 198248 -24677.5 1118.22 11780.7 12 11.0154 0.190941 0.574524 0.403915 0.012857 0.600083 1 2.33789e-08 1 2.33789e-08 0
2024 1 3.532 8.83 22.958 -4.44936 156481 194298 197592 13772.1 -7095.53 2310.13 12 11.0154 0.190941 0.574524 0.403915 0.012857 0.600083 1 2.33789e-08 1 2.33789e-08 0
2025 1 7.064 7.064 21.192 -4.44936 198759 161364 197384 922.424 178.299 -7232.73 12 11.0154 0.190941 0.574524 0.403915 0.012857 0.600083 1 1.16894e-08 1 1.16894e-08 0
2026 1 8.83 8.83 21.192 -4.44936 197220 197757 151349 1265.04 8607.03 -6971.64 12 11.0154 0.190941 0.574524 0.403915 0.012857 0.600083 1 1.16894e-08 1 1.16894e-08 0
2027 1 8.83 7.064 22.958 -4.44936 186453 146033 131617 25501.8 -28776.5 59521.9 12 11.0154 0.190941 0.574524 0.403915 0.012857 0.600083 1 0 1 0 0
2028 1 7.064 8.83 22.958 -4.44936 156760 176091 198510 30879 3380.36 -2483.98 12 11.0154 0.190941 0.574524 0.403915 0.012857 0.600083 1 0 1 0 0
2029 1 10.596 7.064 21.192 -4.44936 198778 155699 197038 388.762 78.2131 -8667.71 12 11.0154 0.190941 0.574524 0.403915 0.012857 0.600083 1 0 1 0 0
2030 1 12.362 8.83 21.192 -4.44936 98820.6 197647 187864 -10651.4 33036 3520.17 12 11.0154 0.190941 0.574524 0.403915 0.012857 0.600083 1 1.16894e-08 1 1.16894e-08 0
2031 1 12.362 7.064 22.958 -4.44936 153225 138625 198749 52350.1 1232.18 -1415.92 12 11.0154 0.190941 0.574524 0.403915 0.012857 0.600083 1 2.33789e-08 1 2.33789e-08 0
2032 1 10.596 8.83 22.958 -4.44936 158068 184641 190546 -23994.6 18312.2 10792.1 12 11.0154 0.190941 0.574524 0.403915 0.012857 0.600083 1 2.33789e-08 1 2.33789e-08 0
2033 1 14.128 7.064 21.192 -4.44936 37969.7 198778 192761 -761.855 -31117.4 -147.42 12 11.0154 0.190941 0.574524 0.403915 0.012857 0.600083 1 1.65314e-08 1 1.65314e-08 0
2034 1 15.894 8.83 21.192 -4.44936 193634 172650 181328 -11598.8 9479.16 21356.8 12 11.0154 0.190941 0.574524 0.403915 0.012857 0.600083 1 1.16894e-08 1 1.16894e-08 0
2035 1 15.894 7.064 22.958 -4.44936 105986 197236 154580 -11977.4 64045.1 8266.43 12 11.0154 0.190941 0.574524 0.403915 0.012857 0.600083 1 0 1 0 0
2036 1 14.128 8.83 22.958 -4.44936 196212 147418 197392 11488.3 1890 -8450.17 12 11.0154 0.190941 0.574524 0.403915 0.012857 0.600083 1 2.33789e-08 1 2.33789e-08 0
2037 1 17.66 7.064 21.192 -4.44936 143995 109061 194581 70110.4 15171.5 -19415 12 11.0154 0.190941 0.574524 0.403915 0.012857 0.600083 1 0 1 0 0
2038 1 19.426 8.83 21.192 -4.44936 198649 156673 149522 2367.2 -2560.31 45544.3 12 11.0154 0.190941 0.574524 0.403915 0.012857 0.600083 1 1.16894e-08 1 1.16894e-08 0
2039 1 19.426 7.064 22.958 -4.44936 169402 192697 101681 13370.5 53412.2 -24306.9 12 11.0154 0.190941 0.574524 0.403915 0.012857 0.600083 1 2.02467e-08 1 2.02467e-08 0
2040 1 17.66 8.83 22.958 -4.44936 185561 190435 122990 -10504.8 -31654.8 -25152.1 12 11.0154 0.190941 0.574524 0.403915 0.012857 0.600083 1 1.65314e-08 1 1.65314e-08 0
2041 1 21.192 7.064 21.192 -4.44936 187424 180068 196628 14579.4 -4945.95 6348.47 12 11.0154 0.190941 0.574524 0.403915 0.012857 0.600083 1 2.33789e-08 1 2.33789e-08 0
2042 1 22.958 8.83 21.192 -4.44936 197362 -81783.2 198780 -19962.4 53.315 749.324 12 11.0154 0.190941 0.574524 0.403915 0.012857 0.600083 1 0 1 0 0
2043 1 22.958 7.064 22.958 -4.44936 145043 146668 197758 -52920.2 7416.39 7303.37 12 11.0154 0.190941 0.574524 0.403915 0.012857 0.600083 1 2.02467e-08 1 2.02467e-08 0
2044 1 21.192 8.83 22.958 -4.44936 179484 124838 108035 -37775.3 -41847.6 -81915.9 12 11.0154 0.190941 0.574524 0.403915 0.012857 0.600083 1 1.65314e-08 1 1.65314e-08 0
2045 1 24.724 7.064 21.192 -4.44936 195243 130863 192984 15502.5 4529.29 -19843.5 12 11.0154 0.190941 0.574524 0.403915 0.012857 0.600083 1 1.65314e-08 1 1.65314e-08 0
2046 1 26.49 8.83 21.192 -4.44936 196935 179431 189915 5978.8 4047.21 -13098.9 12 11.0154 0.190941 0.574524 0.403915 0.012857 0.600083 1 1.16894e-08 1 1.16894e-08 0
2047 1 26.49 7.064 22.958 -4.44936 -21541.4 191056 119973 -41258.6 -131770 -24675.8 12 11.0154 0.190941 0.574524 0.403915 0.012857 0.600083 1 1.65314e-08 1 1.65314e-08 0
2048 1 24.724 8.83 22.958 -4.44936 189214 173810 177011 15457 -14432.4 23316.3 12 11.0154 0.190941 0.574524 0.403915 0.012857 0.600083 1 2.02467e-08 1 2.02467e-08 0
2049 1 28.256 7.064 21.192 -4.44936 85500.3 182456 191998 43005.4 -27721.4 10524 12 11.0154 0.190941 0.574524 0.403915 0.012857 0.600083 1 2.33789e-08 1 2.33789e-08 0
2050 1 30.022 8.83 21.192 -4.44936 138374 198782 158206 136.603 49508.8 -111.957 12 11.0154 0.190941 0.574524 0.403915 0.012857 0.600083 1 1.65314e-08 1 1.65314e-08 0
2051 1 30.022 7.064 22.958 -4.44936 1370.8 62467.4 197949 -164043 -12820.7 -10653.6 12 11.0154 0.190941 0.574524 0.403915 0.012857 0.600083 1 2.02467e-08 1 2.02467e-08 0
2052 1 28.256 8.83 22.958 -4.44936 163933 170498 179573 -31395.5 25873.2 23309.1 12 11.0154 0.190941 0.574524 0.403915 0.012857 0.600083 1 1.16894e-08 1 1.16894e-08 0
2053 1 0 10.596 21.192 -4.44936 164340 169911 196246 31533.8 9344.99 -8555.82 12 11.0154 0.190941 0.574524 0.403915 0.012857 0.600083 1 1.65314e-08 1 1.65314e-08 1.26218e-29
2054 1 1.766 12.362 21.192 -4.44936 152170 198568 97356.2 3160.38 68757.8 -4661.93 12 11.0154 0.190941 0.574524 0.403915 0.012857 0.600083 1 1.65314e-08 1 1.65314e-08 0
2055 1 1.766 10.596 22.958 -4.44936 188495 171933 141191 -16619.1 24340 39322.3 12 11.0154 0.190941 0.574524 0.403915 0.012857 0.600083 1 2.33789e-08 1 2.33789e-08 0
2056 1 0 12.362 22.958 -4.44936 181943 92451.4 139836 42314.9 -31505.7 79168.9 12 11.0154 0.190941 0.574524 0.403915 0.012857 0.600083 1 1.65314e-08 1 1.65314e-08 1.26218e-29
2057 1 3.532 10.596 21.192 -4.44936 193314 198715 185372 606.755 8562.95 -950.24 12 11.0154 0.190941 0.574524 0.403915 0.012857 0.600083 1 1.16894e-08 1 1.16894e-08 0
2058 1 5.298 12.362 21.192 -4.44936 178894 198446 180966 2586.65 -18823.5 2448.24 12 11.0154 0.190941 0.574524 0.403915 0.012857 0.600083 1 2.02467e-08 1 2.02467e-08 0
2059 1 5.298 10.596 22.958 -4.44936 197508 -133278 124958 20568 9697.98 -156569 12 11.0154 0.190941 0.574524 0.403915 0.012857 0.600083 1 0 1 0 0
2060 1 3.532 12.362 22.958 -4.44936 149824 87714.8 193681 73740.1 -15803.2 23802.8 12 11.0154 0.190941 0.574524 0.403915 0.012857 0.600083 1 2.33789e-08 1 2.33789e-08 0
2061 1 7.064 10.596 21.192 -4.44936 157083 198708 180565 1755.38 -27561.7 1160.24 12 11.0154 0.190941 0.574524 0.403915 0.012857 0.600083 1 1.65314e-08 1 1.65314e-08 0
2062 1 8.83 12.362 21.192 -4.44936 168284 194398 167567 -11563.1 30854.1 11698.3 12 11.0154 0.190941 0.574524 0.403915 0.012857 0.600083 1 1.16894e-08 1 1.16894e-08 0
2063 1 8.83 10.596 22.958 -4.44936 190499 198722 123470 704.166 24975.9 -2123.34 12 11.0154 0.190941 0.574524 0.403915 0.012857 0.600083 1 0 1 0 0
2064 1 7.064 12.362 22.958 -4.44936 161749 180362 174095 26117.6 30236.2 -21324.3 12 11.0154 0.190941 0.574524 0.403915 0.012857 0.600083 1 2.33789e-08 1 2.33789e-08 0
2065 1 10.596 10.596 21.192 -4.44936 187689 156616 198263 -21627.2 2399.14 4677.54 12 11.0154 0.190941 0.574524 0.403915 0.012857 0.600083 1 0 1 0 0
2066 1 12.362 12.362 21.192 -4.44936 147117 -53477.1 179842 -114162 -31281.4 -69121.2 12 11.0154 0.190941 0.574524 0.403915 0.012857 0.600083 1 1.16894e-08 1 1.16894e-08 0
2067 1 12.362 10.596 22.958 -4.44936 93114.2 127690 197238 86672.5 12774 -10477.7 12 11.0154 0.190941 0.574524 0.403915 0.012857 0.600083 1 0 1 0 0
2068 1 10.596 12.362 22.958 -4.44936 157525 106951 -170830 61552.2 -123487 184233 12 11.0154 0.190941 0.574524 0.403915 0.012857 0.600083 1 2.33789e-08 1 2.33789e-08 0
2069 1 14.128 10.596 21.192 -4.44936 193228 169527 190931 12747.2 -6603.49 15154.9 12 11.0154 0.190941 0.574524 0.403915 0.012857 0.600083 1 1.16894e-08 1 1.16894e-08 0
2070 1 15.894 12.362 21.192 -4.44936 100309 179703 189730 43344.8 -29855.6 13141.5 12 11.0154 0.190941 0.574524 0.403915 0.012857 0.600083 1 1.16894e-08 1 1.16894e-08 0
2071 1 15.894 10.596 22.958 -4.44936 190990 180720 196223 -11863.3 4465.48 6798.92 12 11.0154 0.190941 0.574524 0.403915 0.012857 0.600083 1 0 1 0 0
2072 1 14.128 12.362 22.958 -4.44936 176817 149928 195907 32757.8 7946.35 -11851 12 11.0154 0.190941 0.574524 0.403915 0.012857 0.600083 1 2.33789e-08 1 2.33789e-08 0
2073 1 17.66 10.596 21.192 -4.44936 179966 190741 179300 12300.6 19146 -12516.5 12 11.0154 0.190941 0.574524 0.403915 0.012857 0.600083 1 1.16894e-08 1 1.16894e-08 0
2074 1 19.426 12.362 21.192 -4.44936 129998 198773 45251.7 804.208 -102764 1201.5 12 11.0154 0.190941 0.574524 0.403915 0.012857 0.600083 1 1.16894e-08 1 1.16894e-08 0
2075 1 19.426 10.596 22.958 -4.44936 177074 194924 195424 9151.19 -8537.21 3599 12 11.0154 0.190941 0.574524 0.403915 0.012857 0.600083 1 2.02467e-08 1 2.02467e-08 0
2076 1 17.66 12.362 22.958 -4.44936 197677 196088 158800 -1725.44 -6647.62 -10377.7 12 11.0154 0.190941 0.574524 0.403915 0.012857 0.600083 1 2.33789e-08 1 2.33789e-08 0
2077 1 21.192 10.596 21.192 -4.44936 192001 198689 152173 793.443 -17778 2080.17 12 11.0154 0.190941 0.574524 0.403915 0.012857 0.600083 1 1.16894e-08 1 1.16894e-08 0
2078 1 22.958 12.362 21.192 -4.44936 167328 198447 196872 -3247.45 -7750.51 -800.202 12 11.0154 0.190941 0.574524 0.403915 0.012857 0.600083 1 0 1 0 0
2079 1 22.958 10.596 22.958 -4.44936 154649 114110 198746 -61129.6 1261.22 1746.95 12 11.0154 0.190941 0.574524 0.403915 0.012857 0.600083 1 2.33789e-08 1 2.33789e-08 0
2080 1 21.192 12.362 22.958 -4.44936 46055.2 189336 185659 -37981.9 44767.9 11133.4 12 11.0154 0.190941 0.574524 0.403915 0.012857 0.600083 1 1.16894e-08 1 1.16894e-08 0
2081 1 24.724 10.596 21.192 -4.44936 196203 52672.7 149389 -19412 -11286.6 -84951.5 12 11.0154 0.190941 0.574524 0.403915 0.012857 0.600083 1 1.65314e-08 1 1.65314e-08 0
2082 1 26.49 12.362 21.192 -4.44936 167957 189475 54012.2 16938 66802.6 -36706.8 12 11.0154 0.190941 0.574524 0.403915 0.012857 0.600083 1 0 1 0 0
2083 1 26.49 10.596 22.958 -4.44936 177430 197411 -43212.1 -5409.89 71882.2 18212.6 12 11.0154 0.190941 0.574524 0.403915 0.012857 0.600083 1 1.16894e-08 1 1.16894e-08 0
2084 1 24.724 12.362 22.958 -4.44936 191754 67635.4 141133 -30359.9 -20128.7 -86950.6 12 11.0154 0.190941 0.574524 0.403915 0.012857 0.600083 1 2.02467e-08 1 2.02467e-08 0
2085 1 28.256 10.596 21.192 -4.44936 176852 196775 172631 -6634.11 -23947.3 -7244.47 12 11.0154 0.190941 0.574524 0.403915 0.012857 0.600083 1 2.33789e-08 1 2.33789e-08 0
2086 1 30.022 12.362 21.192 -4.44936 195911 195336 188593 -3144.97 5408.29 5925.14 12 11.0154 0.190941 0.574524 0.403915 0.012857 0.600083 1 0 1 0 0
2087 1 30.022 10.596 22.958 -4.44936 181691 49891.6 193570 50444.6 -9437.86 27856.4 12 11.0154 0.190941 0.574524 0.403915 0.012857 0.600083 1 2.33789e-08 1 2.33789e-08 0
2088 1 28.256 12.362 22.958 -4.44936 99402 151444 151549 68588.7 -68512.9 47285.2 12 11.0154 0.190941 0.574524 0.403915 0.012857 0.600083 1 1.16894e-08 1 1.16894e-08 0
2089 1 0 14.128 21.192 -4.44936 193156 197123 197211 -3055.17 -2972.73 -1614.26 12 11.0154 0.190941 0.574524 0.403915 0.012857 0.600083 1 1.65314e-08 1 1.65314e-08 1.26218e-29
2090 1 1.766 15.894 21.192 -4.44936 180144 198134 186744 3474.34 -14978.4 2792.22 12 11.0154 0.190941 0.574524 0.403915 0.012857 0.600083 1 1.65314e-08 1 1.65314e-08 0
2091 1 1.766 14.128 22.958 -4.44936 177882 -61143.6 131335 -73705 37545.2 132406 12 11.0154 0.190941 0.574524 0.403915 0.012857 0.600083 1 2.33789e-08 1 2.33789e-08 0
2092 1 0 15.894 22.958 -4.44936 198712 196418 196189 -406.766 426.031 2475.72 12 11.0154 0.190941 0.574524 0.403915 0.012857 0.600083 1 2.61384e-08 1 2.61384e-08 1.26218e-29
2093 1 3.532 14.128 21.192 -4.44936 55674.2 45039.5 166083 -148330 -68407.2 -70903.4 12 11.0154 0.190941 0.574524 0.403915 0.012857 0.600083 1 1.16894e-08 1 1.16894e-08 0
2094 1 5.298 15.894 21.192 -4.44936 194635 198661 193758 708.588 4564.66 -779.883 12 11.0154 0.190941 0.574524 0.403915 0.012857 0.600083 1 1.65314e-08 1 1.65314e-08 0
2095 1 5.298 14.128 22.958 -4.44936 -123.116 133534 183707 -113921 54758.5 31362.5 12 11.0154 0.190941 0.574524 0.403915 0.012857 0.600083 1 2.33789e-08 1 2.33789e-08 0
2096 1 3.532 15.894 22.958 -4.44936 194902 145400 107786 -14392.5 -18791.1 -69696.3 12 11.0154 0.190941 0.574524 0.403915 0.012857 0.600083 1 2.33789e-08 1 2.33789e-08 0
2097 1 7.064 14.128 21.192 -4.44936 194898 198768 151198 -233.555 -13594.4 -817.507 12 11.0154 0.190941 0.574524 0.403915 0.012857 0.600083 1 1.65314e-08 1 1.65314e-08 0
2098 1 8.83 15.894 21.192 -4.44936 198529 41236.7 171564 6318.19 -2626.12 65482.9 12 11.0154 0.190941 0.574524 0.403915 0.012857 0.600083 1 1.65314e-08 1 1.65314e-08 0
2099 1 8.83 14.128 22.958 -4.44936 198546 197807 148188 479.592 3455.3 -7022.43 12 11.0154 0.190941 0.574524 0.403915 0.012857 0.600083 1 2.33789e-08 1 2.33789e-08 0
2100 1 7.064 15.894 22.958 -4.44936 197523 198511 133140 584.254 -9091.87 4218.24 12 11.0154 0.190941 0.574524 0.403915 0.012857 0.600083 1 0 1 0 0
2101 1 10.596 14.128 21.192 -4.44936 189666 153621 157645 -20290.1 19365 43102.1 12 11.0154 0.190941 0.574524 0.403915 0.012857 0.600083 1 1.65314e-08 1 1.65314e-08 0
2102 1 12.362 15.894 21.192 -4.44936 182766 116191 193510 36370 -9189.16 20867.3 12 11.0154 0.190941 0.574524 0.403915 0.012857 0.600083 1 1.65314e-08 1 1.65314e-08 0
2103 1 12.362 14.128 22.958 -4.44936 87048.6 198683 99435.6 -3327.58 105358 3137.71 12 11.0154 0.190941 0.574524 0.403915 0.012857 0.600083 1 2.33789e-08 1 2.33789e-08 0
2104 1 10.596 15.894 22.958 -4.44936 198689 165450 195186 1764.27 -579.511 10948.6 12 11.0154 0.190941 0.574524 0.403915 0.012857 0.600083 1 0 1 0 0
2105 1 14.128 14.128 21.192 -4.44936 186233 154116 195041 -23675.3 -6851.86 -12926.8 12 11.0154 0.190941 0.574524 0.403915 0.012857 0.600083 1 1.16894e-08 1 1.16894e-08 0
2106 1 15.894 15.894 21.192 -4.44936 198005 122439 147838 7700.67 -6290.59 62363.9 12 11.0154 0.190941 0.574524 0.403915 0.012857 0.600083 1 1.65314e-08 1 1.65314e-08 0
2107 1 15.894 14.128 22.958 -4.44936 195761 197111 198515 -2247.01 897.664 667.664 12 11.0154 0.190941 0.574524 0.403915 0.012857 0.600083 1 2.33789e-08 1 2.33789e-08 0
2108 1 14.128 15.894 22.958 -4.44936 184061 168225 150599 21209.4 -26633 38370.6 12 11.0154 0.190941 0.574524 0.403915 0.012857 0.600083 1 2.33789e-08 1 2.33789e-08 0
2109 1 17.66 14.128 21.192 -4.44936 154897 187575 143062 22176.7 -49449.9 24988.8 12 11.0154 0.190941 0.574524 0.403915 0.012857 0.600083 1 0 1 0 0
2110 1 19.426 15.894 21.192 -4.44936 134532 145854 184179 58314.5 -30630.7 27801 12 11.0154 0.190941 0.574524 0.403915 0.012857 0.600083 1 1.16894e-08 1 1.16894e-08 0
2111 1 19.426 14.128 22.958 -4.44936 176946 178580 194237 -21003.3 -9962.44 -9582.42 12 11.0154 0.190941 0.574524 0.403915 0.012857 0.600083 1 1.65314e-08 1 1.65314e-08 0
2112 1 17.66 15.894 22.958 -4.44936 175211 110833 164541 45530.4 -28409.1 54876.8 12 11.0154 0.190941 0.574524 0.403915 0.012857 0.600083 1 2.33789e-08 1 2.33789e-08 0
2113 1 21.192 14.128 21.192 -4.44936 188703 97669.4 198502 -31923.3 -1678.44 -5316.23 12 11.0154 0.190941 0.574524 0.403915 0.012857 0.600083 1 2.33789e-08 1 2.33789e-08 0
2114 1 22.958 15.894 21.192 -4.44936 173590 174542 186570 -24711.4 -17539.5 -17204.8 12 11.0154 0.190941 0.574524 0.403915 0.012857 0.600083 1 1.16894e-08 1 1.16894e-08 0
2115 1 22.958 14.128 22.958 -4.44936 156780 -167568 64924.6 -124045 -74981.4 -221447 12 11.0154 0.190941 0.574524 0.403915 0.012857 0.600083 1 1.16894e-08 1 1.16894e-08 0
2116 1 21.192 15.894 22.958 -4.44936 180346 178164 88595.8 -19496.6 -45071.2 -47663.5 12 11.0154 0.190941 0.574524 0.403915 0.012857 0.600083 1 2.02467e-08 1 2.02467e-08 0
2117 1 24.724 14.128 21.192 -4.44936 160194 160033 118239 38668 55749 -55865.4 12 11.0154 0.190941 0.574524 0.403915 0.012857 0.600083 1 1.65314e-08 1 1.65314e-08 0
2118 1 26.49 15.894 21.192 -4.44936 166199 195953 190017 9599.99 16899.8 -4979.21 12 11.0154 0.190941 0.574524 0.403915 0.012857 0.600083 1 0 1 0 0
2119 1 26.49 14.128 22.958 -4.44936 172444 198750 158527 915.947 32561.5 -1132.36 12 11.0154 0.190941 0.574524 0.403915 0.012857 0.600083 1 2.02467e-08 1 2.02467e-08 0
2120 1 24.724 15.894 22.958 -4.44936 188092 165574 51198.3 18841.5 39720.4 -70007 12 11.0154 0.190941 0.574524 0.403915 0.012857 0.600083 1 2.33789e-08 1 2.33789e-08 0
2121 1 28.256 14.128 21.192 -4.44936 197649 193557 182924 -2433.63 -4239.56 -9102.96 12 11.0154 0.190941 0.574524 0.403915 0.012857 0.600083 1 2.33789e-08 1 2.33789e-08 0
2122 1 30.022 15.894 21.192 -4.44936 157175 196392 191578 9971.28 -17312.5 4149.04 12 11.0154 0.190941 0.574524 0.403915 0.012857 0.600083 1 1.16894e-08 1 1.16894e-08 0
2123 1 30.022 14.128 22.958 -4.44936 67443.2 148839 197705 -80990.3 11891.1 7332.67 12 11.0154 0.190941 0.574524 0.403915 0.012857 0.600083 1 1.16894e-08 1 1.16894e-08 0
2124 1 28.256 15.894 22.958 -4.44936 196389 182551 163952 -6232.7 9130.1 23776.9 12 11.0154 0.190941 0.574524 0.403915 0.012857 0.600083 1 2.02467e-08 1 2.02467e-08 0
2125 1 0 17.66 21.192 -4.44936 162635 175356 186418 29099.7 -21140.4 17018.7 12 11.0154 0.190941 0.574524 0.403915 0.012857 0.600083 1 0 1 0 1.26218e-29
2126 1 1.766 19.426 21.192 -4.44936 154099 191051 101432 18586 -65953.9 27433.5 12 11.0154 0.190941 0.574524 0.403915 0.012857 0.600083 1 2.02467e-08 1 2.02467e-08 0
2127 1 1.766 17.66 22.958 -4.44936 130514 160129 179356 -51369.1 -36416.4 -27401.9 12 11.0154 0.190941 0.574524 0.403915 0.012857 0.600083 1 2.33789e-08 1 2.33789e-08 0
2128 1 0 19.426 22.958 -4.44936 198179 198647 198647 -285.259 -285.163 -134.934 12 11.0154 0.190941 0.574524 0.403915 0.012857 0.600083 1 2.02467e-08 1 2.02467e-08 1.26218e-29
2129 1 3.532 17.66 21.192 -4.44936 160073 196891 83172.6 8556.02 66896.3 -14786.4 12 11.0154 0.190941 0.574524 0.403915 0.012857 0.600083 1 0 1 0 0
2130 1 5.298 19.426 21.192 -4.44936 193117 165371 99672.8 13757.6 23694.9 -57544.1 12 11.0154 0.190941 0.574524 0.403915 0.012857 0.600083 1 1.16894e-08 1 1.16894e-08 0
2131 1 5.298 17.66 22.958 -4.44936 163287 190597 168652 17045.1 32703 -15704.2 12 11.0154 0.190941 0.574524 0.403915 0.012857 0.600083 1 2.02467e-08 1 2.02467e-08 0
2132 1 3.532 19.426 22.958 -4.44936 117231 101955 149325 -88861.5 -63508.1 -69201 12 11.0154 0.190941 0.574524 0.403915 0.012857 0.600083 1 1.16894e-08 1 1.16894e-08 0
2133 1 7.064 17.66 21.192 -4.44936 130988 188764 158315 -26061 52377.9 20134.7 12 11.0154 0.190941 0.574524 0.403915 0.012857 0.600083 1 2.33789e-08 1 2.33789e-08 0
2134 1 8.83 19.426 21.192 -4.44936 198428 198671 191838 198.563 -1568.27 879.232 12 11.0154 0.190941 0.574524 0.403915 0.012857 0.600083 1 0 1 0 0
2135 1 8.83 17.66 22.958 -4.44936 163174 196969 136425 -8034.85 47121.5 10632.8 12 11.0154 0.190941 0.574524 0.403915 0.012857 0.600083 1 1.65314e-08 1 1.65314e-08 0
2136 1 7.064 19.426 22.958 -4.44936 193296 173164 111163 11854.4 21923.3 -47377.2 12 11.0154 0.190941 0.574524 0.403915 0.012857 0.600083 1 1.65314e-08 1 1.65314e-08 0
2137 1 10.596 17.66 21.192 -4.44936 -51644.3 187182 179321 -53898.2 -69811.3 -15025.2 12 11.0154 0.190941 0.574524 0.403915 0.012857 0.600083 1 0 1 0 0
2138 1 12.362 19.426 21.192 -4.44936 191580 165286 121983 -15532.3 23518.9 50719.2 12 11.0154 0.190941 0.574524 0.403915 0.012857 0.600083 1 1.16894e-08 1 1.16894e-08 0
2139 1 12.362 17.66 22.958 -4.44936 178742 174072 188908 22253 14067.2 -15620.4 12 11.0154 0.190941 0.574524 0.403915 0.012857 0.600083 1 1.65314e-08 1 1.65314e-08 0
2140 1 10.596 19.426 22.958 -4.44936 162565 193592 38561.8 -13710.4 -76175.3 -28837.1 12 11.0154 0.190941 0.574524 0.403915 0.012857 0.600083 1 2.33789e-08 1 2.33789e-08 0
2141 1 14.128 17.66 21.192 -4.44936 177290 192333 146412 -11773.2 -33549.2 -18377.9 12 11.0154 0.190941 0.574524 0.403915 0.012857 0.600083 1 0 1 0 0
2142 1 15.894 19.426 21.192 -4.44936 198766 104423 198535 1243.62 63.6006 -4825.68 12 11.0154 0.190941 0.574524 0.403915 0.012857 0.600083 1 1.65314e-08 1 1.65314e-08 0
2143 1 15.894 17.66 22.958 -4.44936 180244 184285 190048 -16393.5 12724.3 11252.5 12 11.0154 0.190941 0.574524 0.403915 0.012857 0.600083 1 2.02467e-08 1 2.02467e-08 0
2144 1 14.128 19.426 22.958 -4.44936 175888 192080 197425 -12387.1 5574.12 3015.99 12 11.0154 0.190941 0.574524 0.403915 0.012857 0.600083 1 1.16894e-08 1 1.16894e-08 0
2145 1 17.66 17.66 21.192 -4.44936 157395 122708 197783 -56111.1 6431.31 8719.35 12 11.0154 0.190941 0.574524 0.403915 0.012857 0.600083 1 2.33789e-08 1 2.33789e-08 0
2146 1 19.426 19.426 21.192 -4.44936 115724 63580.2 160046 105970 56721.9 -72368.6 12 11.0154 0.190941 0.574524 0.403915 0.012857 0.600083 1 2.61384e-08 1 2.61384e-08 0
2147 1 19.426 17.66 22.958 -4.44936 188492 198758 198713 -497.078 844.286 40.7857 12 11.0154 0.190941 0.574524 0.403915 0.012857 0.600083 1 2.02467e-08 1 2.02467e-08 0
2148 1 17.66 19.426 22.958 -4.44936 190988 24698 55366.2 -36834.7 -33433 -158008 12 11.0154 0.190941 0.574524 0.403915 0.012857 0.600083 1 2.02467e-08 1 2.02467e-08 0
2149 1 21.192 17.66 21.192 -4.44936 198613 125269 184865 3528.59 -1535.31 31985.9 12 11.0154 0.190941 0.574524 0.403915 0.012857 0.600083 1 1.16894e-08 1 1.16894e-08 0
2150 1 22.958 19.426 21.192 -4.44936 182258 55296.9 197953 48692.4 -3700.42 10904.3 12 11.0154 0.190941 0.574524 0.403915 0.012857 0.600083 1 1.65314e-08 1 1.65314e-08 0
2151 1 22.958 17.66 22.958 -4.44936 59143 175002 163240 -57625.2 70449 29072.4 12 11.0154 0.190941 0.574524 0.403915 0.012857 0.600083 1 2.02467e-08 1 2.02467e-08 0
2152 1 21.192 19.426 22.958 -4.44936 186725 197444 186874 4016.75 11982.3 -3991.72 12 11.0154 0.190941 0.574524 0.403915 0.012857 0.600083 1 1.16894e-08 1 1.16894e-08 0
2153 1 24.724 17.66 21.192 -4.44936 176532 191459 5004.88 12764.3 -65661.6 37669.4 12 11.0154 0.190941 0.574524 0.403915 0.012857 0.600083 1 0 1 0 0
2154 1 26.49 19.426 21.192 -4.44936 185103 197903 196211 3468.26 -5929.77 1503.46 12 11.0154 0.190941 0.574524 0.403915 0.012857 0.600083 1 2.61384e-08 1 2.61384e-08 0
2155 1 26.49 17.66 22.958 -4.44936 194963 174638 197235 -9602.51 -2430.62 -6111.53 12 11.0154 0.190941 0.574524 0.403915 0.012857 0.600083 1 2.02467e-08 1 2.02467e-08 0
2156 1 24.724 19.426 22.958 -4.44936 196439 186733 128383 -5313.01 -12842.3 -29124.8 12 11.0154 0.190941 0.574524 0.403915 0.012857 0.600083 1 1.65314e-08 1 1.65314e-08 0
2157 1 28.256 17.66 21.192 -4.44936 156443 192415 161820 16419.1 -39559 15341.1 12 11.0154 0.190941 0.574524 0.403915 0.012857 0.600083 1 1.65314e-08 1 1.65314e-08 0
2158 1 30.022 19.426 21.192 -4.44936 198781 195871 79606.4 49.55 317.064 -18624.5 12 11.0154 0.190941 0.574524 0.403915 0.012857 0.600083 1 2.33789e-08 1 2.33789e-08 0
2159 1 30.022 17.66 22.958 -4.44936 183036 196586 198175 5879.99 3092.26 -1154.74 12 11.0154 0.190941 0.574524 0.403915 0.012857 0.600083 1 2.61384e-08 1 2.61384e-08 0
2160 1 28.256 19.426 22.958 -4.44936 137040 172796 179077 -40055.4 34880 22628.6 12 11.0154 0.190941 0.574524 0.403915 0.012857 0.600083 1 0 1 0 0
2161 1 0 21.192 21.192 -4.44936 191245 198024 195146 -2389.7 -5235.1 -1659.83 12 11.0154 0.190941 0.574524 0.403915 0.012857 0.600083 1 0 1 0 1.26218e-29
2162 1 1.766 22.958 21.192 -4.44936 177499 197306 183960 -5604.26 17761.1 4676.86 12 11.0154 0.190941 0.574524 0.403915 0.012857 0.600083 1 1.65314e-08 1 1.65314e-08 0
2163 1 1.766 21.192 22.958 -4.44936 172504 197862 4542.64 4916.18 -71444.3 13365.9 12 11.0154 0.190941 0.574524 0.403915 0.012857 0.600083 1 1.16894e-08 1 1.16894e-08 0
2164 1 0 22.958 22.958 -4.44936 173344 151769 198714 34582.1 -1317.85 1791.58 12 11.0154 0.190941 0.574524 0.403915 0.012857 0.600083 1 2.02467e-08 1 2.02467e-08 1.26218e-29
2165 1 3.532 21.192 21.192 -4.44936 139206 -38152.7 198402 -118809 -4760.84 -9494.29 12 11.0154 0.190941 0.574524 0.403915 0.012857 0.600083 1 1.16894e-08 1 1.16894e-08 0
2166 1 5.298 22.958 21.192 -4.44936 128806 196739 183377 11956 -32832.6 5609.71 12 11.0154 0.190941 0.574524 0.403915 0.012857 0.600083 1 1.16894e-08 1 1.16894e-08 0
2167 1 5.298 21.192 22.958 -4.44936 188465 186852 192508 -11094.2 8045.04 8651.18 12 11.0154 0.190941 0.574524 0.403915 0.012857 0.600083 1 1.16894e-08 1 1.16894e-08 0
2168 1 3.532 22.958 22.958 -4.44936 198509 195664 25680.4 923.075 -6877.32 23233.7 12 11.0154 0.190941 0.574524 0.403915 0.012857 0.600083 1 1.16894e-08 1 1.16894e-08 0
2169 1 7.064 21.192 21.192 -4.44936 109868 157879 155964 -60306.3 -61701.8 -41849.7 12 11.0154 0.190941 0.574524 0.403915 0.012857 0.600083 1 1.16894e-08 1 1.16894e-08 0
2170 1 8.83 22.958 21.192 -4.44936 196950 100312 193236 -13431.6 -3187.72 -23369.9 12 11.0154 0.190941 0.574524 0.403915 0.012857 0.600083 1 1.65314e-08 1 1.65314e-08 0
2171 1 8.83 21.192 22.958 -4.44936 184130 163042 198356 -22883.4 2497.42 3900.54 12 11.0154 0.190941 0.574524 0.403915 0.012857 0.600083 1 1.16894e-08 1 1.16894e-08 0
2172 1 7.064 22.958 22.958 -4.44936 192027 196518 -91564.4 -3910.41 -44285.6 -25637.6 12 11.0154 0.190941 0.574524 0.403915 0.012857 0.600083 1 1.16894e-08 1 1.16894e-08 0
2173 1 10.596 21.192 21.192 -4.44936 163975 177307 154654 -27339.9 39191.6 30783.6 12 11.0154 0.190941 0.574524 0.403915 0.012857 0.600083 1 1.16894e-08 1 1.16894e-08 0
2174 1 12.362 22.958 21.192 -4.44936 94830.8 139154 162297 78729.7 -61584.6 46642.5 12 11.0154 0.190941 0.574524 0.403915 0.012857 0.600083 1 1.16894e-08 1 1.16894e-08 0
2175 1 12.362 21.192 22.958 -4.44936 66748.9 23212.3 21801.3 152253 -152864 176274 12 11.0154 0.190941 0.574524 0.403915 0.012857 0.600083 1 1.16894e-08 1 1.16894e-08 0
2176 1 10.596 22.958 22.958 -4.44936 -30073.6 194222 106499 -32303.1 -145326 -20512.8 12 11.0154 0.190941 0.574524 0.403915 0.012857 0.600083 1 1.16894e-08 1 1.16894e-08 0
2177 1 14.128 21.192 21.192 -4.44936 198768 100171 -563.908 1184.29 -1683.83 140206 12 11.0154 0.190941 0.574524 0.403915 0.012857 0.600083 1 1.16894e-08 1 1.16894e-08 0
2178 1 15.894 22.958 21.192 -4.44936 130450 167121 197246 -46512.9 10246.3 6974.53 12 11.0154 0.190941 0.574524 0.403915 0.012857 0.600083 1 2.02467e-08 1 2.02467e-08 0
2179 1 15.894 21.192 22.958 -4.44936 192813 154732 47258.7 16215.8 -30075.1 81698 12 11.0154 0.190941 0.574524 0.403915 0.012857 0.600083 1 1.16894e-08 1 1.16894e-08 0
2180 1 14.128 22.958 22.958 -4.44936 181515 197436 195346 -4820.52 7702.74 2150.41 12 11.0154 0.190941 0.574524 0.403915 0.012857 0.600083 1 1.16894e-08 1 1.16894e-08 0
2181 1 17.66 21.192 21.192 -4.44936 135078 137826 187990 62314.6 26220.5 -25648.7 12 11.0154 0.190941 0.574524 0.403915 0.012857 0.600083 1 0 1 0 0
2182 1 19.426 22.958 21.192 -4.44936 167665 198632 198673 2161.96 -1839.15 127.779 12 11.0154 0.190941 0.574524 0.403915 0.012857 0.600083 1 0 1 0 0
2183 1 19.426 21.192 22.958 -4.44936 198183 198009 198114 -680.664 632.814 718.726 12 11.0154 0.190941 0.574524 0.403915 0.012857 0.600083 1 1.65314e-08 1 1.65314e-08 0
2184 1 17.66 22.958 22.958 -4.44936 66111.5 175632 186968 -55419.8 -39590.4 -16537.9 12 11.0154 0.190941 0.574524 0.403915 0.012857 0.600083 1 2.61384e-08 1 2.61384e-08 0
2185 1 21.192 21.192 21.192 -4.44936 195319 196595 164914 2752.29 10829.8 -8607.17 12 11.0154 0.190941 0.574524 0.403915 0.012857 0.600083 1 3.09273e-08 1 3.09273e-08 0
2186 1 22.958 22.958 21.192 -4.44936 162317 195368 183722 11157.9 -23433.9 7170.55 12 11.0154 0.190941 0.574524 0.403915 0.012857 0.600083 1 1.65314e-08 1 1.65314e-08 0
2187 1 22.958 21.192 22.958 -4.44936 196929 150027 189637 9504.92 4116.61 -21115.8 12 11.0154 0.190941 0.574524 0.403915 0.012857 0.600083 1 2.02467e-08 1 2.02467e-08 0
2188 1 21.192 22.958 22.958 -4.44936 126059 175068 145691 41527.8 -62136.1 35482.4 12 11.0154 0.190941 0.574524 0.403915 0.012857 0.600083 1 2.02467e-08 1 2.02467e-08 0
2189 1 24.724 21.192 21.192 -4.44936 187077 143508 183868 25435.8 13212.3 -28711.2 12 11.0154 0.190941 0.574524 0.403915 0.012857 0.600083 1 1.65314e-08 1 1.65314e-08 0
2190 1 26.49 22.958 21.192 -4.44936 196384 176040 48794.3 7384.92 18965.5 -58403.3 12 11.0154 0.190941 0.574524 0.403915 0.012857 0.600083 1 2.33789e-08 1 2.33789e-08 0
2191 1 26.49 21.192 22.958 -4.44936 184889 169585 191449 -20140.2 10093.1 14631.6 12 11.0154 0.190941 0.574524 0.403915 0.012857 0.600083 1 0 1 0 0
2192 1 24.724 22.958 22.958 -4.44936 115022 179227 67569.4 40470.6 104835 -50653.6 12 11.0154 0.190941 0.574524 0.403915 0.012857 0.600083 1 1.65314e-08 1 1.65314e-08 0
2193 1 28.256 21.192 21.192 -4.44936 117802 89274.7 194008 94169.4 -19662.3 22864.8 12 11.0154 0.190941 0.574524 0.403915 0.012857 0.600083 1 3.09273e-08 1 3.09273e-08 0
2194 1 30.022 22.958 21.192 -4.44936 149040 181980 174320 -28909.2 -34882.6 -20273.2 12 11.0154 0.190941 0.574524 0.403915 0.012857 0.600083 1 1.65314e-08 1 1.65314e-08 0
2195 1 30.022 21.192 22.958 -4.44936 193919 198164 148066 -1733.87 15703.8 5599.57 12 11.0154 0.190941 0.574524 0.403915 0.012857 0.600083 1 1.16894e-08 1 1.16894e-08 0
2196 1 28.256 22.958 22.958 -4.44936 141116 187937 180560 -25007.5 32415.5 14057.4 12 11.0154 0.190941 0.574524 0.403915 0.012857 0.600083 1 2.02467e-08 1 2.02467e-08 0
2197 1 0 24.724 21.192 -4.44936 198151 163366 198727 4728.4 186.081 -1393.77 12 11.0154 0.190941 0.574524 0.403915 0.012857 0.600083 1 2.02467e-08 1 2.02467e-08 1.26218e-29
2198 1 1.766 26.49 21.192 -4.44936 198179 171177 41937.1 -4079.38 9723.72 65800.9 12 11.0154 0.190941 0.574524 0.403915 0.012857 0.600083 1 1.65314e-08 1 1.65314e-08 0
2199 1 1.766 24.724 22.958 -4.44936 191594 44723.9 179947 -33277.9 11635.9 53867.6 12 11.0154 0.190941 0.574524 0.403915 0.012857 0.600083 1 1.65314e-08 1 1.65314e-08 0
2200 1 0 26.49 22.958 -4.44936 190791 192200 197219 7251.93 3533.42 -3206.84 12 11.0154 0.190941 0.574524 0.403915 0.012857 0.600083 1 2.02467e-08 1 2.02467e-08 1.26218e-29
2201 1 3.532 24.724 21.192 -4.44936 194656 167333 183549 11391.4 -7928 21887.2 12 11.0154 0.190941 0.574524 0.403915 0.012857 0.600083 1 0 1 0 0
2202 1 5.298 26.49 21.192 -4.44936 191962 165823 198710 14992 698.616 -1535.85 12 11.0154 0.190941 0.574524 0.403915 0.012857 0.600083 1 1.65314e-08 1 1.65314e-08 0
2203 1 5.298 24.724 22.958 -4.44936 198779 198610 182372 22.2525 -217.625 1677.94 12 11.0154 0.190941 0.574524 0.403915 0.012857 0.600083 1 1.16894e-08 1 1.16894e-08 0
2204 1 3.532 26.49 22.958 -4.44936 195706 101655 68886.7 17284.6 19988.7 -112323 12 11.0154 0.190941 0.574524 0.403915 0.012857 0.600083 1 1.65314e-08 1 1.65314e-08 0
2205 1 7.064 24.724 21.192 -4.44936 194358 140355 160412 -16077.5 13029 47348.2 12 11.0154 0.190941 0.574524 0.403915 0.012857 0.600083 1 1.65314e-08 1 1.65314e-08 0
2206 1 8.83 26.49 21.192 -4.44936 195936 181068 197525 7100.55 -1891.4 4718.46 12 11.0154 0.190941 0.574524 0.403915 0.012857 0.600083 1 0 1 0 0
2207 1 8.83 24.724 22.958 -4.44936 139080 189238 181160 23869.9 -32435.6 12968.3 12 11.0154 0.190941 0.574524 0.403915 0.012857 0.600083 1 1.65314e-08 1 1.65314e-08 0
2208 1 7.064 26.49 22.958 -4.44936 149264 188479 153655 -22586.8 -47271.5 -21562.1 12 11.0154 0.190941 0.574524 0.403915 0.012857 0.600083 1 1.65314e-08 1 1.65314e-08 0
2209 1 10.596 24.724 21.192 -4.44936 198730 198173 193492 -177.204 522.341 1794.55 12 11.0154 0.190941 0.574524 0.403915 0.012857 0.600083 1 0 1 0 0
2210 1 12.362 26.49 21.192 -4.44936 -4046.06 136447 198700 -112442 4084.32 2264.23 12 11.0154 0.190941 0.574524 0.403915 0.012857 0.600083 1 1.65314e-08 1 1.65314e-08 0
2211 1 12.362 24.724 22.958 -4.44936 191289 198195 196622 2097.78 4022.99 -1126.24 12 11.0154 0.190941 0.574524 0.403915 0.012857 0.600083 1 1.65314e-08 1 1.65314e-08 0
2212 1 10.596 26.49 22.958 -4.44936 185564 196363 197931 -5654.61 -3354.42 -1435 12 11.0154 0.190941 0.574524 0.403915 0.012857 0.600083 1 0 1 0 0
2213 1 14.128 24.724 21.192 -4.44936 194592 163856 85341.4 -12097.5 -21802.4 -62944.6 12 11.0154 0.190941 0.574524 0.403915 0.012857 0.600083 1 0 1 0 0
2214 1 15.894 26.49 21.192 -4.44936 161979 153455 188412 40843.4 -19536.1 21680.7 12 11.0154 0.190941 0.574524 0.403915 0.012857 0.600083 1 1.65314e-08 1 1.65314e-08 0
2215 1 15.894 24.724 22.958 -4.44936 196828 105090 145189 13528.9 10232.1 -70861 12 11.0154 0.190941 0.574524 0.403915 0.012857 0.600083 1 1.16894e-08 1 1.16894e-08 0
2216 1 14.128 26.49 22.958 -4.44936 157457 177180 198136 -29877.8 -5166.04 -3735.02 12 11.0154 0.190941 0.574524 0.403915 0.012857 0.600083 1 1.65314e-08 1 1.65314e-08 0
2217 1 17.66 24.724 21.192 -4.44936 193488 193391 196580 -5342.02 -3413.89 -3445.04 12 11.0154 0.190941 0.574524 0.403915 0.012857 0.600083 1 2.61384e-08 1 2.61384e-08 0
2218 1 19.426 26.49 21.192 -4.44936 197424 175385 119182 -5637.63 -10398.7 -43155.3 12 11.0154 0.190941 0.574524 0.403915 0.012857 0.600083 1 0 1 0 0
2219 1 19.426 24.724 22.958 -4.44936 186266 138314 195376 -27510.2 -6528.81 -14350.3 12 11.0154 0.190941 0.574524 0.403915 0.012857 0.600083 1 2.33789e-08 1 2.33789e-08 0
2220 1 17.66 26.49 22.958 -4.44936 198508 193155 198782 1242.25 -0.465429 2.10833 12 11.0154 0.190941 0.574524 0.403915 0.012857 0.600083 1 2.02467e-08 1 2.02467e-08 0
2221 1 21.192 24.724 21.192 -4.44936 195507 181459 194841 7532.44 3592.62 -8262.14 12 11.0154 0.190941 0.574524 0.403915 0.012857 0.600083 1 2.33789e-08 1 2.33789e-08 0
2222 1 22.958 26.49 21.192 -4.44936 194196 189680 176409 6460.6 10129.3 -14269.8 12 11.0154 0.190941 0.574524 0.403915 0.012857 0.600083 1 0 1 0 0
2223 1 22.958 24.724 22.958 -4.44936 167749 193094 157530 13285.5 35779.4 -15317.7 12 11.0154 0.190941 0.574524 0.403915 0.012857 0.600083 1 1.65314e-08 1 1.65314e-08 0
2224 1 21.192 26.49 22.958 -4.44936 165900 115181 198126 -52430.2 -4643.57 -7404.26 12 11.0154 0.190941 0.574524 0.403915 0.012857 0.600083 1 1.65314e-08 1 1.65314e-08 0
2225 1 24.724 24.724 21.192 -4.44936 189862 179713 190967 -13042.3 8349.63 12207.8 12 11.0154 0.190941 0.574524 0.403915 0.012857 0.600083 1 1.65314e-08 1 1.65314e-08 0
2226 1 26.49 26.49 21.192 -4.44936 194595 122540 115088 17867.3 18720.1 -79881.5 12 11.0154 0.190941 0.574524 0.403915 0.012857 0.600083 1 1.65314e-08 1 1.65314e-08 0
2227 1 26.49 24.724 22.958 -4.44936 190565 153223 156443 -19348.6 18652.4 43919.3 12 11.0154 0.190941 0.574524 0.403915 0.012857 0.600083 1 2.33789e-08 1 2.33789e-08 0
2228 1 24.724 26.49 22.958 -4.44936 193811 197586 198780 -2437.9 -100.17 -49.1297 12 11.0154 0.190941 0.574524 0.403915 0.012857 0.600083 1 2.86331e-08 1 2.86331e-08 0
2229 1 28.256 24.724 21.192 -4.44936 179180 192053 187500 11485.3 -14871.4 8713.28 12 11.0154 0.190941 0.574524 0.403915 0.012857 0.600083 1 1.65314e-08 1 1.65314e-08 0
2230 1 30.022 26.49 21.192 -4.44936 195587 102288 193583 -17559 -4075.77 -22398.1 12 11.0154 0.190941 0.574524 0.403915 0.012857 0.600083 1 2.02467e-08 1 2.02467e-08 0
2231 1 30.022 24.724 22.958 -4.44936 196664 197226 197615 1815.5 -1572.04 1347.48 12 11.0154 0.190941 0.574524 0.403915 0.012857 0.600083 1 1.65314e-08 1 1.65314e-08 0
2232 1 28.256 26.49 22.958 -4.44936 197999 189127 198407 2749.38 -541.731 1902.47 12 11.0154 0.190941 0.574524 0.403915 0.012857 0.600083 1 2.02467e-08 1 2.02467e-08 0
2233 1 0 28.256 21.192 -4.44936 196431 132989 181981 12436.7 6284.61 -33247.1 12 11.0154 0.190941 0.574524 0.403915 0.012857 0.600083 1 1.16894e-08 1 1.16894e-08 1.26218e-29
2234 1 1.766 30.022 21.192 -4.44936 198769 195021 188759 -219.36 -358.12 -6139.65 12 11.0154 0.190941 0.574524 0.403915 0.012857 0.600083 1 2.02467e-08 1 2.02467e-08 0
2235 1 1.766 28.256 22.958 -4.44936 166333 191288 -70424.1 -15593.7 -93464.3 -44914.6 12 11.0154 0.190941 0.574524 0.403915 0.012857 0.600083 1 1.16894e-08 1 1.16894e-08 0
2236 1 0 30.022 22.958 -4.44936 181453 181902 175901 -17102.9 19912.3 19652.5 12 11.0154 0.190941 0.574524 0.403915 0.012857 0.600083 1 2.02467e-08 1 2.02467e-08 1.26218e-29
2237 1 3.532 28.256 21.192 -4.44936 198182 172303 133847 3987.24 6244.01 -41465.8 12 11.0154 0.190941 0.574524 0.403915 0.012857 0.600083 1 2.33789e-08 1 2.33789e-08 0
2238 1 5.298 30.022 21.192 -4.44936 187797 179827 141980 -14430 24979.8 32812.6 12 11.0154 0.190941 0.574524 0.403915 0.012857 0.600083 1 1.65314e-08 1 1.65314e-08 0
2239 1 5.298 28.256 22.958 -4.44936 89565.6 197292 197278 -12757.9 12818.1 1497.33 12 11.0154 0.190941 0.574524 0.403915 0.012857 0.600083 1 1.16894e-08 1 1.16894e-08 0
2240 1 3.532 30.022 22.958 -4.44936 192030 195869 172010 -4434.9 -13444.8 -8831.07 12 11.0154 0.190941 0.574524 0.403915 0.012857 0.600083 1 2.33789e-08 1 2.33789e-08 0
2241 1 7.064 28.256 21.192 -4.44936 113342 110937 191187 -86633.9 25473 25829.1 12 11.0154 0.190941 0.574524 0.403915 0.012857 0.600083 1 1.16894e-08 1 1.16894e-08 0
2242 1 8.83 30.022 21.192 -4.44936 185025 168118 198273 20539 -2646.95 3951.77 12 11.0154 0.190941 0.574524 0.403915 0.012857 0.600083 1 1.16894e-08 1 1.16894e-08 0
2243 1 8.83 28.256 22.958 -4.44936 192896 164856 169591 -14131.4 13108.2 31469.7 12 11.0154 0.190941 0.574524 0.403915 0.012857 0.600083 1 0 1 0 0
2244 1 7.064 30.022 22.958 -4.44936 193586 198094 193835 -1890.75 5069.97 1844.75 12 11.0154 0.190941 0.574524 0.403915 0.012857 0.600083 1 2.33789e-08 1 2.33789e-08 0
2245 1 10.596 28.256 21.192 -4.44936 126858 198540 198479 4167.96 -4671.1 270.688 12 11.0154 0.190941 0.574524 0.403915 0.012857 0.600083 1 1.16894e-08 1 1.16894e-08 0
2246 1 12.362 30.022 21.192 -4.44936 190689 198697 182602 -827.055 -11443 -1169.39 12 11.0154 0.190941 0.574524 0.403915 0.012857 0.600083 1 1.16894e-08 1 1.16894e-08 0
2247 1 12.362 28.256 22.958 -4.44936 192455 198366 183697 -1622.66 -9769.24 -2505.53 12 11.0154 0.190941 0.574524 0.403915 0.012857 0.600083 1 1.16894e-08 1 1.16894e-08 0
2248 1 10.596 30.022 22.958 -4.44936 193198 185898 198661 8481.95 822.237 -1248.96 12 11.0154 0.190941 0.574524 0.403915 0.012857 0.600083 1 0 1 0 0
2249 1 14.128 28.256 21.192 -4.44936 36484.9 198727 134990 -2999.76 101751 1880.68 12 11.0154 0.190941 0.574524 0.403915 0.012857 0.600083 1 2.33789e-08 1 2.33789e-08 0
2250 1 15.894 30.022 21.192 -4.44936 174381 191813 66667 -13040.2 56777.4 30343 12 11.0154 0.190941 0.574524 0.403915 0.012857 0.600083 1 1.16894e-08 1 1.16894e-08 0
2251 1 15.894 28.256 22.958 -4.44936 181308 198680 192285 1337.83 -10654.9 815.761 12 11.0154 0.190941 0.574524 0.403915 0.012857 0.600083 1 1.65314e-08 1 1.65314e-08 0
2252 1 14.128 30.022 22.958 -4.44936 35693.5 184724 190135 47881.4 -37552.7 11025.1 12 11.0154 0.190941 0.574524 0.403915 0.012857 0.600083 1 2.33789e-08 1 2.33789e-08 0
2253 1 17.66 28.256 21.192 -4.44936 89773.7 141210 157414 79220.4 -67152.1 48802 12 11.0154 0.190941 0.574524 0.403915 0.012857 0.600083 1 1.16894e-08 1 1.16894e-08 0
2254 1 19.426 30.022 21.192 -4.44936 183700 161375 186651 23752.3 -13526.3 21302.1 12 11.0154 0.190941 0.574524 0.403915 0.012857 0.600083 1 1.65314e-08 1 1.65314e-08 0
2255 1 19.426 28.256 22.958 -4.44936 36986.5 152723 63479.8 -86326 -147957 -78942.4 12 11.0154 0.190941 0.574524 0.403915 0.012857 0.600083 1 1.16894e-08 1 1.16894e-08 0
2256 1 17.66 30.022 22.958 -4.44936 159567 170238 101666 33457 61712.6 -52650.7 12 11.0154 0.190941 0.574524 0.403915 0.012857 0.600083 1 1.16894e-08 1 1.16894e-08 0
2257 1 21.192 28.256 21.192 -4.44936 198684 69255.2 189204 3556.5 967.144 -35223.1 12 11.0154 0.190941 0.574524 0.403915 0.012857 0.600083 1 3.09273e-08 1 3.09273e-08 0
2258 1 22.958 30.022 21.192 -4.44936 171104 99303.9 178986 52472.3 -23407.3 44376.1 12 11.0154 0.190941 0.574524 0.403915 0.012857 0.600083 1 1.65314e-08 1 1.65314e-08 0
2259 1 22.958 28.256 22.958 -4.44936 11303.5 189151 198782 42491.5 -180.214 40.8449 12 11.0154 0.190941 0.574524 0.403915 0.012857 0.600083 1 1.16894e-08 1 1.16894e-08 0
2260 1 21.192 30.022 22.958 -4.44936 197388 134151 93480.4 9492.81 -12116.9 82496.7 12 11.0154 0.190941 0.574524 0.403915 0.012857 0.600083 1 1.16894e-08 1 1.16894e-08 0
2261 1 24.724 28.256 21.192 -4.44936 126021 198600 194964 3634.3 16666.4 -832.46 12 11.0154 0.190941 0.574524 0.403915 0.012857 0.600083 1 1.65314e-08 1 1.65314e-08 0
2262 1 26.49 30.022 21.192 -4.44936 196654 197589 -92018.2 -1593.45 24876.5 18627.1 12 11.0154 0.190941 0.574524 0.403915 0.012857 0.600083 1 1.65314e-08 1 1.65314e-08 0
2263 1 26.49 28.256 22.958 -4.44936 148007 128800 196618 59609.4 -10482.1 12306 12 11.0154 0.190941 0.574524 0.403915 0.012857 0.600083 1 0 1 0 0
2264 1 24.724 30.022 22.958 -4.44936 145987 198727 143903 -1707.99 -53827.1 -1741.37 12 11.0154 0.190941 0.574524 0.403915 0.012857 0.600083 1 1.65314e-08 1 1.65314e-08 0
2265 1 28.256 28.256 21.192 -4.44936 197688 185899 169944 3754.1 -5616.82 19274.6 12 11.0154 0.190941 0.574524 0.403915 0.012857 0.600083 1 3.09273e-08 1 3.09273e-08 0
2266 1 30.022 30.022 21.192 -4.44936 115578 167244 198770 -51226 -1007.42 -620.233 12 11.0154 0.190941 0.574524 0.403915 0.012857 0.600083 1 1.65314e-08 1 1.65314e-08 0
2267 1 30.022 28.256 22.958 -4.44936 192318 181318 169291 -10624.7 13806.7 22694.5 12 11.0154 0.190941 0.574524 0.403915 0.012857 0.600083 1 1.65314e-08 1 1.65314e-08 0
2268 1 28.256 30.022 22.958 -4.44936 125710 89006.2 119522 89562.9 76103 -93278.2 12 11.0154 0.190941 0.574524 0.403915 0.012857 0.600083 1 1.65314e-08 1 1.65314e-08 0
2269 1 0 0 24.724 -4.44936 196947 196881 191983 -1867.87 3532.27 3595.47 12 11.0154 0.190941 0.574524 0.403915 0.012857 0.600083 1 3.30627e-08 1 3.30627e-08 2.52435e-29
2270 1 1.766 1.766 24.724 -4.44936 121975 197174 192379 11114 22176.3 -3208.92 12 11.0154 0.190941 0.574524 0.403915 0.012857 0.600083 1 1.65314e-08 1 1.65314e-08 0
2271 1 1.766 0 26.49 -4.44936 191004 198773 194844 -271.08 5534.63 192.886 12 11.0154 0.190941 0.574524 0.403915 0.012857 0.600083 1 2.33789e-08 1 2.33789e-08 1.26218e-29
2272 1 0 1.766 26.49 -4.44936 123662 170321 158740 46238.5 -54844.4 33758.4 12 11.0154 0.190941 0.574524 0.403915 0.012857 0.600083 1 2.61384e-08 1 2.61384e-08 1.26218e-29
2273 1 3.532 0 24.724 -4.44936 194955 -24414.4 127071 29224.7 16565.3 -126513 12 11.0154 0.190941 0.574524 0.403915 0.012857 0.600083 1 2.61384e-08 1 2.61384e-08 1.26218e-29
2274 1 5.298 1.766 24.724 -4.44936 167179 198781 198748 172.072 1040.02 -5.6628 12 11.0154 0.190941 0.574524 0.403915 0.012857 0.600083 1 3.09273e-08 1 3.09273e-08 0
2275 1 5.298 0 26.49 -4.44936 198780 198779 -5508.04 1.98991 553.929 -733.884 12 11.0154 0.190941 0.574524 0.403915 0.012857 0.600083 1 2.61384e-08 1 2.61384e-08 1.26218e-29
2276 1 3.532 1.766 26.49 -4.44936 181918 183636 192487 -15982.1 -10303.2 -9764.22 12 11.0154 0.190941 0.574524 0.403915 0.012857 0.600083 1 1.65314e-08 1 1.65314e-08 0
2277 1 7.064 0 24.724 -4.44936 189329 192625 -291083 -7629.34 -68050.5 -54920.2 12 11.0154 0.190941 0.574524 0.403915 0.012857 0.600083 1 2.61384e-08 1 2.61384e-08 1.26218e-29
2278 1 8.83 1.766 24.724 -4.44936 198400 198293 163910 432.07 3647.86 -4130.41 12 11.0154 0.190941 0.574524 0.403915 0.012857 0.600083 1 2.02467e-08 1 2.02467e-08 0
2279 1 8.83 0 26.49 -4.44936 198628 -96763.9 191301 6743.1 1072.84 -47021.7 12 11.0154 0.190941 0.574524 0.403915 0.012857 0.600083 1 2.61384e-08 1 2.61384e-08 1.26218e-29
2280 1 7.064 1.766 26.49 -4.44936 194721 152221 182771 13750.1 8063.08 -27303.6 12 11.0154 0.190941 0.574524 0.403915 0.012857 0.600083 1 2.33789e-08 1 2.33789e-08 0
2281 1 10.596 0 24.724 -4.44936 119616 30846.6 46625.8 -115303 109752 159851 12 11.0154 0.190941 0.574524 0.403915 0.012857 0.600083 1 2.61384e-08 1 2.61384e-08 1.26218e-29
2282 1 12.362 1.766 24.724 -4.44936 198773 147614 198782 672.408 -0.858818 65.353 12 11.0154 0.190941 0.574524 0.403915 0.012857 0.600083 1 2.86331e-08 1 2.86331e-08 0
2283 1 12.362 0 26.49 -4.44936 125676 193942 184528 18809.8 32281.1 -8305.81 12 11.0154 0.190941 0.574524 0.403915 0.012857 0.600083 1 0 1 0 1.26218e-29
2284 1 10.596 1.766 26.49 -4.44936 161374 196624 197652 -8985.16 -6501.56 -1561.63 12 11.0154 0.190941 0.574524 0.403915 0.012857 0.600083 1 0 1 0 0
2285 1 14.128 0 24.724 -4.44936 169530 25793.4 81128.9 -71134.9 58664.6 142663 12 11.0154 0.190941 0.574524 0.403915 0.012857 0.600083 1 2.61384e-08 1 2.61384e-08 1.26218e-29
2286 1 15.894 1.766 24.724 -4.44936 135901 -126188 -27821.9 142949 119370 -271366 12 11.0154 0.190941 0.574524 0.403915 0.012857 0.600083 1 3.09273e-08 1 3.09273e-08 0
2287 1 15.894 0 26.49 -4.44936 128653 190650 172656 23880.8 -42804.2 14576 12 11.0154 0.190941 0.574524 0.403915 0.012857 0.600083 1 2.61384e-08 1 2.61384e-08 1.26218e-29
2288 1 14.128 1.766 26.49 -4.44936 177102 195565 196318 8351.73 7308.85 -2815.57 12 11.0154 0.190941 0.574524 0.403915 0.012857 0.600083 1 1.65314e-08 1 1.65314e-08 0
2289 1 17.66 0 24.724 -4.44936 177276 187952 180821 15261.5 19653.7 -13947.4 12 11.0154 0.190941 0.574524 0.403915 0.012857 0.600083 1 3.30627e-08 1 3.30627e-08 1.26218e-29
2290 1 19.426 1.766 24.724 -4.44936 186354 133138 196337 28562.6 -5512.16 12668.3 12 11.0154 0.190941 0.574524 0.403915 0.012857 0.600083 1 1.65314e-08 1 1.65314e-08 0
2291 1 19.426 0 26.49 -4.44936 195612 197522 187109 1998.44 -6083.35 3834.8 12 11.0154 0.190941 0.574524 0.403915 0.012857 0.600083 1 2.02467e-08 1 2.02467e-08 1.26218e-29
2292 1 17.66 1.766 26.49 -4.44936 195434 147661 -228085 -13082.1 37802.9 147722 12 11.0154 0.190941 0.574524 0.403915 0.012857 0.600083 1 1.65314e-08 1 1.65314e-08 0
2293 1 21.192 0 24.724 -4.44936 33104.2 193561 195680 29409.7 22669.6 -4024.1 12 11.0154 0.190941 0.574524 0.403915 0.012857 0.600083 1 0 1 0 1.26218e-29
2294 1 22.958 1.766 24.724 -4.44936 -100013 164608 198547 -101049 8387.23 2836.48 12 11.0154 0.190941 0.574524 0.403915 0.012857 0.600083 1 1.65314e-08 1 1.65314e-08 0
2295 1 22.958 0 26.49 -4.44936 198179 133907 198488 -6253.91 -420.826 -4365.41 12 11.0154 0.190941 0.574524 0.403915 0.012857 0.600083 1 2.61384e-08 1 2.61384e-08 1.26218e-29
2296 1 21.192 1.766 26.49 -4.44936 186463 198778 194903 214.844 -6912.52 120.556 12 11.0154 0.190941 0.574524 0.403915 0.012857 0.600083 1 1.16894e-08 1 1.16894e-08 0
2297 1 24.724 0 24.724 -4.44936 150966 137844 188313 -53980.1 22374 25258.1 12 11.0154 0.190941 0.574524 0.403915 0.012857 0.600083 1 3.09273e-08 1 3.09273e-08 1.26218e-29
2298 1 26.49 1.766 24.724 -4.44936 177912 186854 192298 -15778.1 11632.4 8794.27 12 11.0154 0.190941 0.574524 0.403915 0.012857 0.600083 1 2.61384e-08 1 2.61384e-08 0
2299 1 26.49 0 26.49 -4.44936 179973 175002 132192 21149.1 35390.5 -39793.5 12 11.0154 0.190941 0.574524 0.403915 0.012857 0.600083 1 2.02467e-08 1 2.02467e-08 1.26218e-29
2300 1 24.724 1.766 26.49 -4.44936 188545 196286 187561 5054.79 10717.6 -5292.13 12 11.0154 0.190941 0.574524 0.403915 0.012857 0.600083 1 1.16894e-08 1 1.16894e-08 0
2301 1 28.256 0 24.724 -4.44936 186755 125339 196985 -29720.3 -4648.98 -11488.3 12 11.0154 0.190941 0.574524 0.403915 0.012857 0.600083 1 2.61384e-08 1 2.61384e-08 1.26218e-29
2302 1 30.022 1.766 24.724 -4.44936 198745 150902 156440 -1327 -1247.89 -45026 12 11.0154 0.190941 0.574524 0.403915 0.012857 0.600083 1 2.86331e-08 1 2.86331e-08 0
2303 1 30.022 0 26.49 -4.44936 135907 118686 146805 70965 -57166.7 64522.4 12 11.0154 0.190941 0.574524 0.403915 0.012857 0.600083 1 2.61384e-08 1 2.61384e-08 1.26218e-29
2304 1 28.256 1.766 26.49 -4.44936 172818 192381 187916 -12892 16796.1 8339.95 12 11.0154 0.190941 0.574524 0.403915 0.012857 0.600083 1 1.16894e-08 1 1.16894e-08 0
2305 1 0 3.532 24.724 -4.44936 196946 194982 186684 2641.38 -4713.22 6779.95 12 11.0154 0.190941 0.574524 0.403915 0.012857 0.600083 1 2.33789e-08 1 2.33789e-08 1.26218e-29
2306 1 1.766 5.298 24.724 -4.44936 82977.3 196845 197930 14978.7 -9931.69 1284.61 12 11.0154 0.190941 0.574524 0.403915 0.012857 0.600083 1 2.02467e-08 1 2.02467e-08 0
2307 1 1.766 3.532 26.49 -4.44936 191585 150124 152544 18713.6 -18242.2 47432.8 12 11.0154 0.190941 0.574524 0.403915 0.012857 0.600083 1 1.65314e-08 1 1.65314e-08 0
2308 1 0 5.298 26.49 -4.44936 164541 -26190.1 197469 87768.8 6703.87 -17183.6 12 11.0154 0.190941 0.574524 0.403915 0.012857 0.600083 1 2.02467e-08 1 2.02467e-08 1.26218e-29
2309 1 3.532 3.532 24.724 -4.44936 126788 165714 192157 48792.5 21838.6 -14800.6 12 11.0154 0.190941 0.574524 0.403915 0.012857 0.600083 1 1.65314e-08 1 1.65314e-08 0
2310 1 5.298 5.298 24.724 -4.44936 187430 -197914 136335 -67105 -26624.6 -157393 12 11.0154 0.190941 0.574524 0.403915 0.012857 0.600083 1 2.02467e-08 1 2.02467e-08 0
2311 1 5.298 3.532 26.49 -4.44936 165827 182524 172019 -23147.1 -29698.1 -20859.7 12 11.0154 0.190941 0.574524 0.403915 0.012857 0.600083 1 2.33789e-08 1 2.33789e-08 0
2312 1 3.532 5.298 26.49 -4.44936 51336 87672.5 167411 -127995 68011.7 59039.5 12 11.0154 0.190941 0.574524 0.403915 0.012857 0.600083 1 0 1 0 0
2313 1 7.064 3.532 24.724 -4.44936 195132 164436 129020 11195.8 -15956.1 48949.4 12 11.0154 0.190941 0.574524 0.403915 0.012857 0.600083 1 1.65314e-08 1 1.65314e-08 0
2314 1 8.83 5.298 24.724 -4.44936 173311 184829 68272.1 -18851.5 -57655.4 -42672.6 12 11.0154 0.190941 0.574524 0.403915 0.012857 0.600083 1 2.86331e-08 1 2.86331e-08 0
2315 1 8.83 3.532 26.49 -4.44936 198717 167727 198780 -1416.45 11.7832 258.341 12 11.0154 0.190941 0.574524 0.403915 0.012857 0.600083 1 0 1 0 0
2316 1 7.064 5.298 26.49 -4.44936 88952.6 197597 189411 11406.2 32081 -3331.72 12 11.0154 0.190941 0.574524 0.403915 0.012857 0.600083 1 0 1 0 0
2317 1 10.596 3.532 24.724 -4.44936 -129763 193955 109470 39823.6 171298 -20763.3 12 11.0154 0.190941 0.574524 0.403915 0.012857 0.600083 1 1.65314e-08 1 1.65314e-08 0
2318 1 12.362 5.298 24.724 -4.44936 197689 194537 198758 2153.61 -162.218 319.73 12 11.0154 0.190941 0.574524 0.403915 0.012857 0.600083 1 2.33789e-08 1 2.33789e-08 0
2319 1 12.362 3.532 26.49 -4.44936 111234 126639 110239 79473.3 88044.2 -79923.8 12 11.0154 0.190941 0.574524 0.403915 0.012857 0.600083 1 2.33789e-08 1 2.33789e-08 0
2320 1 10.596 5.298 26.49 -4.44936 198511 172334 106741 -2676.46 4992.91 49338.8 12 11.0154 0.190941 0.574524 0.403915 0.012857 0.600083 1 2.33789e-08 1 2.33789e-08 0
2321 1 14.128 3.532 24.724 -4.44936 182397 165759 83445.2 23260.9 43471.4 -61714.9 12 11.0154 0.190941 0.574524 0.403915 0.012857 0.600083 1 1.65314e-08 1 1.65314e-08 0
2322 1 15.894 5.298 24.724 -4.44936 136638 159565 188167 -49367.1 25684 20403.2 12 11.0154 0.190941 0.574524 0.403915 0.012857 0.600083 1 2.61384e-08 1 2.61384e-08 0
2323 1 15.894 3.532 26.49 -4.44936 198443 182596 183161 2341.76 2300.47 -15900.9 12 11.0154 0.190941 0.574524 0.403915 0.012857 0.600083 1 0 1 0 0
2324 1 14.128 5.298 26.49 -4.44936 197927 162836 168168 -5542.07 -5114.54 -33172.5 12 11.0154 0.190941 0.574524 0.403915 0.012857 0.600083 1 0 1 0 0
2325 1 17.66 3.532 24.724 -4.44936 195879 181059 194231 7172.63 -3634.78 8981.44 12 11.0154 0.190941 0.574524 0.403915 0.012857 0.600083 1 2.61384e-08 1 2.61384e-08 0
2326 1 19.426 5.298 24.724 -4.44936 14853.2 77446.8 195384 -149389 24999.2 20304.6 12 11.0154 0.190941 0.574524 0.403915 0.012857 0.600083 1 2.86331e-08 1 2.86331e-08 0
2327 1 19.426 3.532 26.49 -4.44936 86954 193736 183713 -23755.2 -41050.9 -8720.31 12 11.0154 0.190941 0.574524 0.403915 0.012857 0.600083 1 1.65314e-08 1 1.65314e-08 0
2328 1 17.66 5.298 26.49 -4.44936 190441 184044 198637 -11087.2 -1099.49 -1461.56 12 11.0154 0.190941 0.574524 0.403915 0.012857 0.600083 1 1.65314e-08 1 1.65314e-08 0
2329 1 21.192 3.532 24.724 -4.44936 106267 -3288.61 122422 -136728 -84050.4 -124218 12 11.0154 0.190941 0.574524 0.403915 0.012857 0.600083 1 1.65314e-08 1 1.65314e-08 0
2330 1 22.958 5.298 24.724 -4.44936 178839 130981 92722 -36771.7 -45990.9 -84799.5 12 11.0154 0.190941 0.574524 0.403915 0.012857 0.600083 1 1.65314e-08 1 1.65314e-08 0
2331 1 22.958 3.532 26.49 -4.44936 198580 24842.7 194084 -5931.77 -974.805 -28584.5 12 11.0154 0.190941 0.574524 0.403915 0.012857 0.600083 1 0 1 0 0
2332 1 21.192 5.298 26.49 -4.44936 198656 195076 159343 682.115 -2225.18 12089.7 12 11.0154 0.190941 0.574524 0.403915 0.012857 0.600083 1 1.65314e-08 1 1.65314e-08 0
2333 1 24.724 3.532 24.724 -4.44936 198611 -64756.5 189140 -6705.63 1282.6 50407.4 12 11.0154 0.190941 0.574524 0.403915 0.012857 0.600083 1 2.86331e-08 1 2.86331e-08 0
2334 1 26.49 5.298 24.724 -4.44936 86489 168471 50545.2 -58340.9 -129019 -67030.9 12 11.0154 0.190941 0.574524 0.403915 0.012857 0.600083 1 1.16894e-08 1 1.16894e-08 0
2335 1 26.49 3.532 26.49 -4.44936 192881 182640 198312 -9759.47 1664.74 2753.4 12 11.0154 0.190941 0.574524 0.403915 0.012857 0.600083 1 2.02467e-08 1 2.02467e-08 0
2336 1 24.724 5.298 26.49 -4.44936 50632 187236 174349 -41358.9 60163.7 16795.8 12 11.0154 0.190941 0.574524 0.403915 0.012857 0.600083 1 1.65314e-08 1 1.65314e-08 0
2337 1 28.256 3.532 24.724 -4.44936 130006 153340 197561 55904.5 9162.42 -7447.66 12 11.0154 0.190941 0.574524 0.403915 0.012857 0.600083 1 1.65314e-08 1 1.65314e-08 0
2338 1 30.022 5.298 24.724 -4.44936 41446.3 166463 193123 -71308.8 29840 13524.3 12 11.0154 0.190941 0.574524 0.403915 0.012857 0.600083 1 2.61384e-08 1 2.61384e-08 0
2339 1 30.022 3.532 26.49 -4.44936 127205 171289 120271 -44360.4 -74963.7 -46459.6 12 11.0154 0.190941 0.574524 0.403915 0.012857 0.600083 1 2.02467e-08 1 2.02467e-08 0
2340 1 28.256 5.298 26.49 -4.44936 177307 198276 196466 3296.35 7052.7 -1082.55 12 11.0154 0.190941 0.574524 0.403915 0.012857 0.600083 1 1.16894e-08 1 1.16894e-08 0
2341 1 0 7.064 24.724 -4.44936 63857.2 189902 112921 -34614 107633 27612.5 12 11.0154 0.190941 0.574524 0.403915 0.012857 0.600083 1 2.33789e-08 1 2.33789e-08 1.26218e-29
2342 1 1.766 8.83 24.724 -4.44936 143246 190659 -48564.5 21239.2 -117204 44823 12 11.0154 0.190941 0.574524 0.403915 0.012857 0.600083 1 1.65314e-08 1 1.65314e-08 0
2343 1 1.766 7.064 26.49 -4.44936 198771 182072 195235 431.216 198.661 -7698.09 12 11.0154 0.190941 0.574524 0.403915 0.012857 0.600083 1 2.33789e-08 1 2.33789e-08 0
2344 1 0 8.83 26.49 -4.44936 81298.3 183700 194714 -42093.1 21861.4 7832.69 12 11.0154 0.190941 0.574524 0.403915 0.012857 0.600083 1 2.33789e-08 1 2.33789e-08 1.26218e-29
2345 1 3.532 7.064 24.724 -4.44936 196687 198721 183543 -356.184 -5649.8 -960.749 12 11.0154 0.190941 0.574524 0.403915 0.012857 0.600083 1 2.33789e-08 1 2.33789e-08 0
2346 1 5.298 8.83 24.724 -4.44936 115727 188490 138236 -29236.9 -70913.2 -24962.7 12 11.0154 0.190941 0.574524 0.403915 0.012857 0.600083 1 2.02467e-08 1 2.02467e-08 0
2347 1 5.298 7.064 26.49 -4.44936 155446 182269 176299 -26751.1 31214.3 19268.6 12 11.0154 0.190941 0.574524 0.403915 0.012857 0.600083 1 0 1 0 0
2348 1 3.532 8.83 26.49 -4.44936 185778 9020.03 176364 49674.8 17073.7 -65222.9 12 11.0154 0.190941 0.574524 0.403915 0.012857 0.600083 1 0 1 0 0
2349 1 7.064 7.064 24.724 -4.44936 198409 197571 126553 -671.689 5187.34 9352.65 12 11.0154 0.190941 0.574524 0.403915 0.012857 0.600083 1 2.33789e-08 1 2.33789e-08 0
2350 1 8.83 8.83 24.724 -4.44936 19422.1 195390 178463 24667 -60368.3 8302.32 12 11.0154 0.190941 0.574524 0.403915 0.012857 0.600083 1 2.33789e-08 1 2.33789e-08 0
2351 1 8.83 7.064 26.49 -4.44936 -6651.4 13139.5 187640 195287 -47843.3 45480.4 12 11.0154 0.190941 0.574524 0.403915 0.012857 0.600083 1 0 1 0 0
2352 1 7.064 8.83 26.49 -4.44936 123498 167519 195777 -48513.6 -15041.3 -9692.79 12 11.0154 0.190941 0.574524 0.403915 0.012857 0.600083 1 2.33789e-08 1 2.33789e-08 0
2353 1 10.596 7.064 24.724 -4.44936 151555 39257.1 175248 86797.5 -33337.9 61271.7 12 11.0154 0.190941 0.574524 0.403915 0.012857 0.600083 1 2.61384e-08 1 2.61384e-08 0
2354 1 12.362 8.83 24.724 -4.44936 196238 198037 173384 -1376.8 8037.67 4350.52 12 11.0154 0.190941 0.574524 0.403915 0.012857 0.600083 1 2.33789e-08 1 2.33789e-08 0
2355 1 12.362 7.064 26.49 -4.44936 -61174.7 -33422.1 171407 245689 -84358.6 79728.5 12 11.0154 0.190941 0.574524 0.403915 0.012857 0.600083 1 2.33789e-08 1 2.33789e-08 0
2356 1 10.596 8.83 26.49 -4.44936 192385 191106 168087 -7007.49 -14012.5 -15350.1 12 11.0154 0.190941 0.574524 0.403915 0.012857 0.600083 1 2.33789e-08 1 2.33789e-08 0
2357 1 14.128 7.064 24.724 -4.44936 196464 174317 50988.5 -7531.13 18510.5 60130.8 12 11.0154 0.190941 0.574524 0.403915 0.012857 0.600083 1 2.33789e-08 1 2.33789e-08 0
2358 1 15.894 8.83 24.724 -4.44936 166763 143583 192839 -42040.7 13794.6 18112.1 12 11.0154 0.190941 0.574524 0.403915 0.012857 0.600083 1 1.16894e-08 1 1.16894e-08 0
2359 1 15.894 7.064 26.49 -4.44936 164586 197428 192752 -6804.32 14359.9 2857.33 12 11.0154 0.190941 0.574524 0.403915 0.012857 0.600083 1 2.33789e-08 1 2.33789e-08 0
2360 1 14.128 8.83 26.49 -4.44936 90620.7 164072 190083 -61272.2 -30674.4 -17376.7 12 11.0154 0.190941 0.574524 0.403915 0.012857 0.600083 1 0 1 0 0
2361 1 17.66 7.064 24.724 -4.44936 188402 158817 131231 -20367.9 26480.1 51958.7 12 11.0154 0.190941 0.574524 0.403915 0.012857 0.600083 1 2.33789e-08 1 2.33789e-08 0
2362 1 19.426 8.83 24.724 -4.44936 192756 197510 109335 -2768.33 -23216 -10665.9 12 11.0154 0.190941 0.574524 0.403915 0.012857 0.600083 1 3.09273e-08 1 3.09273e-08 0
2363 1 19.426 7.064 26.49 -4.44936 172871 186827 185996 17599.7 18201.4 -12363.3 12 11.0154 0.190941 0.574524 0.403915 0.012857 0.600083 1 1.65314e-08 1 1.65314e-08 0
2364 1 17.66 8.83 26.49 -4.44936 191419 187471 191518 9126.09 7313.62 -9064.47 12 11.0154 0.190941 0.574524 0.403915 0.012857 0.600083 1 2.33789e-08 1 2.33789e-08 0
2365 1 21.192 7.064 24.724 -4.44936 148992 162107 198773 -42732.5 650.185 558.025 12 11.0154 0.190941 0.574524 0.403915 0.012857 0.600083 1 2.86331e-08 1 2.86331e-08 0
2366 1 22.958 8.83 24.724 -4.44936 169335 194992 167621 -10563.7 -30291.8 -10866.6 12 11.0154 0.190941 0.574524 0.403915 0.012857 0.600083 1 1.16894e-08 1 1.16894e-08 0
2367 1 22.958 7.064 26.49 -4.44936 47256.1 143162 183821 -91803.1 -47613.4 -28846.9 12 11.0154 0.190941 0.574524 0.403915 0.012857 0.600083 1 1.65314e-08 1 1.65314e-08 0
2368 1 21.192 8.83 26.49 -4.44936 196159 195988 145619 2707.09 11809.5 -12186.6 12 11.0154 0.190941 0.574524 0.403915 0.012857 0.600083 1 2.33789e-08 1 2.33789e-08 0
2369 1 24.724 7.064 24.724 -4.44936 193306 68357 101267 26724.3 23107.9 -112776 12 11.0154 0.190941 0.574524 0.403915 0.012857 0.600083 1 2.86331e-08 1 2.86331e-08 0
2370 1 26.49 8.83 24.724 -4.44936 181443 131473 196675 34162.2 6044.1 -11908.5 12 11.0154 0.190941 0.574524 0.403915 0.012857 0.600083 1 1.16894e-08 1 1.16894e-08 0
2371 1 26.49 7.064 26.49 -4.44936 151958 196819 196044 9586.91 11321.8 -2318.08 12 11.0154 0.190941 0.574524 0.403915 0.012857 0.600083 1 1.16894e-08 1 1.16894e-08 0
2372 1 24.724 8.83 26.49 -4.44936 192636 116530 31258.7 -22484.4 32088.2 117384 12 11.0154 0.190941 0.574524 0.403915 0.012857 0.600083 1 1.65314e-08 1 1.65314e-08 0
2373 1 28.256 7.064 24.724 -4.44936 172655 124395 195284 44085.1 9560.51 -16132 12 11.0154 0.190941 0.574524 0.403915 0.012857 0.600083 1 2.86331e-08 1 2.86331e-08 0
2374 1 30.022 8.83 24.724 -4.44936 156339 177021 191717 -30390.6 17316.9 12399.5 12 11.0154 0.190941 0.574524 0.403915 0.012857 0.600083 1 1.16894e-08 1 1.16894e-08 0
2375 1 30.022 7.064 26.49 -4.44936 145744 70782.6 193351 -82394.5 16972.4 26366.5 12 11.0154 0.190941 0.574524 0.403915 0.012857 0.600083 1 0 1 0 0
2376 1 28.256 8.83 26.49 -4.44936 60942.8 135851 197262 93136.4 -14475.8 9781.12 12 11.0154 0.190941 0.574524 0.403915 0.012857 0.600083 1 1.16894e-08 1 1.16894e-08 0
2377 1 0 10.596 24.724 -4.44936 153037 190250 157445 -19755.4 -43485.2 -18779.5 12 11.0154 0.190941 0.574524 0.403915 0.012857 0.600083 1 2.61384e-08 1 2.61384e-08 1.26218e-29
2378 1 1.766 12.362 24.724 -4.44936 184173 188909 163572 -12010.1 22680.2 18645 12 11.0154 0.190941 0.574524 0.403915 0.012857 0.600083 1 2.86331e-08 1 2.86331e-08 0
2379 1 1.766 10.596 26.49 -4.44936 188958 172472 197832 -16077.1 3054.98 4999.51 12 11.0154 0.190941 0.574524 0.403915 0.012857 0.600083 1 0 1 0 0
2380 1 0 12.362 26.49 -4.44936 161711 139361 163556 -46933.8 -36136.5 -45750.8 12 11.0154 0.190941 0.574524 0.403915 0.012857 0.600083 1 2.33789e-08 1 2.33789e-08 1.26218e-29
2381 1 3.532 10.596 24.724 -4.44936 152805 193637 195217 15380.6 12803 -4282.96 12 11.0154 0.190941 0.574524 0.403915 0.012857 0.600083 1 1.65314e-08 1 1.65314e-08 0
2382 1 5.298 12.362 24.724 -4.44936 163553 143033 191126 -44316.6 16422.4 20658.7 12 11.0154 0.190941 0.574524 0.403915 0.012857 0.600083 1 2.33789e-08 1 2.33789e-08 0
2383 1 5.298 10.596 26.49 -4.44936 190439 118898 112426 25816.7 -26842 83057.2 12 11.0154 0.190941 0.574524 0.403915 0.012857 0.600083 1 0 1 0 0
2384 1 3.532 12.362 26.49 -4.44936 196222 186426 156790 5623.78 -10367.5 22778.4 12 11.0154 0.190941 0.574524 0.403915 0.012857 0.600083 1 0 1 0 0
2385 1 7.064 10.596 24.724 -4.44936 195633 198770 176693 -195.327 -8339.6 -517.358 12 11.0154 0.190941 0.574524 0.403915 0.012857 0.600083 1 1.16894e-08 1 1.16894e-08 0
2386 1 8.83 12.362 24.724 -4.44936 140564 142872 198776 57052.3 -575.293 563.775 12 11.0154 0.190941 0.574524 0.403915 0.012857 0.600083 1 2.86331e-08 1 2.86331e-08 0
2387 1 8.83 10.596 26.49 -4.44936 194363 187320 188905 7116.84 6606.44 -10639.9 12 11.0154 0.190941 0.574524 0.403915 0.012857 0.600083 1 0 1 0 0
2388 1 7.064 12.362 26.49 -4.44936 111015 198781 137166 273.005 -73538 228.744 12 11.0154 0.190941 0.574524 0.403915 0.012857 0.600083 1 2.33789e-08 1 2.33789e-08 0
2389 1 10.596 10.596 24.724 -4.44936 32075.4 192053 193744 33491.9 28979 -5821.98 12 11.0154 0.190941 0.574524 0.403915 0.012857 0.600083 1 2.02467e-08 1 2.02467e-08 0
2390 1 12.362 12.362 24.724 -4.44936 159237 142566 184533 -47149.2 23738 28302.7 12 11.0154 0.190941 0.574524 0.403915 0.012857 0.600083 1 2.02467e-08 1 2.02467e-08 0
2391 1 12.362 10.596 26.49 -4.44936 189456 126689 35817.8 25929.2 38984.2 -108391 12 11.0154 0.190941 0.574524 0.403915 0.012857 0.600083 1 0 1 0 0
2392 1 10.596 12.362 26.49 -4.44936 196684 191458 194927 -3919.42 2843.52 5313.28 12 11.0154 0.190941 0.574524 0.403915 0.012857 0.600083 1 0 1 0 0
2393 1 14.128 10.596 24.724 -4.44936 187391 160295 156699 -20938.2 21894.7 40244.7 12 11.0154 0.190941 0.574524 0.403915 0.012857 0.600083 1 1.65314e-08 1 1.65314e-08 0
2394 1 15.894 12.362 24.724 -4.44936 52804.7 182881 158526 48178.5 76658.5 -25300.5 12 11.0154 0.190941 0.574524 0.403915 0.012857 0.600083 1 1.65314e-08 1 1.65314e-08 0
2395 1 15.894 10.596 26.49 -4.44936 152197 195896 117386 -11594.4 -61578.1 -15325.8 12 11.0154 0.190941 0.574524 0.403915 0.012857 0.600083 1 0 1 0 0
2396 1 14.128 12.362 26.49 -4.44936 198259 198741 192542 -147.121 -1806.53 -508.153 12 11.0154 0.190941 0.574524 0.403915 0.012857 0.600083 1 0 1 0 0
2397 1 17.66 10.596 24.724 -4.44936 177866 183221 118908 18040.5 -40873 35254.7 12 11.0154 0.190941 0.574524 0.403915 0.012857 0.600083 1 3.09273e-08 1 3.09273e-08 0
2398 1 19.426 12.362 24.724 -4.44936 172367 78419.7 144300 56386.4 -37936.3 80978.8 12 11.0154 0.190941 0.574524 0.403915 0.012857 0.600083 1 1.65314e-08 1 1.65314e-08 0
2399 1 19.426 10.596 26.49 -4.44936 185351 130373 187656 30311.3 12224.3 -27589 12 11.0154 0.190941 0.574524 0.403915 0.012857 0.600083 1 2.33789e-08 1 2.33789e-08 0
2400 1 17.66 12.362 26.49 -4.44936 186322 182055 -43016.7 14436.7 54889.6 -63596.4 12 11.0154 0.190941 0.574524 0.403915 0.012857 0.600083 1 1.65314e-08 1 1.65314e-08 0
2401 1 21.192 10.596 24.724 -4.44936 135220 195755 190957 -13870.6 22301.8 4866.77 12 11.0154 0.190941 0.574524 0.403915 0.012857 0.600083 1 2.86331e-08 1 2.86331e-08 0
2402 1 22.958 12.362 24.724 -4.44936 189878 194647 173920 6067.87 -14878.4 10139.3 12 11.0154 0.190941 0.574524 0.403915 0.012857 0.600083 1 2.61384e-08 1 2.61384e-08 0
2403 1 22.958 10.596 26.49 -4.44936 12435.4 105551 190368 131808 -39597.9 28008.7 12 11.0154 0.190941 0.574524 0.403915 0.012857 0.600083 1 2.02467e-08 1 2.02467e-08 0
2404 1 21.192 12.362 26.49 -4.44936 187886 197814 195843 -3247.04 5658.79 1686.4 12 11.0154 0.190941 0.574524 0.403915 0.012857 0.600083 1 1.65314e-08 1 1.65314e-08 0
2405 1 24.724 10.596 24.724 -4.44936 180897 194814 140341 -8424.04 32329.5 15227.8 12 11.0154 0.190941 0.574524 0.403915 0.012857 0.600083 1 2.86331e-08 1 2.86331e-08 0
2406 1 26.49 12.362 24.724 -4.44936 163609 149188 188617 41765.8 18908.8 -22452.9 12 11.0154 0.190941 0.574524 0.403915 0.012857 0.600083 1 2.33789e-08 1 2.33789e-08 0
2407 1 26.49 10.596 26.49 -4.44936 75729.6 193938 196906 24413.8 -15192.1 3014.14 12 11.0154 0.190941 0.574524 0.403915 0.012857 0.600083 1 2.02467e-08 1 2.02467e-08 0
2408 1 24.724 12.362 26.49 -4.44936 185602 181991 198246 14876.1 -2658.63 3000.78 12 11.0154 0.190941 0.574524 0.403915 0.012857 0.600083 1 1.16894e-08 1 1.16894e-08 0
2409 1 28.256 10.596 24.724 -4.44936 195598 190726 170748 -5064.51 -9447.55 -15028 12 11.0154 0.190941 0.574524 0.403915 0.012857 0.600083 1 2.86331e-08 1 2.86331e-08 0
2410 1 30.022 12.362 24.724 -4.44936 196414 198781 198772 -36.9385 -151.48 -2.36311 12 11.0154 0.190941 0.574524 0.403915 0.012857 0.600083 1 2.33789e-08 1 2.33789e-08 0
2411 1 30.022 10.596 26.49 -4.44936 186874 196426 196568 5297 -5134.36 2283.97 12 11.0154 0.190941 0.574524 0.403915 0.012857 0.600083 1 2.02467e-08 1 2.02467e-08 0
2412 1 28.256 12.362 26.49 -4.44936 157968 184769 198343 23914.9 -4234.31 2481.11 12 11.0154 0.190941 0.574524 0.403915 0.012857 0.600083 1 2.02467e-08 1 2.02467e-08 0
2413 1 0 14.128 24.724 -4.44936 72488.2 198554 121736 5369.2 98642.7 -4193.65 12 11.0154 0.190941 0.574524 0.403915 0.012857 0.600083 1 2.33789e-08 1 2.33789e-08 1.26218e-29
2414 1 1.766 15.894 24.724 -4.44936 186466 197860 159062 3370.05 22117.3 -6052.21 12 11.0154 0.190941 0.574524 0.403915 0.012857 0.600083 1 1.16894e-08 1 1.16894e-08 0
2415 1 1.766 14.128 26.49 -4.44936 67095.9 127373 195808 96972.1 19788.6 -14572.1 12 11.0154 0.190941 0.574524 0.403915 0.012857 0.600083 1 1.65314e-08 1 1.65314e-08 0
2416 1 0 15.894 26.49 -4.44936 198604 133891 195462 3398.98 768.795 -14677.3 12 11.0154 0.190941 0.574524 0.403915 0.012857 0.600083 1 2.33789e-08 1 2.33789e-08 1.26218e-29
2417 1 3.532 14.128 24.724 -4.44936 197766 159415 181893 -6324.76 -4142.65 -25784.8 12 11.0154 0.190941 0.574524 0.403915 0.012857 0.600083 1 1.65314e-08 1 1.65314e-08 0
2418 1 5.298 15.894 24.724 -4.44936 198567 113348 -42919.9 4288.03 -7212.45 143699 12 11.0154 0.190941 0.574524 0.403915 0.012857 0.600083 1 1.16894e-08 1 1.16894e-08 0
2419 1 5.298 14.128 26.49 -4.44936 156430 172895 197953 -33111.2 5923.96 4631.41 12 11.0154 0.190941 0.574524 0.403915 0.012857 0.600083 1 2.33789e-08 1 2.33789e-08 0
2420 1 3.532 15.894 26.49 -4.44936 142337 102803 148794 73603.6 53118.4 -69266.4 12 11.0154 0.190941 0.574524 0.403915 0.012857 0.600083 1 0 1 0 0
2421 1 7.064 14.128 24.724 -4.44936 186161 177864 194644 -16248.4 7226.87 9303.83 12 11.0154 0.190941 0.574524 0.403915 0.012857 0.600083 1 1.65314e-08 1 1.65314e-08 0
2422 1 8.83 15.894 24.724 -4.44936 194400 34733.1 106190 26812.9 -20143.9 123246 12 11.0154 0.190941 0.574524 0.403915 0.012857 0.600083 1 2.02467e-08 1 2.02467e-08 0
2423 1 8.83 14.128 26.49 -4.44936 176910 196990 64209.6 6260.32 -54252.5 15528.6 12 11.0154 0.190941 0.574524 0.403915 0.012857 0.600083 1 0 1 0 0
2424 1 7.064 15.894 26.49 -4.44936 178277 134236 176807 36380.3 -21227.5 37662 12 11.0154 0.190941 0.574524 0.403915 0.012857 0.600083 1 0 1 0 0
2425 1 10.596 14.128 24.724 -4.44936 152667 167876 62414.9 37752.3 79300.3 -64919.9 12 11.0154 0.190941 0.574524 0.403915 0.012857 0.600083 1 1.65314e-08 1 1.65314e-08 0
2426 1 12.362 15.894 24.724 -4.44936 101217 186952 82651 -33974 -106444 -37065.8 12 11.0154 0.190941 0.574524 0.403915 0.012857 0.600083 1 2.33789e-08 1 2.33789e-08 0
2427 1 12.362 14.128 26.49 -4.44936 125306 30633 198490 -111152 4632.23 7007.54 12 11.0154 0.190941 0.574524 0.403915 0.012857 0.600083 1 2.33789e-08 1 2.33789e-08 0
2428 1 10.596 15.894 26.49 -4.44936 180161 197933 9785.41 -3977.03 -59323.2 -12670.3 12 11.0154 0.190941 0.574524 0.403915 0.012857 0.600083 1 0 1 0 0
2429 1 14.128 14.128 24.724 -4.44936 193847 177264 83937.9 -10304.4 -23805.7 -49710.7 12 11.0154 0.190941 0.574524 0.403915 0.012857 0.600083 1 1.65314e-08 1 1.65314e-08 0
2430 1 15.894 15.894 24.724 -4.44936 140675 178554 198196 34283.6 5835.65 -3443.11 12 11.0154 0.190941 0.574524 0.403915 0.012857 0.600083 1 2.61384e-08 1 2.61384e-08 0
2431 1 15.894 14.128 26.49 -4.44936 195232 94800.2 186040 -19212.9 -6725.56 -36399.3 12 11.0154 0.190941 0.574524 0.403915 0.012857 0.600083 1 0 1 0 0
2432 1 14.128 15.894 26.49 -4.44936 197235 -35479.3 153404 -19037.9 8378.97 103103 12 11.0154 0.190941 0.574524 0.403915 0.012857 0.600083 1 0 1 0 0
2433 1 17.66 14.128 24.724 -4.44936 196396 135441 153584 12292.6 -10383.9 53506 12 11.0154 0.190941 0.574524 0.403915 0.012857 0.600083 1 2.61384e-08 1 2.61384e-08 0
2434 1 19.426 15.894 24.724 -4.44936 197877 179692 59351.2 -4157.5 11236 51591.4 12 11.0154 0.190941 0.574524 0.403915 0.012857 0.600083 1 1.65314e-08 1 1.65314e-08 0
2435 1 19.426 14.128 26.49 -4.44936 6525.09 156802 186539 -89838.9 -48515.2 -22670.4 12 11.0154 0.190941 0.574524 0.403915 0.012857 0.600083 1 1.65314e-08 1 1.65314e-08 0
2436 1 17.66 15.894 26.49 -4.44936 179531 197091 84172.7 -5705.05 46972.2 13920 12 11.0154 0.190941 0.574524 0.403915 0.012857 0.600083 1 2.02467e-08 1 2.02467e-08 0
2437 1 21.192 14.128 24.724 -4.44936 193503 158200 198667 14636.5 778.075 -2157.33 12 11.0154 0.190941 0.574524 0.403915 0.012857 0.600083 1 1.65314e-08 1 1.65314e-08 0
2438 1 22.958 15.894 24.724 -4.44936 157311 197297 110174 -7846.77 60619.2 11469.7 12 11.0154 0.190941 0.574524 0.403915 0.012857 0.600083 1 2.02467e-08 1 2.02467e-08 0
2439 1 22.958 14.128 26.49 -4.44936 197461 195582 177331 2055.84 5323.08 -8284.82 12 11.0154 0.190941 0.574524 0.403915 0.012857 0.600083 1 0 1 0 0
2440 1 21.192 15.894 26.49 -4.44936 147289 159621 120908 -44905.3 -63324 -55223 12 11.0154 0.190941 0.574524 0.403915 0.012857 0.600083 1 1.65314e-08 1 1.65314e-08 0
2441 1 24.724 14.128 24.724 -4.44936 144791 -22293.9 177111 109253 -34205.8 69216.4 12 11.0154 0.190941 0.574524 0.403915 0.012857 0.600083 1 2.86331e-08 1 2.86331e-08 0
2442 1 26.49 15.894 24.724 -4.44936 186758 84621.7 177531 37050.1 15985.3 -49254.4 12 11.0154 0.190941 0.574524 0.403915 0.012857 0.600083 1 2.61384e-08 1 2.61384e-08 0
2443 1 26.49 14.128 26.49 -4.44936 180039 163693 198656 25645.1 -1537.69 2103.97 12 11.0154 0.190941 0.574524 0.403915 0.012857 0.600083 1 2.02467e-08 1 2.02467e-08 0
2444 1 24.724 15.894 26.49 -4.44936 150398 198700 15179.1 -1987.73 -94252.3 -3872.08 12 11.0154 0.190941 0.574524 0.403915 0.012857 0.600083 1 1.65314e-08 1 1.65314e-08 0
2445 1 28.256 14.128 24.724 -4.44936 180785 179418 192875 18668.1 -10311 10695.4 12 11.0154 0.190941 0.574524 0.403915 0.012857 0.600083 1 1.65314e-08 1 1.65314e-08 0
2446 1 30.022 15.894 24.724 -4.44936 198725 195908 22536.7 404.452 3167.2 -22506.5 12 11.0154 0.190941 0.574524 0.403915 0.012857 0.600083 1 2.02467e-08 1 2.02467e-08 0
2447 1 30.022 14.128 26.49 -4.44936 147003 171148 198706 37826.9 1979 -1445.75 12 11.0154 0.190941 0.574524 0.403915 0.012857 0.600083 1 2.02467e-08 1 2.02467e-08 0
2448 1 28.256 15.894 26.49 -4.44936 196861 150016 183366 9679.31 -5442.1 27418.4 12 11.0154 0.190941 0.574524 0.403915 0.012857 0.600083 1 1.16894e-08 1 1.16894e-08 0
2449 1 0 17.66 24.724 -4.44936 187365 198402 187886 -2082.38 11153.7 2034.31 12 11.0154 0.190941 0.574524 0.403915 0.012857 0.600083 1 2.61384e-08 1 2.61384e-08 1.26218e-29
2450 1 1.766 19.426 24.724 -4.44936 140152 198489 188590 -4141.41 24444.9 1726.7 12 11.0154 0.190941 0.574524 0.403915 0.012857 0.600083 1 1.65314e-08 1 1.65314e-08 0
2451 1 1.766 17.66 26.49 -4.44936 164666 195786 66349.7 -10109.8 67216.8 19918.5 12 11.0154 0.190941 0.574524 0.403915 0.012857 0.600083 1 2.61384e-08 1 2.61384e-08 0
2452 1 0 19.426 26.49 -4.44936 174202 198454 169523 2839.89 -26817.7 3098.44 12 11.0154 0.190941 0.574524 0.403915 0.012857 0.600083 1 1.16894e-08 1 1.16894e-08 1.26218e-29
2453 1 3.532 17.66 24.724 -4.44936 180443 185308 96107.9 -15719.1 43392.6 37193.9 12 11.0154 0.190941 0.574524 0.403915 0.012857 0.600083 1 2.61384e-08 1 2.61384e-08 0
2454 1 5.298 19.426 24.724 -4.44936 198397 140847 157639 4722.61 -3979.79 48822.4 12 11.0154 0.190941 0.574524 0.403915 0.012857 0.600083 1 2.86331e-08 1 2.86331e-08 0
2455 1 5.298 17.66 26.49 -4.44936 197805 133842 187460 -7967 -3326.67 -27115.9 12 11.0154 0.190941 0.574524 0.403915 0.012857 0.600083 1 2.02467e-08 1 2.02467e-08 0
2456 1 3.532 19.426 26.49 -4.44936 197187 117171 92154.1 11407.6 -13039.3 93284.8 12 11.0154 0.190941 0.574524 0.403915 0.012857 0.600083 1 2.33789e-08 1 2.33789e-08 0
2457 1 7.064 17.66 24.724 -4.44936 157792 198723 186820 -1556.35 22143.4 840.755 12 11.0154 0.190941 0.574524 0.403915 0.012857 0.600083 1 2.33789e-08 1 2.33789e-08 0
2458 1 8.83 19.426 24.724 -4.44936 187461 198388 181713 2112.79 -13901.2 2594.25 12 11.0154 0.190941 0.574524 0.403915 0.012857 0.600083 1 1.65314e-08 1 1.65314e-08 0
2459 1 8.83 17.66 26.49 -4.44936 111845 192703 120610 -22989.5 -82438.1 -21799.9 12 11.0154 0.190941 0.574524 0.403915 0.012857 0.600083 1 2.61384e-08 1 2.61384e-08 0
2460 1 7.064 19.426 26.49 -4.44936 182001 186348 182133 14444.6 -16714.8 14388 12 11.0154 0.190941 0.574524 0.403915 0.012857 0.600083 1 1.16894e-08 1 1.16894e-08 0
2461 1 10.596 17.66 24.724 -4.44936 180433 183666 197268 -16654 -5271.23 -4784.28 12 11.0154 0.190941 0.574524 0.403915 0.012857 0.600083 1 2.33789e-08 1 2.33789e-08 0
2462 1 12.362 19.426 24.724 -4.44936 169551 134215 194015 -43443.8 -11804.9 -17544.7 12 11.0154 0.190941 0.574524 0.403915 0.012857 0.600083 1 2.86331e-08 1 2.86331e-08 0
2463 1 12.362 17.66 26.49 -4.44936 192947 134917 128859 -19304.2 20199 66825 12 11.0154 0.190941 0.574524 0.403915 0.012857 0.600083 1 2.61384e-08 1 2.61384e-08 0
2464 1 10.596 19.426 26.49 -4.44936 188345 173723 162438 16171.9 19475.8 -30179 12 11.0154 0.190941 0.574524 0.403915 0.012857 0.600083 1 2.33789e-08 1 2.33789e-08 0
2465 1 14.128 17.66 24.724 -4.44936 78933 196000 143003 -18259.3 81762.2 12456.7 12 11.0154 0.190941 0.574524 0.403915 0.012857 0.600083 1 2.61384e-08 1 2.61384e-08 0
2466 1 15.894 19.426 24.724 -4.44936 190288 130328 169487 -24112.8 -15774 -44780.8 12 11.0154 0.190941 0.574524 0.403915 0.012857 0.600083 1 1.65314e-08 1 1.65314e-08 0
2467 1 15.894 17.66 26.49 -4.44936 180964 192455 151075 10617.5 29155 -17373.5 12 11.0154 0.190941 0.574524 0.403915 0.012857 0.600083 1 1.65314e-08 1 1.65314e-08 0
2468 1 14.128 19.426 26.49 -4.44936 198746 187768 198280 631.266 134.775 -2351.52 12 11.0154 0.190941 0.574524 0.403915 0.012857 0.600083 1 2.33789e-08 1 2.33789e-08 0
2469 1 17.66 17.66 24.724 -4.44936 193491 177069 118580 10718.7 20600.3 -41730.5 12 11.0154 0.190941 0.574524 0.403915 0.012857 0.600083 1 2.86331e-08 1 2.86331e-08 0
2470 1 19.426 19.426 24.724 -4.44936 61021.4 92513.7 139418 -120994 90432.4 79426.1 12 11.0154 0.190941 0.574524 0.403915 0.012857 0.600083 1 2.33789e-08 1 2.33789e-08 0
2471 1 19.426 17.66 26.49 -4.44936 195290 72412.1 179061 -21006.5 8298.37 49921 12 11.0154 0.190941 0.574524 0.403915 0.012857 0.600083 1 2.02467e-08 1 2.02467e-08 0
2472 1 17.66 19.426 26.49 -4.44936 179074 101798 181846 43719 18269.7 -40528.3 12 11.0154 0.190941 0.574524 0.403915 0.012857 0.600083 1 1.16894e-08 1 1.16894e-08 0
2473 1 21.192 17.66 24.724 -4.44936 181855 195583 -235549 -7358.63 -85743 -37275.2 12 11.0154 0.190941 0.574524 0.403915 0.012857 0.600083 1 2.61384e-08 1 2.61384e-08 0
2474 1 22.958 19.426 24.724 -4.44936 144139 154284 194977 49310.1 14418.7 -13011.5 12 11.0154 0.190941 0.574524 0.403915 0.012857 0.600083 1 2.86331e-08 1 2.86331e-08 0
2475 1 22.958 17.66 26.49 -4.44936 167976 196423 144586 8525.25 -40859.7 11307.7 12 11.0154 0.190941 0.574524 0.403915 0.012857 0.600083 1 2.02467e-08 1 2.02467e-08 0
2476 1 21.192 19.426 26.49 -4.44936 184625 104831 198417 -36469.5 -2271.91 -5852.78 12 11.0154 0.190941 0.574524 0.403915 0.012857 0.600083 1 1.16894e-08 1 1.16894e-08 0
2477 1 24.724 17.66 24.724 -4.44936 -2677.96 132935 183091 -115176 -56222.8 -32143.1 12 11.0154 0.190941 0.574524 0.403915 0.012857 0.600083 1 2.86331e-08 1 2.86331e-08 0
2478 1 26.49 19.426 24.724 -4.44936 196605 198179 198773 1145.96 142.477 -74.9909 12 11.0154 0.190941 0.574524 0.403915 0.012857 0.600083 1 1.16894e-08 1 1.16894e-08 0
2479 1 26.49 17.66 26.49 -4.44936 189091 197567 196838 -3430.99 -4340.74 -1536.73 12 11.0154 0.190941 0.574524 0.403915 0.012857 0.600083 1 2.61384e-08 1 2.61384e-08 0
2480 1 24.724 19.426 26.49 -4.44936 198525 -71633.9 153693 8340.03 -3405.55 110421 12 11.0154 0.190941 0.574524 0.403915 0.012857 0.600083 1 1.65314e-08 1 1.65314e-08 0
2481 1 28.256 17.66 24.724 -4.44936 182893 171515 179483 -20814.5 17511 22939.5 12 11.0154 0.190941 0.574524 0.403915 0.012857 0.600083 1 2.02467e-08 1 2.02467e-08 0
2482 1 30.022 19.426 24.724 -4.44936 89441.7 196690 191009 -15125.4 -29152.4 -4032.74 12 11.0154 0.190941 0.574524 0.403915 0.012857 0.600083 1 2.61384e-08 1 2.61384e-08 0
2483 1 30.022 17.66 26.49 -4.44936 91695.6 168684 195177 56772.3 19648 -10416.5 12 11.0154 0.190941 0.574524 0.403915 0.012857 0.600083 1 2.61384e-08 1 2.61384e-08 0
2484 1 28.256 19.426 26.49 -4.44936 197903 188221 184668 3046.89 3522.42 -12208.8 12 11.0154 0.190941 0.574524 0.403915 0.012857 0.600083 1 1.65314e-08 1 1.65314e-08 0
2485 1 0 21.192 24.724 -4.44936 63332 195142 160323 22204.3 -72175.2 11831.7 12 11.0154 0.190941 0.574524 0.403915 0.012857 0.600083 1 2.02467e-08 1 2.02467e-08 1.26218e-29
2486 1 1.766 22.958 24.724 -4.44936 61137.3 64449.7 115014 135978 -107379 106079 12 11.0154 0.190941 0.574524 0.403915 0.012857 0.600083 1 1.16894e-08 1 1.16894e-08 0
2487 1 1.766 21.192 26.49 -4.44936 149818 155156 193521 -46217.7 -16049.9 -15149.9 12 11.0154 0.190941 0.574524 0.403915 0.012857 0.600083 1 1.16894e-08 1 1.16894e-08 0
2488 1 0 22.958 26.49 -4.44936 196010 171493 95194.9 8697.7 -16945.9 53167.3 12 11.0154 0.190941 0.574524 0.403915 0.012857 0.600083 1 2.02467e-08 1 2.02467e-08 1.26218e-29
2489 1 3.532 21.192 24.724 -4.44936 197139 174188 119580 6355.89 11406 -44134.5 12 11.0154 0.190941 0.574524 0.403915 0.012857 0.600083 1 2.33789e-08 1 2.33789e-08 0
2490 1 5.298 22.958 24.724 -4.44936 21163.9 196838 -3067.38 18581.7 -189346 19808.7 12 11.0154 0.190941 0.574524 0.403915 0.012857 0.600083 1 1.65314e-08 1 1.65314e-08 0
2491 1 5.298 21.192 26.49 -4.44936 127622 187351 181678 -28521.1 34886.8 13982.8 12 11.0154 0.190941 0.574524 0.403915 0.012857 0.600083 1 1.16894e-08 1 1.16894e-08 0
2492 1 3.532 22.958 26.49 -4.44936 190145 191245 -18548.4 8068.22 43325.2 -40472.2 12 11.0154 0.190941 0.574524 0.403915 0.012857 0.600083 1 2.02467e-08 1 2.02467e-08 0
2493 1 7.064 21.192 24.724 -4.44936 198778 136527 197242 517.654 81.4153 -9791.27 12 11.0154 0.190941 0.574524 0.403915 0.012857 0.600083 1 1.65314e-08 1 1.65314e-08 0
2494 1 8.83 22.958 24.724 -4.44936 192512 193972 161266 5491.86 -15336.8 13433.8 12 11.0154 0.190941 0.574524 0.403915 0.012857 0.600083 1 2.02467e-08 1 2.02467e-08 0
2495 1 8.83 21.192 26.49 -4.44936 191315 196101 36883.7 4474.73 -34769.9 20835.6 12 11.0154 0.190941 0.574524 0.403915 0.012857 0.600083 1 1.16894e-08 1 1.16894e-08 0
2496 1 7.064 22.958 26.49 -4.44936 163374 95770.9 145366 -60393.5 43489.6 74178.7 12 11.0154 0.190941 0.574524 0.403915 0.012857 0.600083 1 2.33789e-08 1 2.33789e-08 0
2497 1 10.596 21.192 24.724 -4.44936 173565 184826 143042 18760 37491.4 -27891.1 12 11.0154 0.190941 0.574524 0.403915 0.012857 0.600083 1 2.33789e-08 1 2.33789e-08 0
2498 1 12.362 22.958 24.724 -4.44936 133289 196934 131115 -11000.7 -66571 -11181.8 12 11.0154 0.190941 0.574524 0.403915 0.012857 0.600083 1 1.16894e-08 1 1.16894e-08 0
2499 1 12.362 21.192 26.49 -4.44936 197711 182588 198001 -4163.87 -914.237 -3555.6 12 11.0154 0.190941 0.574524 0.403915 0.012857 0.600083 1 1.16894e-08 1 1.16894e-08 0
2500 1 10.596 22.958 26.49 -4.44936 197288 177101 195403 -5690.78 2246.58 8559.06 12 11.0154 0.190941 0.574524 0.403915 0.012857 0.600083 1 2.02467e-08 1 2.02467e-08 0
2501 1 14.128 21.192 24.724 -4.44936 160381 176000 163343 -29578.1 36890.5 28414.4 12 11.0154 0.190941 0.574524 0.403915 0.012857 0.600083 1 2.33789e-08 1 2.33789e-08 0
2502 1 15.894 22.958 24.724 -4.44936 186511 197907 -117625 -3277.49 -62309.6 -16643.1 12 11.0154 0.190941 0.574524 0.403915 0.012857 0.600083 1 1.65314e-08 1 1.65314e-08 0
2503 1 15.894 21.192 26.49 -4.44936 196151 -122201 52026.6 29062.3 19651 -217039 12 11.0154 0.190941 0.574524 0.403915 0.012857 0.600083 1 1.16894e-08 1 1.16894e-08 0
2504 1 14.128 22.958 26.49 -4.44936 198502 185232 169428 -1947.17 2865.98 19943.1 12 11.0154 0.190941 0.574524 0.403915 0.012857 0.600083 1 2.02467e-08 1 2.02467e-08 0
2505 1 17.66 21.192 24.724 -4.44936 125813 94533.2 161865 87217.5 -51901.5 62036.5 12 11.0154 0.190941 0.574524 0.403915 0.012857 0.600083 1 0 1 0 0
2506 1 19.426 22.958 24.724 -4.44936 167912 57702.6 166104 65992.9 -31760.7 67898 12 11.0154 0.190941 0.574524 0.403915 0.012857 0.600083 1 1.65314e-08 1 1.65314e-08 0
2507 1 19.426 21.192 26.49 -4.44936 191350 198781 193638 -83.5756 -6182.82 -69.5308 12 11.0154 0.190941 0.574524 0.403915 0.012857 0.600083 1 1.65314e-08 1 1.65314e-08 0
2508 1 17.66 22.958 26.49 -4.44936 197420 -11166.6 64009.5 16911.2 13549.4 -168212 12 11.0154 0.190941 0.574524 0.403915 0.012857 0.600083 1 1.16894e-08 1 1.16894e-08 0
2509 1 21.192 21.192 24.724 -4.44936 198382 198332 169876 -424.584 -3401.32 -3608.35 12 11.0154 0.190941 0.574524 0.403915 0.012857 0.600083 1 2.33789e-08 1 2.33789e-08 0
2510 1 22.958 22.958 24.724 -4.44936 193315 190226 186743 6839.58 -8113.13 10149.5 12 11.0154 0.190941 0.574524 0.403915 0.012857 0.600083 1 1.65314e-08 1 1.65314e-08 0
2511 1 22.958 21.192 26.49 -4.44936 81179 198212 192711 -8186.8 26719.4 1860.04 12 11.0154 0.190941 0.574524 0.403915 0.012857 0.600083 1 0 1 0 0
2512 1 21.192 22.958 26.49 -4.44936 192837 183426 182887 -9554.78 -9720.87 -15623.3 12 11.0154 0.190941 0.574524 0.403915 0.012857 0.600083 1 1.16894e-08 1 1.16894e-08 0
2513 1 24.724 21.192 24.724 -4.44936 187052 194956 193840 6699.06 -7614.06 4348.5 12 11.0154 0.190941 0.574524 0.403915 0.012857 0.600083 1 1.65314e-08 1 1.65314e-08 0
2514 1 26.49 22.958 24.724 -4.44936 194628 198721 167204 -504.525 -11452.7 -1391.13 12 11.0154 0.190941 0.574524 0.403915 0.012857 0.600083 1 1.65314e-08 1 1.65314e-08 0
2515 1 26.49 21.192 26.49 -4.44936 173199 125440 154776 43315.9 -33552.6 56810.8 12 11.0154 0.190941 0.574524 0.403915 0.012857 0.600083 1 0 1 0 0
2516 1 24.724 22.958 26.49 -4.44936 139272 189044 174793 24072.6 -37783.6 15284 12 11.0154 0.190941 0.574524 0.403915 0.012857 0.600083 1 1.65314e-08 1 1.65314e-08 0
2517 1 28.256 21.192 24.724 -4.44936 184586 182647 197384 -15134.7 -4455.58 -4750.1 12 11.0154 0.190941 0.574524 0.403915 0.012857 0.600083 1 2.33789e-08 1 2.33789e-08 0
2518 1 30.022 22.958 24.724 -4.44936 195159 -155093 190608 35804.6 5441.67 -53782.6 12 11.0154 0.190941 0.574524 0.403915 0.012857 0.600083 1 1.65314e-08 1 1.65314e-08 0
2519 1 30.022 21.192 26.49 -4.44936 198780 124324 196653 -399.828 67.6073 12590.2 12 11.0154 0.190941 0.574524 0.403915 0.012857 0.600083 1 1.65314e-08 1 1.65314e-08 0
2520 1 28.256 22.958 26.49 -4.44936 185579 140744 183763 27681.1 14081.6 -29524.2 12 11.0154 0.190941 0.574524 0.403915 0.012857 0.600083 1 2.02467e-08 1 2.02467e-08 0
2521 1 0 24.724 24.724 -4.44936 189047 198778 194790 204.355 -6234.06 130.866 12 11.0154 0.190941 0.574524 0.403915 0.012857 0.600083 1 2.61384e-08 1 2.61384e-08 1.26218e-29
2522 1 1.766 26.49 24.724 -4.44936 198744 161354 194177 1187.94 416.682 -13128.2 12 11.0154 0.190941 0.574524 0.403915 0.012857 0.600083 1 1.65314e-08 1 1.65314e-08 0
2523 1 1.766 24.724 26.49 -4.44936 105782 -221680 144486 197745 -71060.2 151094 12 11.0154 0.190941 0.574524 0.403915 0.012857 0.600083 1 1.65314e-08 1 1.65314e-08 0
2524 1 0 26.49 26.49 -4.44936 142911 197762 166266 7550.06 -42622.8 5759.77 12 11.0154 0.190941 0.574524 0.403915 0.012857 0.600083 1 2.02467e-08 1 2.02467e-08 1.26218e-29
2525 1 3.532 24.724 24.724 -4.44936 -104917 196978 197669 -23403.5 18385.3 1416.8 12 11.0154 0.190941 0.574524 0.403915 0.012857 0.600083 1 2.86331e-08 1 2.86331e-08 0
2526 1 5.298 26.49 24.724 -4.44936 189013 198358 56905.6 -2035.15 37228.9 7755.8 12 11.0154 0.190941 0.574524 0.403915 0.012857 0.600083 1 1.65314e-08 1 1.65314e-08 0
2527 1 5.298 24.724 26.49 -4.44936 198662 194667 197643 -702.845 -369.728 -2164.51 12 11.0154 0.190941 0.574524 0.403915 0.012857 0.600083 1 1.65314e-08 1 1.65314e-08 0
2528 1 3.532 26.49 26.49 -4.44936 170934 125940 81461.2 -45038.7 57159 92443.6 12 11.0154 0.190941 0.574524 0.403915 0.012857 0.600083 1 0 1 0 0
2529 1 7.064 24.724 24.724 -4.44936 148029 198751 73633 1263.54 -79697.7 1984.12 12 11.0154 0.190941 0.574524 0.403915 0.012857 0.600083 1 2.86331e-08 1 2.86331e-08 0
2530 1 8.83 26.49 24.724 -4.44936 197402 182040 194353 -4807.29 2472.69 8611.42 12 11.0154 0.190941 0.574524 0.403915 0.012857 0.600083 1 2.33789e-08 1 2.33789e-08 0
2531 1 8.83 24.724 26.49 -4.44936 178530 198781 180150 -143.969 -19425 -138.091 12 11.0154 0.190941 0.574524 0.403915 0.012857 0.600083 1 2.86331e-08 1 2.86331e-08 0
2532 1 7.064 26.49 26.49 -4.44936 169319 144620 194042 -39946.9 -11817.3 -16022.3 12 11.0154 0.190941 0.574524 0.403915 0.012857 0.600083 1 0 1 0 0
2533 1 10.596 24.724 24.724 -4.44936 189689 198475 171875 -1670.79 -15641.7 -2874.06 12 11.0154 0.190941 0.574524 0.403915 0.012857 0.600083 1 2.33789e-08 1 2.33789e-08 0
2534 1 12.362 26.49 24.724 -4.44936 124128 172375 195905 -44400.4 14656.3 8716.8 12 11.0154 0.190941 0.574524 0.403915 0.012857 0.600083 1 1.65314e-08 1 1.65314e-08 0
2535 1 12.362 24.724 26.49 -4.44936 109646 162651 198475 56750 -5232.48 3331.36 12 11.0154 0.190941 0.574524 0.403915 0.012857 0.600083 1 2.86331e-08 1 2.86331e-08 0
2536 1 10.596 26.49 26.49 -4.44936 193397 171133 178070 12202.4 -10561.3 23930.3 12 11.0154 0.190941 0.574524 0.403915 0.012857 0.600083 1 0 1 0 0
2537 1 14.128 24.724 24.724 -4.44936 182677 195696 115980 -7049.66 36517.2 15984.9 12 11.0154 0.190941 0.574524 0.403915 0.012857 0.600083 1 2.86331e-08 1 2.86331e-08 0
2538 1 15.894 26.49 24.724 -4.44936 121463 191862 198582 -23130.9 3930.04 1175.72 12 11.0154 0.190941 0.574524 0.403915 0.012857 0.600083 1 1.65314e-08 1 1.65314e-08 0
2539 1 15.894 24.724 26.49 -4.44936 186587 198734 144705 -761.395 -25679.8 -1603.37 12 11.0154 0.190941 0.574524 0.403915 0.012857 0.600083 1 1.65314e-08 1 1.65314e-08 0
2540 1 14.128 26.49 26.49 -4.44936 166024 191705 195996 15226.2 9553.62 -4440.66 12 11.0154 0.190941 0.574524 0.403915 0.012857 0.600083 1 0 1 0 0
2541 1 17.66 24.724 24.724 -4.44936 183422 117308 180648 -35375.4 16689.4 38437.6 12 11.0154 0.190941 0.574524 0.403915 0.012857 0.600083 1 2.61384e-08 1 2.61384e-08 0
2542 1 19.426 26.49 24.724 -4.44936 198578 29460.7 184845 -5876.91 -1686.08 -48578 12 11.0154 0.190941 0.574524 0.403915 0.012857 0.600083 1 1.65314e-08 1 1.65314e-08 0
2543 1 19.426 24.724 26.49 -4.44936 178934 137272 151210 34940.2 -30727.5 54093.8 12 11.0154 0.190941 0.574524 0.403915 0.012857 0.600083 1 2.33789e-08 1 2.33789e-08 0
2544 1 17.66 26.49 26.49 -4.44936 -133340 70271 189984 206595 -54056.7 33625.7 12 11.0154 0.190941 0.574524 0.403915 0.012857 0.600083 1 2.02467e-08 1 2.02467e-08 0
2545 1 21.192 24.724 24.724 -4.44936 198155 198782 185346 14.7855 2901.64 -68.4646 12 11.0154 0.190941 0.574524 0.403915 0.012857 0.600083 1 2.86331e-08 1 2.86331e-08 0
2546 1 22.958 26.49 24.724 -4.44936 179644 47833.1 180949 -53748 -18473.7 -51882.6 12 11.0154 0.190941 0.574524 0.403915 0.012857 0.600083 1 1.65314e-08 1 1.65314e-08 0
2547 1 22.958 24.724 26.49 -4.44936 196669 110202 -15737.3 -13681.9 21291.8 137848 12 11.0154 0.190941 0.574524 0.403915 0.012857 0.600083 1 1.65314e-08 1 1.65314e-08 0
2548 1 21.192 26.49 26.49 -4.44936 177115 118504 139157 -41705.4 -35942.6 -69185 12 11.0154 0.190941 0.574524 0.403915 0.012857 0.600083 1 1.65314e-08 1 1.65314e-08 0
2549 1 24.724 24.724 24.724 -4.44936 146391 194006 78032.9 15817.8 -79537.4 24013.7 12 11.0154 0.190941 0.574524 0.403915 0.012857 0.600083 1 3.09273e-08 1 3.09273e-08 0
2550 1 26.49 26.49 24.724 -4.44936 195842 133756 177420 -13825.4 -7924.16 -37270 12 11.0154 0.190941 0.574524 0.403915 0.012857 0.600083 1 2.33789e-08 1 2.33789e-08 0
2551 1 26.49 24.724 26.49 -4.44936 198619 193741 195269 -906.801 -757.045 -4208.16 12 11.0154 0.190941 0.574524 0.403915 0.012857 0.600083 1 1.65314e-08 1 1.65314e-08 0
2552 1 24.724 26.49 26.49 -4.44936 183352 142902 124795 29363.8 -33788 64299.1 12 11.0154 0.190941 0.574524 0.403915 0.012857 0.600083 1 1.65314e-08 1 1.65314e-08 0
2553 1 28.256 24.724 24.724 -4.44936 166132 198627 158882 -2251.19 36093.6 2488.61 12 11.0154 0.190941 0.574524 0.403915 0.012857 0.600083 1 2.33789e-08 1 2.33789e-08 0
2554 1 30.022 26.49 24.724 -4.44936 53863.1 194069 195672 -26135.3 -21228.5 -3828.43 12 11.0154 0.190941 0.574524 0.403915 0.012857 0.600083 1 1.65314e-08 1 1.65314e-08 0
2555 1 30.022 24.724 26.49 -4.44936 191816 196591 198781 3907.1 66.1284 -37.0908 12 11.0154 0.190941 0.574524 0.403915 0.012857 0.600083 1 1.65314e-08 1 1.65314e-08 0
2556 1 28.256 26.49 26.49 -4.44936 169383 172935 181332 27565.8 22650 -21237.4 12 11.0154 0.190941 0.574524 0.403915 0.012857 0.600083 1 2.02467e-08 1 2.02467e-08 0
2557 1 0 28.256 24.724 -4.44936 160305 192163 134589 15958 49698.4 -20612 12 11.0154 0.190941 0.574524 0.403915 0.012857 0.600083 1 0 1 0 1.26218e-29
2558 1 1.766 30.022 24.724 -4.44936 198086 97878.2 -77286.8 -8381.83 13864.2 166902 12 11.0154 0.190941 0.574524 0.403915 0.012857 0.600083 1 1.65314e-08 1 1.65314e-08 0
2559 1 1.766 28.256 26.49 -4.44936 190111 196875 187145 4065.96 10045.4 -4710.24 12 11.0154 0.190941 0.574524 0.403915 0.012857 0.600083 1 1.16894e-08 1 1.16894e-08 0
2560 1 0 30.022 26.49 -4.44936 -87937.8 198497 196564 -9036.17 -25215.8 -794.692 12 11.0154 0.190941 0.574524 0.403915 0.012857 0.600083 1 1.65314e-08 1 1.65314e-08 1.26218e-29
2561 1 3.532 28.256 24.724 -4.44936 -20461.7 161366 164584 90571.3 -86589.3 35770.7 12 11.0154 0.190941 0.574524 0.403915 0.012857 0.600083 1 1.65314e-08 1 1.65314e-08 0
2562 1 5.298 30.022 24.724 -4.44936 150863 174069 169896 34412.6 37204.6 -26718 12 11.0154 0.190941 0.574524 0.403915 0.012857 0.600083 1 1.65314e-08 1 1.65314e-08 0
2563 1 5.298 28.256 26.49 -4.44936 198781 186364 162754 112.66 -191.897 21151.5 12 11.0154 0.190941 0.574524 0.403915 0.012857 0.600083 1 1.16894e-08 1 1.16894e-08 0
2564 1 3.532 30.022 26.49 -4.44936 192807 172042 194161 12639.9 -5254.33 11115.6 12 11.0154 0.190941 0.574524 0.403915 0.012857 0.600083 1 2.02467e-08 1 2.02467e-08 0
2565 1 7.064 28.256 24.724 -4.44936 195873 196561 196519 2542.11 -2565.99 2242.19 12 11.0154 0.190941 0.574524 0.403915 0.012857 0.600083 1 1.65314e-08 1 1.65314e-08 0
2566 1 8.83 30.022 24.724 -4.44936 194677 160553 175242 12526.9 -9830.06 29998.4 12 11.0154 0.190941 0.574524 0.403915 0.012857 0.600083 1 2.33789e-08 1 2.33789e-08 0
2567 1 8.83 28.256 26.49 -4.44936 176199 37491.5 143397 60352.5 35366.2 -94515.1 12 11.0154 0.190941 0.574524 0.403915 0.012857 0.600083 1 1.16894e-08 1 1.16894e-08 0
2568 1 7.064 30.022 26.49 -4.44936 187765 145568 197725 -24212.6 3413.15 7501.36 12 11.0154 0.190941 0.574524 0.403915 0.012857 0.600083 1 1.16894e-08 1 1.16894e-08 0
2569 1 10.596 28.256 24.724 -4.44936 196420 198780 198518 -74.8503 -789.704 -25.022 12 11.0154 0.190941 0.574524 0.403915 0.012857 0.600083 1 1.65314e-08 1 1.65314e-08 0
2570 1 12.362 30.022 24.724 -4.44936 41043.1 193380 111801 -29189.6 -117134 -21675.6 12 11.0154 0.190941 0.574524 0.403915 0.012857 0.600083 1 1.16894e-08 1 1.16894e-08 0
2571 1 12.362 28.256 26.49 -4.44936 183583 188448 146378 12532.9 -28222.2 23271.5 12 11.0154 0.190941 0.574524 0.403915 0.012857 0.600083 1 1.16894e-08 1 1.16894e-08 0
2572 1 10.596 30.022 26.49 -4.44936 141007 119764 198593 -67567.1 -3302.93 -3862.71 12 11.0154 0.190941 0.574524 0.403915 0.012857 0.600083 1 1.16894e-08 1 1.16894e-08 0
2573 1 14.128 28.256 24.724 -4.44936 198445 80179.1 166266 -6318.77 3308.53 62100.8 12 11.0154 0.190941 0.574524 0.403915 0.012857 0.600083 1 1.65314e-08 1 1.65314e-08 0
2574 1 15.894 30.022 24.724 -4.44936 196717 185790 197836 5179.46 -1397.73 3505.89 12 11.0154 0.190941 0.574524 0.403915 0.012857 0.600083 1 1.65314e-08 1 1.65314e-08 0
2575 1 15.894 28.256 26.49 -4.44936 180764 182698 133513 -17023.5 -34292.9 -32400.5 12 11.0154 0.190941 0.574524 0.403915 0.012857 0.600083 1 1.16894e-08 1 1.16894e-08 0
2576 1 14.128 30.022 26.49 -4.44936 -108425 198780 184854 -824.522 65413 175.564 12 11.0154 0.190941 0.574524 0.403915 0.012857 0.600083 1 2.02467e-08 1 2.02467e-08 0
2577 1 17.66 28.256 24.724 -4.44936 177266 15901.4 198707 -62728.8 1268.08 3696.99 12 11.0154 0.190941 0.574524 0.403915 0.012857 0.600083 1 0 1 0 0
2578 1 19.426 30.022 24.724 -4.44936 150489 36476.7 147865 -88533.2 -49587.4 -90907 12 11.0154 0.190941 0.574524 0.403915 0.012857 0.600083 1 1.65314e-08 1 1.65314e-08 0
2579 1 19.426 28.256 26.49 -4.44936 198242 103611 193295 -7168.3 1721.14 22850.9 12 11.0154 0.190941 0.574524 0.403915 0.012857 0.600083 1 2.02467e-08 1 2.02467e-08 0
2580 1 17.66 30.022 26.49 -4.44936 198187 -72373.1 198558 12698.6 364.631 -7786.01 12 11.0154 0.190941 0.574524 0.403915 0.012857 0.600083 1 1.16894e-08 1 1.16894e-08 0
2581 1 21.192 28.256 24.724 -4.44936 198582 189455 -12467.6 1366.09 6501.33 -44388.6 12 11.0154 0.190941 0.574524 0.403915 0.012857 0.600083 1 0 1 0 0
2582 1 22.958 30.022 24.724 -4.44936 197373 192163 173419 3054.15 -5978.79 12956.3 12 11.0154 0.190941 0.574524 0.403915 0.012857 0.600083 1 1.65314e-08 1 1.65314e-08 0
2583 1 22.958 28.256 26.49 -4.44936 175462 184265 188358 18399.3 -15591.3 12301.7 12 11.0154 0.190941 0.574524 0.403915 0.012857 0.600083 1 1.65314e-08 1 1.65314e-08 0
2584 1 21.192 30.022 26.49 -4.44936 147146 184849 198246 26822.6 -5259.62 2732.13 12 11.0154 0.190941 0.574524 0.403915 0.012857 0.600083 1 0 1 0 0
2585 1 24.724 28.256 24.724 -4.44936 63670.8 156270 54088.2 75788.5 139820 -78430.1 12 11.0154 0.190941 0.574524 0.403915 0.012857 0.600083 1 1.16894e-08 1 1.16894e-08 0
2586 1 26.49 30.022 24.724 -4.44936 185945 191615 41108.1 9591.94 -44989.6 33616.6 12 11.0154 0.190941 0.574524 0.403915 0.012857 0.600083 1 2.33789e-08 1 2.33789e-08 0
2587 1 26.49 28.256 26.49 -4.44936 189990 182154 196300 12091.3 4671.61 -6424.58 12 11.0154 0.190941 0.574524 0.403915 0.012857 0.600083 1 1.65314e-08 1 1.65314e-08 0
2588 1 24.724 30.022 26.49 -4.44936 138798 142123 195868 -58297.9 13221.5 12849.9 12 11.0154 0.190941 0.574524 0.403915 0.012857 0.600083 1 1.65314e-08 1 1.65314e-08 0
2589 1 28.256 28.256 24.724 -4.44936 179411 161897 167562 26730.1 24591.8 -33934.1 12 11.0154 0.190941 0.574524 0.403915 0.012857 0.600083 1 2.33789e-08 1 2.33789e-08 0
2590 1 30.022 30.022 24.724 -4.44936 183798 197255 179578 -4783.16 -16963.4 -5414.92 12 11.0154 0.190941 0.574524 0.403915 0.012857 0.600083 1 1.65314e-08 1 1.65314e-08 0
2591 1 30.022 28.256 26.49 -4.44936 155106 192650 193535 16364.9 15137.9 -5672.06 12 11.0154 0.190941 0.574524 0.403915 0.012857 0.600083 1 1.16894e-08 1 1.16894e-08 0
2592 1 28.256 30.022 26.49 -4.44936 179288 183004 175589 -17537.9 21263.3 19129.7 12 11.0154 0.190941 0.574524 0.403915 0.012857 0.600083 1 1.16894e-08 1 1.16894e-08 0
2593 1 0 0 28.256 -4.44936 198682 110591 113293 2965.84 -2920.04 86829.4 12 11.0154 0.190941 0.574524 0.403915 0.012857 0.600083 1 1.65314e-08 1 1.65314e-08 2.52435e-29
2594 1 1.766 1.766 28.256 -4.44936 35650.3 160678 176271 -78841.4 -60599.1 -29287.5 12 11.0154 0.190941 0.574524 0.403915 0.012857 0.600083 1 1.65314e-08 1 1.65314e-08 0
2595 1 1.766 0 30.022 -4.44936 184910 188478 145174 -11955.2 27269.7 23502.1 12 11.0154 0.190941 0.574524 0.403915 0.012857 0.600083 1 1.65314e-08 1 1.65314e-08 1.26218e-29
2596 1 0 1.766 30.022 -4.44936 143812 171931 197495 38418.8 8410.51 -5878.14 12 11.0154 0.190941 0.574524 0.403915 0.012857 0.600083 1 2.33789e-08 1 2.33789e-08 1.26218e-29
2597 1 3.532 0 28.256 -4.44936 146708 193022 80642.7 -17319.6 -78434.8 -26086.9 12 11.0154 0.190941 0.574524 0.403915 0.012857 0.600083 1 1.65314e-08 1 1.65314e-08 1.26218e-29
2598 1 5.298 1.766 28.256 -4.44936 103422 141023 182538 -74215.1 -39357.6 -30630.7 12 11.0154 0.190941 0.574524 0.403915 0.012857 0.600083 1 1.65314e-08 1 1.65314e-08 0
2599 1 5.298 0 30.022 -4.44936 173893 152781 195590 33836.7 -8913.22 12117.6 12 11.0154 0.190941 0.574524 0.403915 0.012857 0.600083 1 2.02467e-08 1 2.02467e-08 1.26218e-29
2600 1 3.532 1.766 30.022 -4.44936 185990 108700 198735 -33945.4 777.525 2063.34 12 11.0154 0.190941 0.574524 0.403915 0.012857 0.600083 1 0 1 0 0
2601 1 7.064 0 28.256 -4.44936 145201 93732.2 -420642 -75024.4 -182179 -255089 12 11.0154 0.190941 0.574524 0.403915 0.012857 0.600083 1 1.65314e-08 1 1.65314e-08 1.26218e-29
2602 1 8.83 1.766 28.256 -4.44936 194267 197967 183212 -1917.75 8384.82 3561.15 12 11.0154 0.190941 0.574524 0.403915 0.012857 0.600083 1 1.65314e-08 1 1.65314e-08 0
2603 1 8.83 0 30.022 -4.44936 189786 86031.3 198705 31847.5 830.038 -2938.61 12 11.0154 0.190941 0.574524 0.403915 0.012857 0.600083 1 1.16894e-08 1 1.16894e-08 1.26218e-29
2604 1 7.064 1.766 30.022 -4.44936 157925 193495 183926 -14696.8 24636.5 8862.16 12 11.0154 0.190941 0.574524 0.403915 0.012857 0.600083 1 2.33789e-08 1 2.33789e-08 0
2605 1 10.596 0 28.256 -4.44936 184318 -90836.7 190552 -64722.7 -10910.1 -48820.2 12 11.0154 0.190941 0.574524 0.403915 0.012857 0.600083 1 1.65314e-08 1 1.65314e-08 1.26218e-29
2606 1 12.362 1.766 28.256 -4.44936 197897 182914 198538 3746.69 464.733 -1968.27 12 11.0154 0.190941 0.574524 0.403915 0.012857 0.600083 1 1.65314e-08 1 1.65314e-08 0
2607 1 12.362 0 30.022 -4.44936 175944 185894 140220 17156.5 -36571.2 27473 12 11.0154 0.190941 0.574524 0.403915 0.012857 0.600083 1 1.65314e-08 1 1.65314e-08 1.26218e-29
2608 1 10.596 1.766 30.022 -4.44936 161273 197858 197794 -5887.84 -6088.53 -955.721 12 11.0154 0.190941 0.574524 0.403915 0.012857 0.600083 1 0 1 0 0
2609 1 14.128 0 28.256 -4.44936 168269 168604 198650 30345.2 -2007.99 1996.92 12 11.0154 0.190941 0.574524 0.403915 0.012857 0.600083 1 1.65314e-08 1 1.65314e-08 1.26218e-29
2610 1 15.894 1.766 28.256 -4.44936 197036 198395 193003 822.238 3176.33 -1495.98 12 11.0154 0.190941 0.574524 0.403915 0.012857 0.600083 1 0 1 0 0
2611 1 15.894 0 30.022 -4.44936 198578 198561 198604 -212.215 -190.471 -198.569 12 11.0154 0.190941 0.574524 0.403915 0.012857 0.600083 1 1.65314e-08 1 1.65314e-08 1.26218e-29
2612 1 14.128 1.766 30.022 -4.44936 198189 171105 181918 -4052.36 -3163.24 -21604.2 12 11.0154 0.190941 0.574524 0.403915 0.012857 0.600083 1 0 1 0 0
2613 1 17.66 0 28.256 -4.44936 73042.8 153529 133107 -75432.3 -90873.2 -54515.8 12 11.0154 0.190941 0.574524 0.403915 0.012857 0.600083 1 2.86331e-08 1 2.86331e-08 1.26218e-29
2614 1 19.426 1.766 28.256 -4.44936 161219 197573 187396 6738.89 -20680.7 3710.13 12 11.0154 0.190941 0.574524 0.403915 0.012857 0.600083 1 1.16894e-08 1 1.16894e-08 0
2615 1 19.426 0 30.022 -4.44936 194102 174516 177938 10657.3 -9877.22 22490.3 12 11.0154 0.190941 0.574524 0.403915 0.012857 0.600083 1 2.61384e-08 1 2.61384e-08 1.26218e-29
2616 1 17.66 1.766 30.022 -4.44936 192940 167843 124106 13444.4 -20887 48066.6 12 11.0154 0.190941 0.574524 0.403915 0.012857 0.600083 1 2.33789e-08 1 2.33789e-08 0
2617 1 21.192 0 28.256 -4.44936 148897 192781 198088 -17302.7 5881.63 2040.04 12 11.0154 0.190941 0.574524 0.403915 0.012857 0.600083 1 1.65314e-08 1 1.65314e-08 1.26218e-29
2618 1 22.958 1.766 28.256 -4.44936 197521 198731 139641 -252.316 8635.89 1727.92 12 11.0154 0.190941 0.574524 0.403915 0.012857 0.600083 1 1.65314e-08 1 1.65314e-08 0
2619 1 22.958 0 30.022 -4.44936 141598 4027.8 191818 -105531 -19956.2 -36828.6 12 11.0154 0.190941 0.574524 0.403915 0.012857 0.600083 1 1.65314e-08 1 1.65314e-08 1.26218e-29
2620 1 21.192 1.766 30.022 -4.44936 160736 197541 192942 6871.82 -14906 2692.35 12 11.0154 0.190941 0.574524 0.403915 0.012857 0.600083 1 1.65314e-08 1 1.65314e-08 0
2621 1 24.724 0 28.256 -4.44936 182615 198071 196288 3390.04 6350.24 -1331.55 12 11.0154 0.190941 0.574524 0.403915 0.012857 0.600083 1 2.02467e-08 1 2.02467e-08 1.26218e-29
2622 1 26.49 1.766 28.256 -4.44936 195144 186726 197301 6622.75 -2321.45 4225.77 12 11.0154 0.190941 0.574524 0.403915 0.012857 0.600083 1 0 1 0 0
2623 1 26.49 0 30.022 -4.44936 180322 161923 185635 -26085.1 -15578.6 -22013.1 12 11.0154 0.190941 0.574524 0.403915 0.012857 0.600083 1 2.33789e-08 1 2.33789e-08 1.26218e-29
2624 1 24.724 1.766 30.022 -4.44936 159204 151706 179550 43164.3 27589.1 -30089.4 12 11.0154 0.190941 0.574524 0.403915 0.012857 0.600083 1 1.16894e-08 1 1.16894e-08 0
2625 1 28.256 0 28.256 -4.44936 144925 181390 179246 30605.4 -32437.4 18433.1 12 11.0154 0.190941 0.574524 0.403915 0.012857 0.600083 1 1.16894e-08 1 1.16894e-08 1.26218e-29
2626 1 30.022 1.766 28.256 -4.44936 171506 198762 198712 739.047 1378.18 -37.3423 12 11.0154 0.190941 0.574524 0.403915 0.012857 0.600083 1 1.65314e-08 1 1.65314e-08 0
2627 1 30.022 0 30.022 -4.44936 141016 198758 194287 1184.1 -16114.4 330.318 12 11.0154 0.190941 0.574524 0.403915 0.012857 0.600083 1 1.65314e-08 1 1.65314e-08 1.26218e-29
2628 1 28.256 1.766 30.022 -4.44936 185277 131679 192581 30103.5 -9150.99 20398.2 12 11.0154 0.190941 0.574524 0.403915 0.012857 0.600083 1 1.65314e-08 1 1.65314e-08 0
2629 1 0 3.532 28.256 -4.44936 171511 191202 115844 14377.4 47558 -25073.3 12 11.0154 0.190941 0.574524 0.403915 0.012857 0.600083 1 1.65314e-08 1 1.65314e-08 1.26218e-29
2630 1 1.766 5.298 28.256 -4.44936 174960 181307 197032 20402.8 -6456.79 5530.08 12 11.0154 0.190941 0.574524 0.403915 0.012857 0.600083 1 0 1 0 0
2631 1 1.766 3.532 30.022 -4.44936 130896 194950 196697 -16128.7 11896.1 2826.31 12 11.0154 0.190941 0.574524 0.403915 0.012857 0.600083 1 2.33789e-08 1 2.33789e-08 0
2632 1 0 5.298 30.022 -4.44936 195211 181044 197381 7958.86 -2236.47 4984.49 12 11.0154 0.190941 0.574524 0.403915 0.012857 0.600083 1 2.33789e-08 1 2.33789e-08 1.26218e-29
2633 1 3.532 3.532 28.256 -4.44936 190340 198778 166955 -173.157 16391.3 336.216 12 11.0154 0.190941 0.574524 0.403915 0.012857 0.600083 1 1.65314e-08 1 1.65314e-08 0
2634 1 5.298 5.298 28.256 -4.44936 176653 192663 198762 11636.4 -664.765 349.564 12 11.0154 0.190941 0.574524 0.403915 0.012857 0.600083 1 1.65314e-08 1 1.65314e-08 0
2635 1 5.298 3.532 30.022 -4.44936 141865 171890 88440.7 -39123.1 79248 54473.2 12 11.0154 0.190941 0.574524 0.403915 0.012857 0.600083 1 0 1 0 0
2636 1 3.532 5.298 30.022 -4.44936 198513 100595 163242 5140.56 3092.75 -59072.8 12 11.0154 0.190941 0.574524 0.403915 0.012857 0.600083 1 2.33789e-08 1 2.33789e-08 0
2637 1 7.064 3.532 28.256 -4.44936 197053 195213 196936 2484.54 -1786.69 2566.85 12 11.0154 0.190941 0.574524 0.403915 0.012857 0.600083 1 1.16894e-08 1 1.16894e-08 0
2638 1 8.83 5.298 28.256 -4.44936 182895 187335 51597.2 -13485.9 -48356.6 -41047.4 12 11.0154 0.190941 0.574524 0.403915 0.012857 0.600083 1 1.65314e-08 1 1.65314e-08 0
2639 1 8.83 3.532 30.022 -4.44936 172749 130636 157630 42119.3 -32730.8 52956.1 12 11.0154 0.190941 0.574524 0.403915 0.012857 0.600083 1 0 1 0 0
2640 1 7.064 5.298 30.022 -4.44936 158461 186638 190151 -22128.3 -18654.8 -10237.9 12 11.0154 0.190941 0.574524 0.403915 0.012857 0.600083 1 0 1 0 0
2641 1 10.596 3.532 28.256 -4.44936 197910 163756 181552 5526.16 -3875.87 24566.4 12 11.0154 0.190941 0.574524 0.403915 0.012857 0.600083 1 1.16894e-08 1 1.16894e-08 0
2642 1 12.362 5.298 28.256 -4.44936 186872 198730 183407 -789.164 13532 896.662 12 11.0154 0.190941 0.574524 0.403915 0.012857 0.600083 1 1.65314e-08 1 1.65314e-08 0
2643 1 12.362 3.532 30.022 -4.44936 160636 198238 191297 4556.93 -16897.5 2018.57 12 11.0154 0.190941 0.574524 0.403915 0.012857 0.600083 1 2.33789e-08 1 2.33789e-08 0
2644 1 10.596 5.298 30.022 -4.44936 91668 177545 196080 47694.1 17013.3 -7575.42 12 11.0154 0.190941 0.574524 0.403915 0.012857 0.600083 1 1.65314e-08 1 1.65314e-08 0
2645 1 14.128 3.532 28.256 -4.44936 -218784 175729 156156 -98112.4 133413 31347.1 12 11.0154 0.190941 0.574524 0.403915 0.012857 0.600083 1 1.65314e-08 1 1.65314e-08 0
2646 1 15.894 5.298 28.256 -4.44936 166797 91901.9 118137 -58468 50787.6 92840.2 12 11.0154 0.190941 0.574524 0.403915 0.012857 0.600083 1 1.65314e-08 1 1.65314e-08 0
2647 1 15.894 3.532 30.022 -4.44936 198468 197552 182166 -621.464 2284.49 4520.2 12 11.0154 0.190941 0.574524 0.403915 0.012857 0.600083 1 0 1 0 0
2648 1 14.128 5.298 30.022 -4.44936 175399 158420 177352 -30721.2 -22385.4 -29410.6 12 11.0154 0.190941 0.574524 0.403915 0.012857 0.600083 1 2.33789e-08 1 2.33789e-08 0
2649 1 17.66 3.532 28.256 -4.44936 185914 192662 193254 8874.24 8433.98 -5816.24 12 11.0154 0.190941 0.574524 0.403915 0.012857 0.600083 1 0 1 0 0
2650 1 19.426 5.298 28.256 -4.44936 139784 184886 165253 -28632.6 44476.5 21585.2 12 11.0154 0.190941 0.574524 0.403915 0.012857 0.600083 1 0 1 0 0
2651 1 19.426 3.532 30.022 -4.44936 114438 148020 197025 65432.9 12174 -9444.46 12 11.0154 0.190941 0.574524 0.403915 0.012857 0.600083 1 1.65314e-08 1 1.65314e-08 0
2652 1 17.66 5.298 30.022 -4.44936 198207 198342 194956 503.155 1483.15 -1298.02 12 11.0154 0.190941 0.574524 0.403915 0.012857 0.600083 1 2.33789e-08 1 2.33789e-08 0
2653 1 21.192 3.532 28.256 -4.44936 198050 109403 198607 -8090.27 -358.306 -3958.44 12 11.0154 0.190941 0.574524 0.403915 0.012857 0.600083 1 2.33789e-08 1 2.33789e-08 0
2654 1 22.958 5.298 28.256 -4.44936 104715 173081 186980 -49169.1 -33319.2 -17416.1 12 11.0154 0.190941 0.574524 0.403915 0.012857 0.600083 1 0 1 0 0
2655 1 22.958 3.532 30.022 -4.44936 196799 180575 180189 -6008.63 -6071.97 -18399.1 12 11.0154 0.190941 0.574524 0.403915 0.012857 0.600083 1 1.16894e-08 1 1.16894e-08 0
2656 1 21.192 5.298 30.022 -4.44936 163629 197335 198719 -7133.14 1485.83 301.496 12 11.0154 0.190941 0.574524 0.403915 0.012857 0.600083 1 1.65314e-08 1 1.65314e-08 0
2657 1 24.724 3.532 28.256 -4.44936 182592 174726 135258 19735.4 -32069.8 39091.6 12 11.0154 0.190941 0.574524 0.403915 0.012857 0.600083 1 1.65314e-08 1 1.65314e-08 0
2658 1 26.49 5.298 28.256 -4.44936 168924 149304 133026 -38436.1 44310 57039.5 12 11.0154 0.190941 0.574524 0.403915 0.012857 0.600083 1 1.16894e-08 1 1.16894e-08 0
2659 1 26.49 3.532 30.022 -4.44936 195921 188756 198767 -5355.74 206.137 385.906 12 11.0154 0.190941 0.574524 0.403915 0.012857 0.600083 1 1.65314e-08 1 1.65314e-08 0
2660 1 24.724 5.298 30.022 -4.44936 136079 157434 170537 50917.7 -42084 34174.3 12 11.0154 0.190941 0.574524 0.403915 0.012857 0.600083 1 2.02467e-08 1 2.02467e-08 0
2661 1 28.256 3.532 28.256 -4.44936 177585 194919 193795 -9048.93 10281.9 4389.31 12 11.0154 0.190941 0.574524 0.403915 0.012857 0.600083 1 1.16894e-08 1 1.16894e-08 0
2662 1 30.022 5.298 28.256 -4.44936 44313 130587 179188 -102635 55015.5 36554.4 12 11.0154 0.190941 0.574524 0.403915 0.012857 0.600083 1 1.16894e-08 1 1.16894e-08 0
2663 1 30.022 3.532 30.022 -4.44936 179391 190663 39904.6 -12547.6 55505.2 35916 12 11.0154 0.190941 0.574524 0.403915 0.012857 0.600083 1 2.33789e-08 1 2.33789e-08 0
2664 1 28.256 5.298 30.022 -4.44936 154690 183049 195737 -26338.4 11586.5 6921.19 12 11.0154 0.190941 0.574524 0.403915 0.012857 0.600083 1 2.02467e-08 1 2.02467e-08 0
2665 1 0 7.064 28.256 -4.44936 177774 152025 176291 31341.1 21736.9 -32428.6 12 11.0154 0.190941 0.574524 0.403915 0.012857 0.600083 1 2.02467e-08 1 2.02467e-08 1.26218e-29
2666 1 1.766 8.83 28.256 -4.44936 195228 126918 195571 -15980.2 -3378 -15191 12 11.0154 0.190941 0.574524 0.403915 0.012857 0.600083 1 0 1 0 0
2667 1 1.766 7.064 30.022 -4.44936 197589 191007 182311 -3045.68 -4433.1 -11316.2 12 11.0154 0.190941 0.574524 0.403915 0.012857 0.600083 1 2.33789e-08 1 2.33789e-08 0
2668 1 0 8.83 30.022 -4.44936 198592 98927.2 142556 4351.82 -3265.55 74929.7 12 11.0154 0.190941 0.574524 0.403915 0.012857 0.600083 1 1.65314e-08 1 1.65314e-08 1.26218e-29
2669 1 3.532 7.064 28.256 -4.44936 78376.7 198743 157907 -2161.59 70153.8 1259.44 12 11.0154 0.190941 0.574524 0.403915 0.012857 0.600083 1 1.65314e-08 1 1.65314e-08 0
2670 1 5.298 8.83 28.256 -4.44936 167990 140822 191600 -42245.7 -14870.5 -20401.9 12 11.0154 0.190941 0.574524 0.403915 0.012857 0.600083 1 1.16894e-08 1 1.16894e-08 0
2671 1 5.298 7.064 30.022 -4.44936 -16699.8 159674 175152 91799.2 71357.4 -30399.5 12 11.0154 0.190941 0.574524 0.403915 0.012857 0.600083 1 1.65314e-08 1 1.65314e-08 0
2672 1 3.532 8.83 30.022 -4.44936 178773 91474.9 198654 46337.2 1599.99 -3705.22 12 11.0154 0.190941 0.574524 0.403915 0.012857 0.600083 1 0 1 0 0
2673 1 7.064 7.064 28.256 -4.44936 173870 193150 177582 11845.4 22980.9 -10927.3 12 11.0154 0.190941 0.574524 0.403915 0.012857 0.600083 1 1.65314e-08 1 1.65314e-08 0
2674 1 8.83 8.83 28.256 -4.44936 127032 194797 196808 -16909.7 -11900.8 -2804.72 12 11.0154 0.190941 0.574524 0.403915 0.012857 0.600083 1 0 1 0 0
2675 1 8.83 7.064 30.022 -4.44936 191282 177423 125794 -12656.5 23396.2 39483.9 12 11.0154 0.190941 0.574524 0.403915 0.012857 0.600083 1 0 1 0 0
2676 1 7.064 8.83 30.022 -4.44936 190409 162762 -7143.93 -17366.1 -41522.7 -86124.9 12 11.0154 0.190941 0.574524 0.403915 0.012857 0.600083 1 2.33789e-08 1 2.33789e-08 0
2677 1 10.596 7.064 28.256 -4.44936 195961 186289 198563 5936.89 -785.632 1653.25 12 11.0154 0.190941 0.574524 0.403915 0.012857 0.600083 1 1.65314e-08 1 1.65314e-08 0
2678 1 12.362 8.83 28.256 -4.44936 174103 183949 197775 19132.9 -4984.7 3864.54 12 11.0154 0.190941 0.574524 0.403915 0.012857 0.600083 1 1.65314e-08 1 1.65314e-08 0
2679 1 12.362 7.064 30.022 -4.44936 187465 198499 198664 -1788.64 1154.97 182.548 12 11.0154 0.190941 0.574524 0.403915 0.012857 0.600083 1 2.33789e-08 1 2.33789e-08 0
2680 1 10.596 8.83 30.022 -4.44936 119140 73977.8 121488 99697.9 -78459.5 98217.4 12 11.0154 0.190941 0.574524 0.403915 0.012857 0.600083 1 0 1 0 0
2681 1 14.128 7.064 28.256 -4.44936 198216 149069 190370 -5302.19 2181.08 20449.7 12 11.0154 0.190941 0.574524 0.403915 0.012857 0.600083 1 1.65314e-08 1 1.65314e-08 0
2682 1 15.894 8.83 28.256 -4.44936 197889 175729 198774 -4537.39 83.1837 422.636 12 11.0154 0.190941 0.574524 0.403915 0.012857 0.600083 1 1.65314e-08 1 1.65314e-08 0
2683 1 15.894 7.064 30.022 -4.44936 118905 191187 143026 24630.1 -66735.4 20578 12 11.0154 0.190941 0.574524 0.403915 0.012857 0.600083 1 2.33789e-08 1 2.33789e-08 0
2684 1 14.128 8.83 30.022 -4.44936 170472 195139 65190.2 -10155.2 61497.8 22060.2 12 11.0154 0.190941 0.574524 0.403915 0.012857 0.600083 1 0 1 0 0
2685 1 17.66 7.064 28.256 -4.44936 167299 81571.7 167612 60746 -31325.9 60443.8 12 11.0154 0.190941 0.574524 0.403915 0.012857 0.600083 1 0 1 0 0
2686 1 19.426 8.83 28.256 -4.44936 165507 173867 93815.6 -28792.7 59099.2 51138.9 12 11.0154 0.190941 0.574524 0.403915 0.012857 0.600083 1 2.02467e-08 1 2.02467e-08 0
2687 1 19.426 7.064 30.022 -4.44936 198762 196791 149918 -201.372 -997.517 -9864.43 12 11.0154 0.190941 0.574524 0.403915 0.012857 0.600083 1 0 1 0 0
2688 1 17.66 8.83 30.022 -4.44936 130187 175303 185421 40131.4 -30274.2 17711.9 12 11.0154 0.190941 0.574524 0.403915 0.012857 0.600083 1 2.33789e-08 1 2.33789e-08 0
2689 1 21.192 7.064 28.256 -4.44936 172300 187162 33833.3 -17542.1 66091.8 43780.7 12 11.0154 0.190941 0.574524 0.403915 0.012857 0.600083 1 2.33789e-08 1 2.33789e-08 0
2690 1 22.958 8.83 28.256 -4.44936 44772.9 94752.1 180279 -126576 53381.9 43873.3 12 11.0154 0.190941 0.574524 0.403915 0.012857 0.600083 1 1.16894e-08 1 1.16894e-08 0
2691 1 22.958 7.064 30.022 -4.44936 171565 184640 46761.5 19619 64323.2 -46367.3 12 11.0154 0.190941 0.574524 0.403915 0.012857 0.600083 1 2.33789e-08 1 2.33789e-08 0
2692 1 21.192 8.83 30.022 -4.44936 86039.3 192690 198611 -26207 -4389.69 -1020.38 12 11.0154 0.190941 0.574524 0.403915 0.012857 0.600083 1 1.65314e-08 1 1.65314e-08 0
2693 1 24.724 7.064 28.256 -4.44936 163027 69768.9 169684 67917.8 32255.4 -61270.6 12 11.0154 0.190941 0.574524 0.403915 0.012857 0.600083 1 1.65314e-08 1 1.65314e-08 0
2694 1 26.49 8.83 28.256 -4.44936 171835 85741.2 155856 -55191.1 -34010.3 -69659 12 11.0154 0.190941 0.574524 0.403915 0.012857 0.600083 1 0 1 0 0
2695 1 26.49 7.064 30.022 -4.44936 169915 2414.86 185869 -75289.5 -19306.6 -50354.8 12 11.0154 0.190941 0.574524 0.403915 0.012857 0.600083 1 2.33789e-08 1 2.33789e-08 0
2696 1 24.724 8.83 30.022 -4.44936 198668 193336 172917 788.59 1718.57 -11868.6 12 11.0154 0.190941 0.574524 0.403915 0.012857 0.600083 1 1.16894e-08 1 1.16894e-08 0
2697 1 28.256 7.064 28.256 -4.44936 91570.7 191272 194318 -28375.2 21875.9 5789.8 12 11.0154 0.190941 0.574524 0.403915 0.012857 0.600083 1 2.33789e-08 1 2.33789e-08 0
2698 1 30.022 8.83 28.256 -4.44936 121220 153134 182827 -59502.3 35178.6 26987.5 12 11.0154 0.190941 0.574524 0.403915 0.012857 0.600083 1 1.65314e-08 1 1.65314e-08 0
2699 1 30.022 7.064 30.022 -4.44936 168242 194929 70303.7 -10848 62639.3 22250 12 11.0154 0.190941 0.574524 0.403915 0.012857 0.600083 1 1.65314e-08 1 1.65314e-08 0
2700 1 28.256 8.83 30.022 -4.44936 188243 192628 183757 -8053.58 12583.8 9616.2 12 11.0154 0.190941 0.574524 0.403915 0.012857 0.600083 1 2.02467e-08 1 2.02467e-08 0
2701 1 0 10.596 28.256 -4.44936 101393 170451 169995 52527.1 52948.6 -28558.1 12 11.0154 0.190941 0.574524 0.403915 0.012857 0.600083 1 1.65314e-08 1 1.65314e-08 1.26218e-29
2702 1 1.766 12.362 28.256 -4.44936 196246 198411 143017 -969.876 -11890.8 -4548.49 12 11.0154 0.190941 0.574524 0.403915 0.012857 0.600083 1 1.65314e-08 1 1.65314e-08 0
2703 1 1.766 10.596 30.022 -4.44936 177648 182128 192498 18760.3 -11524.1 10230 12 11.0154 0.190941 0.574524 0.403915 0.012857 0.600083 1 1.65314e-08 1 1.65314e-08 0
2704 1 0 12.362 30.022 -4.44936 173354 30429.2 145015 -65427.9 36975.1 95140.9 12 11.0154 0.190941 0.574524 0.403915 0.012857 0.600083 1 2.02467e-08 1 2.02467e-08 1.26218e-29
2705 1 3.532 10.596 28.256 -4.44936 192037 133315 198675 -21014.4 848.914 2644.66 12 11.0154 0.190941 0.574524 0.403915 0.012857 0.600083 1 1.65314e-08 1 1.65314e-08 0
2706 1 5.298 12.362 28.256 -4.44936 190425 123733 195234 -25043.2 -5444.95 -16317.4 12 11.0154 0.190941 0.574524 0.403915 0.012857 0.600083 1 1.65314e-08 1 1.65314e-08 0
2707 1 5.298 10.596 30.022 -4.44936 122998 179195 195183 38527.4 16514.2 -8395.55 12 11.0154 0.190941 0.574524 0.403915 0.012857 0.600083 1 2.33789e-08 1 2.33789e-08 0
2708 1 3.532 12.362 30.022 -4.44936 173470 195158 189392 -9577.23 15417.1 5833.22 12 11.0154 0.190941 0.574524 0.403915 0.012857 0.600083 1 1.65314e-08 1 1.65314e-08 0
2709 1 7.064 10.596 28.256 -4.44936 198564 198363 192506 301.743 1168.41 -1620.75 12 11.0154 0.190941 0.574524 0.403915 0.012857 0.600083 1 1.65314e-08 1 1.65314e-08 0
2710 1 8.83 12.362 28.256 -4.44936 182684 162151 168763 -24283.1 -21982.8 -33160.5 12 11.0154 0.190941 0.574524 0.403915 0.012857 0.600083 1 1.65314e-08 1 1.65314e-08 0
2711 1 8.83 10.596 30.022 -4.44936 118986 198335 198346 5970.38 5900.95 -441.511 12 11.0154 0.190941 0.574524 0.403915 0.012857 0.600083 1 2.33789e-08 1 2.33789e-08 0
2712 1 7.064 12.362 30.022 -4.44936 157097 198573 171584 2948.27 33671.4 -2381.49 12 11.0154 0.190941 0.574524 0.403915 0.012857 0.600083 1 2.33789e-08 1 2.33789e-08 0
2713 1 10.596 10.596 28.256 -4.44936 183480 198413 49591.4 -2375.96 47780.2 7418.79 12 11.0154 0.190941 0.574524 0.403915 0.012857 0.600083 1 1.65314e-08 1 1.65314e-08 0
2714 1 12.362 12.362 28.256 -4.44936 51054.5 129052 78051.3 -101494 -133549 -91752.8 12 11.0154 0.190941 0.574524 0.403915 0.012857 0.600083 1 1.65314e-08 1 1.65314e-08 0
2715 1 12.362 10.596 30.022 -4.44936 158022 191791 188073 16879.9 -20892 8652.05 12 11.0154 0.190941 0.574524 0.403915 0.012857 0.600083 1 0 1 0 0
2716 1 10.596 12.362 30.022 -4.44936 195898 198176 190221 -1322.14 4969.09 2277.78 12 11.0154 0.190941 0.574524 0.403915 0.012857 0.600083 1 0 1 0 0
2717 1 14.128 10.596 28.256 -4.44936 190230 190203 193294 8565.24 -6850.93 6861.6 12 11.0154 0.190941 0.574524 0.403915 0.012857 0.600083 1 1.65314e-08 1 1.65314e-08 0
2718 1 15.894 12.362 28.256 -4.44936 131514 151417 65424.5 -56445.7 -94713.6 -79476.1 12 11.0154 0.190941 0.574524 0.403915 0.012857 0.600083 1 1.65314e-08 1 1.65314e-08 0
2719 1 15.894 10.596 30.022 -4.44936 166798 198722 181656 -1389.96 -23404.4 -1017.11 12 11.0154 0.190941 0.574524 0.403915 0.012857 0.600083 1 2.33789e-08 1 2.33789e-08 0
2720 1 14.128 12.362 30.022 -4.44936 175081 106511 103661 46763.9 47480.7 -93685.1 12 11.0154 0.190941 0.574524 0.403915 0.012857 0.600083 1 1.65314e-08 1 1.65314e-08 0
2721 1 17.66 10.596 28.256 -4.44936 109971 195511 198765 17044.9 1225.27 -235.157 12 11.0154 0.190941 0.574524 0.403915 0.012857 0.600083 1 1.65314e-08 1 1.65314e-08 0
2722 1 19.426 12.362 28.256 -4.44936 178200 169034 168265 24744 -25061.8 30129.8 12 11.0154 0.190941 0.574524 0.403915 0.012857 0.600083 1 2.02467e-08 1 2.02467e-08 0
2723 1 19.426 10.596 30.022 -4.44936 107161 173858 177827 -47786.3 43816.8 22853.3 12 11.0154 0.190941 0.574524 0.403915 0.012857 0.600083 1 1.65314e-08 1 1.65314e-08 0
2724 1 17.66 12.362 30.022 -4.44936 185984 175541 112452 -17246.3 33239.1 44792.8 12 11.0154 0.190941 0.574524 0.403915 0.012857 0.600083 1 2.33789e-08 1 2.33789e-08 0
2725 1 21.192 10.596 28.256 -4.44936 191446 193967 168207 -5943.3 -14976.5 -12133.3 12 11.0154 0.190941 0.574524 0.403915 0.012857 0.600083 1 1.16894e-08 1 1.16894e-08 0
2726 1 22.958 12.362 28.256 -4.44936 196775 144036 191561 -10482.2 -3806.88 -19882.3 12 11.0154 0.190941 0.574524 0.403915 0.012857 0.600083 1 0 1 0 0
2727 1 22.958 10.596 30.022 -4.44936 135499 161176 198737 48783.3 -1682.71 1297.17 12 11.0154 0.190941 0.574524 0.403915 0.012857 0.600083 1 0 1 0 0
2728 1 21.192 12.362 30.022 -4.44936 191199 198755 146888 453.349 19836.9 -1185.98 12 11.0154 0.190941 0.574524 0.403915 0.012857 0.600083 1 1.65314e-08 1 1.65314e-08 0
2729 1 24.724 10.596 28.256 -4.44936 196578 185495 195813 -5411.16 2557.94 6280.81 12 11.0154 0.190941 0.574524 0.403915 0.012857 0.600083 1 1.65314e-08 1 1.65314e-08 0
2730 1 26.49 12.362 28.256 -4.44936 196618 148299 157178 10452.3 -9488.71 45828.5 12 11.0154 0.190941 0.574524 0.403915 0.012857 0.600083 1 0 1 0 0
2731 1 26.49 10.596 30.022 -4.44936 196887 125255 197416 11804.4 1609.13 -10022.9 12 11.0154 0.190941 0.574524 0.403915 0.012857 0.600083 1 0 1 0 0
2732 1 24.724 12.362 30.022 -4.44936 172393 113776 197515 -47362.8 5782.48 10378.3 12 11.0154 0.190941 0.574524 0.403915 0.012857 0.600083 1 1.16894e-08 1 1.16894e-08 0
2733 1 28.256 10.596 28.256 -4.44936 185028 108441 98918.2 -35249.4 -37060.6 -94983.2 12 11.0154 0.190941 0.574524 0.403915 0.012857 0.600083 1 1.16894e-08 1 1.16894e-08 0
2734 1 30.022 12.362 28.256 -4.44936 197041 198058 198769 -1122.41 -148.184 -95.528 12 11.0154 0.190941 0.574524 0.403915 0.012857 0.600083 1 0 1 0 0
2735 1 30.022 10.596 30.022 -4.44936 197913 184566 189990 3515.19 2764.5 -11179.9 12 11.0154 0.190941 0.574524 0.403915 0.012857 0.600083 1 1.65314e-08 1 1.65314e-08 0
2736 1 28.256 12.362 30.022 -4.44936 19460.8 113642 198287 -123561 -9422.44 -6492.54 12 11.0154 0.190941 0.574524 0.403915 0.012857 0.600083 1 2.02467e-08 1 2.02467e-08 0
2737 1 0 14.128 28.256 -4.44936 160967 188178 194199 -20024.7 13165.2 6971.57 12 11.0154 0.190941 0.574524 0.403915 0.012857 0.600083 1 1.65314e-08 1 1.65314e-08 1.26218e-29
2738 1 1.766 15.894 28.256 -4.44936 -16828 192554 169286 -36645.1 -79747 -13553.8 12 11.0154 0.190941 0.574524 0.403915 0.012857 0.600083 1 1.65314e-08 1 1.65314e-08 0
2739 1 1.766 14.128 30.022 -4.44936 173279 149805 128215 35342.3 -42422.7 58788.9 12 11.0154 0.190941 0.574524 0.403915 0.012857 0.600083 1 2.33789e-08 1 2.33789e-08 0
2740 1 0 15.894 30.022 -4.44936 31567.8 5843.3 197021 179616 -17159.9 18432.6 12 11.0154 0.190941 0.574524 0.403915 0.012857 0.600083 1 2.61384e-08 1 2.61384e-08 1.26218e-29
2741 1 3.532 14.128 28.256 -4.44936 148290 172135 160352 36680.4 -44050 32000.6 12 11.0154 0.190941 0.574524 0.403915 0.012857 0.600083 1 1.65314e-08 1 1.65314e-08 0
2742 1 5.298 15.894 28.256 -4.44936 24005 112153 198782 -123048 -128.719 -90.6212 12 11.0154 0.190941 0.574524 0.403915 0.012857 0.600083 1 1.65314e-08 1 1.65314e-08 0
2743 1 5.298 14.128 30.022 -4.44936 133368 139149 116627 -62456.2 73308.1 69993.9 12 11.0154 0.190941 0.574524 0.403915 0.012857 0.600083 1 0 1 0 0
2744 1 3.532 15.894 30.022 -4.44936 126668 197761 198771 -8580.57 877.459 104.406 12 11.0154 0.190941 0.574524 0.403915 0.012857 0.600083 1 1.65314e-08 1 1.65314e-08 0
2745 1 7.064 14.128 28.256 -4.44936 132691 166239 161161 46376.4 49863.9 -34989.9 12 11.0154 0.190941 0.574524 0.403915 0.012857 0.600083 1 1.16894e-08 1 1.16894e-08 0
2746 1 8.83 15.894 28.256 -4.44936 185939 198439 106368 2098.72 -34450.9 5629.77 12 11.0154 0.190941 0.574524 0.403915 0.012857 0.600083 1 1.16894e-08 1 1.16894e-08 0
2747 1 8.83 14.128 30.022 -4.44936 197451 193519 194960 2646.35 -2255.21 4484.72 12 11.0154 0.190941 0.574524 0.403915 0.012857 0.600083 1 0 1 0 0
2748 1 7.064 15.894 30.022 -4.44936 116639 190862 180738 -25505.8 38499.6 11954.2 12 11.0154 0.190941 0.574524 0.403915 0.012857 0.600083 1 1.65314e-08 1 1.65314e-08 0
2749 1 10.596 14.128 28.256 -4.44936 198657 174612 198539 -1741.19 -174.57 -2423.25 12 11.0154 0.190941 0.574524 0.403915 0.012857 0.600083 1 1.16894e-08 1 1.16894e-08 0
2750 1 12.362 15.894 28.256 -4.44936 198199 4722.69 103198 -10632.5 -7462.13 -136195 12 11.0154 0.190941 0.574524 0.403915 0.012857 0.600083 1 1.65314e-08 1 1.65314e-08 0
2751 1 12.362 14.128 30.022 -4.44936 188718 190675 181646 -9032.46 13132.4 11786.4 12 11.0154 0.190941 0.574524 0.403915 0.012857 0.600083 1 2.33789e-08 1 2.33789e-08 0
2752 1 10.596 15.894 30.022 -4.44936 198139 197368 117401 953.56 7235.35 -10725.4 12 11.0154 0.190941 0.574524 0.403915 0.012857 0.600083 1 1.65314e-08 1 1.65314e-08 0
2753 1 14.128 14.128 28.256 -4.44936 171103 112403 198563 48896.3 -2462.47 4350.15 12 11.0154 0.190941 0.574524 0.403915 0.012857 0.600083 1 1.65314e-08 1 1.65314e-08 0
2754 1 15.894 15.894 28.256 -4.44936 188324 182323 182937 13119.7 -12872.3 16149.1 12 11.0154 0.190941 0.574524 0.403915 0.012857 0.600083 1 0 1 0 0
2755 1 15.894 14.128 30.022 -4.44936 194152 134070 110027 17309.5 -20271.6 75786.3 12 11.0154 0.190941 0.574524 0.403915 0.012857 0.600083 1 0 1 0 0
2756 1 14.128 15.894 30.022 -4.44936 146449 50299.5 -13813.8 88150.9 105479 -177670 12 11.0154 0.190941 0.574524 0.403915 0.012857 0.600083 1 1.65314e-08 1 1.65314e-08 0
2757 1 17.66 14.128 28.256 -4.44936 29617 191651 196318 -34732.2 20415.6 4191.63 12 11.0154 0.190941 0.574524 0.403915 0.012857 0.600083 1 0 1 0 0
2758 1 19.426 15.894 28.256 -4.44936 196400 75621.4 198780 17128.7 -72.442 520.88 12 11.0154 0.190941 0.574524 0.403915 0.012857 0.600083 1 0 1 0 0
2759 1 19.426 14.128 30.022 -4.44936 103500 -25513.2 198191 146189 -7504.9 11514.6 12 11.0154 0.190941 0.574524 0.403915 0.012857 0.600083 1 1.65314e-08 1 1.65314e-08 0
2760 1 17.66 15.894 30.022 -4.44936 197447 163862 182864 -6826.51 -4608.93 -23576.4 12 11.0154 0.190941 0.574524 0.403915 0.012857 0.600083 1 2.33789e-08 1 2.33789e-08 0
2761 1 21.192 14.128 28.256 -4.44936 187874 144137 123602 -24414.4 -28636.4 -64095.4 12 11.0154 0.190941 0.574524 0.403915 0.012857 0.600083 1 2.33789e-08 1 2.33789e-08 0
2762 1 22.958 15.894 28.256 -4.44936 180400 190190 176621 12567.7 20183.3 -13799.1 12 11.0154 0.190941 0.574524 0.403915 0.012857 0.600083 1 1.16894e-08 1 1.16894e-08 0
2763 1 22.958 14.128 30.022 -4.44936 196315 185515 152482 -5720.64 -10686.9 -24784.3 12 11.0154 0.190941 0.574524 0.403915 0.012857 0.600083 1 1.16894e-08 1 1.16894e-08 0
2764 1 21.192 15.894 30.022 -4.44936 97662.3 107061 175967 -96305.9 48031.9 45745.4 12 11.0154 0.190941 0.574524 0.403915 0.012857 0.600083 1 1.16894e-08 1 1.16894e-08 0
2765 1 24.724 14.128 28.256 -4.44936 196591 168370 196538 8162.14 -2217.1 8260.89 12 11.0154 0.190941 0.574524 0.403915 0.012857 0.600083 1 1.65314e-08 1 1.65314e-08 0
2766 1 26.49 15.894 28.256 -4.44936 186379 140245 182786 26945 14085.3 -30599.7 12 11.0154 0.190941 0.574524 0.403915 0.012857 0.600083 1 0 1 0 0
2767 1 26.49 14.128 30.022 -4.44936 182805 142567 198761 29969.3 581.617 -1090.96 12 11.0154 0.190941 0.574524 0.403915 0.012857 0.600083 1 1.65314e-08 1 1.65314e-08 0
2768 1 24.724 15.894 30.022 -4.44936 190131 167149 136264 -16542.3 -23255.8 -44470.3 12 11.0154 0.190941 0.574524 0.403915 0.012857 0.600083 1 1.16894e-08 1 1.16894e-08 0
2769 1 28.256 14.128 28.256 -4.44936 160967 171030 168219 32394.9 33996.1 -29123.7 12 11.0154 0.190941 0.574524 0.403915 0.012857 0.600083 1 1.16894e-08 1 1.16894e-08 0
2770 1 30.022 15.894 28.256 -4.44936 170117 187800 182655 -17743 21500.6 13308.3 12 11.0154 0.190941 0.574524 0.403915 0.012857 0.600083 1 1.16894e-08 1 1.16894e-08 0
2771 1 30.022 14.128 30.022 -4.44936 197729 195122 177959 -1962.7 4681.46 8730.02 12 11.0154 0.190941 0.574524 0.403915 0.012857 0.600083 1 2.33789e-08 1 2.33789e-08 0
2772 1 28.256 15.894 30.022 -4.44936 164093 196045 180066 -9744.41 25480.2 7157.71 12 11.0154 0.190941 0.574524 0.403915 0.012857 0.600083 1 1.16894e-08 1 1.16894e-08 0
2773 1 0 17.66 28.256 -4.44936 198399 193694 133101 1395.02 5012.06 -18281.1 12 11.0154 0.190941 0.574524 0.403915 0.012857 0.600083 1 0 1 0 1.26218e-29
2774 1 1.766 19.426 28.256 -4.44936 191215 187355 155732 -9298.95 18049.1 22179.7 12 11.0154 0.190941 0.574524 0.403915 0.012857 0.600083 1 1.16894e-08 1 1.16894e-08 0
2775 1 1.766 17.66 30.022 -4.44936 185861 175522 193122 17335.7 -8551.83 11474.1 12 11.0154 0.190941 0.574524 0.403915 0.012857 0.600083 1 0 1 0 0
2776 1 0 19.426 30.022 -4.44936 165470 179577 176119 25293.1 -27476.4 20862.4 12 11.0154 0.190941 0.574524 0.403915 0.012857 0.600083 1 2.02467e-08 1 2.02467e-08 1.26218e-29
2777 1 3.532 17.66 28.256 -4.44936 158796 140858 117280 -48126.5 -57086.9 -68709 12 11.0154 0.190941 0.574524 0.403915 0.012857 0.600083 1 2.02467e-08 1 2.02467e-08 0
2778 1 5.298 19.426 28.256 -4.44936 168849 194914 96307.5 -10759.8 -55384.1 -19908.4 12 11.0154 0.190941 0.574524 0.403915 0.012857 0.600083 1 2.02467e-08 1 2.02467e-08 0
2779 1 5.298 17.66 30.022 -4.44936 176198 133369 186190 -38435.9 16863.6 28699.9 12 11.0154 0.190941 0.574524 0.403915 0.012857 0.600083 1 0 1 0 0
2780 1 3.532 19.426 30.022 -4.44936 174617 198743 196618 973.1 7230.74 -291.176 12 11.0154 0.190941 0.574524 0.403915 0.012857 0.600083 1 1.16894e-08 1 1.16894e-08 0
2781 1 7.064 17.66 28.256 -4.44936 193056 189438 197803 7314.5 -2367.33 3024.3 12 11.0154 0.190941 0.574524 0.403915 0.012857 0.600083 1 1.16894e-08 1 1.16894e-08 0
2782 1 8.83 19.426 28.256 -4.44936 118514 103370 175337 -87512.9 43380.9 47296.5 12 11.0154 0.190941 0.574524 0.403915 0.012857 0.600083 1 2.02467e-08 1 2.02467e-08 0
2783 1 8.83 17.66 30.022 -4.44936 111544 180831 182878 39572.7 -37248.4 16896.5 12 11.0154 0.190941 0.574524 0.403915 0.012857 0.600083 1 2.02467e-08 1 2.02467e-08 0
2784 1 7.064 19.426 30.022 -4.44936 41244.9 -58843.5 159124 201459 79041.4 -101078 12 11.0154 0.190941 0.574524 0.403915 0.012857 0.600083 1 1.16894e-08 1 1.16894e-08 0
2785 1 10.596 17.66 28.256 -4.44936 72542.4 197851 191322 -10841.4 -30687.2 -2635.4 12 11.0154 0.190941 0.574524 0.403915 0.012857 0.600083 1 1.65314e-08 1 1.65314e-08 0
2786 1 12.362 19.426 28.256 -4.44936 192085 178500 187242 11654.5 8791.24 -15299.1 12 11.0154 0.190941 0.574524 0.403915 0.012857 0.600083 1 1.65314e-08 1 1.65314e-08 0
2787 1 12.362 17.66 30.022 -4.44936 174444 198682 197182 -1560.35 -6240.63 -400.099 12 11.0154 0.190941 0.574524 0.403915 0.012857 0.600083 1 0 1 0 0
2788 1 10.596 19.426 30.022 -4.44936 193398 161509 196024 -14166.3 3853.36 10138.6 12 11.0154 0.190941 0.574524 0.403915 0.012857 0.600083 1 1.16894e-08 1 1.16894e-08 0
2789 1 14.128 17.66 28.256 -4.44936 198782 168120 121939 71.9462 -113.897 48540 12 11.0154 0.190941 0.574524 0.403915 0.012857 0.600083 1 2.02467e-08 1 2.02467e-08 0
2790 1 15.894 19.426 28.256 -4.44936 188419 196126 167570 -5245.78 17984.5 9104.07 12 11.0154 0.190941 0.574524 0.403915 0.012857 0.600083 1 1.16894e-08 1 1.16894e-08 0
2791 1 15.894 17.66 30.022 -4.44936 196306 161185 191922 9648.91 4121.53 -16059.4 12 11.0154 0.190941 0.574524 0.403915 0.012857 0.600083 1 2.02467e-08 1 2.02467e-08 0
2792 1 14.128 19.426 30.022 -4.44936 169052 193641 194004 -12363.4 -11918.3 -4956.25 12 11.0154 0.190941 0.574524 0.403915 0.012857 0.600083 1 1.16894e-08 1 1.16894e-08 0
2793 1 17.66 17.66 28.256 -4.44936 121766 100755 186405 -86888.3 30874.2 34832.1 12 11.0154 0.190941 0.574524 0.403915 0.012857 0.600083 1 2.33789e-08 1 2.33789e-08 0
2794 1 19.426 19.426 28.256 -4.44936 177960 196245 132264 -7267.31 37215.8 12989.3 12 11.0154 0.190941 0.574524 0.403915 0.012857 0.600083 1 1.65314e-08 1 1.65314e-08 0
2795 1 19.426 17.66 30.022 -4.44936 -91558.7 198009 161224 14978.2 -104425 5387.08 12 11.0154 0.190941 0.574524 0.403915 0.012857 0.600083 1 1.65314e-08 1 1.65314e-08 0
2796 1 17.66 19.426 30.022 -4.44936 193695 181273 169741 -9437.02 -12153.9 -22549.3 12 11.0154 0.190941 0.574524 0.403915 0.012857 0.600083 1 2.86331e-08 1 2.86331e-08 0
2797 1 21.192 17.66 28.256 -4.44936 182233 192734 198701 -10004.1 1157 699.425 12 11.0154 0.190941 0.574524 0.403915 0.012857 0.600083 1 1.65314e-08 1 1.65314e-08 0
2798 1 22.958 19.426 28.256 -4.44936 156029 162401 198670 39438.9 2184.14 -2014.82 12 11.0154 0.190941 0.574524 0.403915 0.012857 0.600083 1 0 1 0 0
2799 1 22.958 17.66 30.022 -4.44936 174571 53536.8 142352 59300.1 36962.5 -90533 12 11.0154 0.190941 0.574524 0.403915 0.012857 0.600083 1 2.33789e-08 1 2.33789e-08 0
2800 1 21.192 19.426 30.022 -4.44936 136675 42290.7 95619.2 -98586.1 80044.6 127059 12 11.0154 0.190941 0.574524 0.403915 0.012857 0.600083 1 0 1 0 0
2801 1 24.724 17.66 28.256 -4.44936 40279.6 -35621.6 122911 192752 -109662 133358 12 11.0154 0.190941 0.574524 0.403915 0.012857 0.600083 1 0 1 0 0
2802 1 26.49 19.426 28.256 -4.44936 -30057 198682 197652 4790.99 -16081.6 336.686 12 11.0154 0.190941 0.574524 0.403915 0.012857 0.600083 1 1.65314e-08 1 1.65314e-08 0
2803 1 26.49 17.66 30.022 -4.44936 61468.1 111438 191565 -109515 31480 25107 12 11.0154 0.190941 0.574524 0.403915 0.012857 0.600083 1 2.02467e-08 1 2.02467e-08 0
2804 1 24.724 19.426 30.022 -4.44936 179873 120225 94528.9 -38541.1 44399.3 90497.5 12 11.0154 0.190941 0.574524 0.403915 0.012857 0.600083 1 2.33789e-08 1 2.33789e-08 0
2805 1 28.256 17.66 28.256 -4.44936 181134 187930 159844 13838.9 -26213.7 20556.2 12 11.0154 0.190941 0.574524 0.403915 0.012857 0.600083 1 1.16894e-08 1 1.16894e-08 0
2806 1 30.022 19.426 28.256 -4.44936 197115 180351 186948 5543.54 -4441.97 14768.2 12 11.0154 0.190941 0.574524 0.403915 0.012857 0.600083 1 1.65314e-08 1 1.65314e-08 0
2807 1 30.022 17.66 30.022 -4.44936 197717 177743 197808 -4734.27 1018.61 4526.77 12 11.0154 0.190941 0.574524 0.403915 0.012857 0.600083 1 2.61384e-08 1 2.61384e-08 0
2808 1 28.256 19.426 30.022 -4.44936 155752 153567 188599 -44108.6 20932.7 21457.6 12 11.0154 0.190941 0.574524 0.403915 0.012857 0.600083 1 0 1 0 0
2809 1 0 21.192 28.256 -4.44936 167271 139071 97039.5 43376.4 56621.1 -77943 12 11.0154 0.190941 0.574524 0.403915 0.012857 0.600083 1 1.16894e-08 1 1.16894e-08 1.26218e-29
2810 1 1.766 22.958 28.256 -4.44936 172022 134034 113367 -41624.9 -47808.8 -74367.2 12 11.0154 0.190941 0.574524 0.403915 0.012857 0.600083 1 1.16894e-08 1 1.16894e-08 0
2811 1 1.766 21.192 30.022 -4.44936 188808 136039 177412 25015.7 -14599.4 36617.5 12 11.0154 0.190941 0.574524 0.403915 0.012857 0.600083 1 0 1 0 0
2812 1 0 22.958 30.022 -4.44936 174057 184427 147426 18839.5 -35634 27151.5 12 11.0154 0.190941 0.574524 0.403915 0.012857 0.600083 1 2.61384e-08 1 2.61384e-08 1.26218e-29
2813 1 3.532 21.192 28.256 -4.44936 192745 192075 172867 6363.46 -12508.1 13184 12 11.0154 0.190941 0.574524 0.403915 0.012857 0.600083 1 2.33789e-08 1 2.33789e-08 0
2814 1 5.298 22.958 28.256 -4.44936 170700 163304 197177 31564.1 -6714.36 7546.9 12 11.0154 0.190941 0.574524 0.403915 0.012857 0.600083 1 1.65314e-08 1 1.65314e-08 0
2815 1 5.298 21.192 30.022 -4.44936 198669 194714 179172 678.887 1490.59 -8931.53 12 11.0154 0.190941 0.574524 0.403915 0.012857 0.600083 1 1.16894e-08 1 1.16894e-08 0
2816 1 3.532 22.958 30.022 -4.44936 98249.3 198511 117081 -5214.63 90629 4700.93 12 11.0154 0.190941 0.574524 0.403915 0.012857 0.600083 1 0 1 0 0
2817 1 7.064 21.192 28.256 -4.44936 188325 125383 181033 -27704.3 -13623.7 -36094.1 12 11.0154 0.190941 0.574524 0.403915 0.012857 0.600083 1 1.16894e-08 1 1.16894e-08 0
2818 1 8.83 22.958 28.256 -4.44936 196639 198129 151759 -1183.4 10039.3 5542.97 12 11.0154 0.190941 0.574524 0.403915 0.012857 0.600083 1 1.16894e-08 1 1.16894e-08 0
2819 1 8.83 21.192 30.022 -4.44936 197909 189087 195177 -2909.43 -1774.22 -5912.29 12 11.0154 0.190941 0.574524 0.403915 0.012857 0.600083 1 2.02467e-08 1 2.02467e-08 0
2820 1 7.064 22.958 30.022 -4.44936 128388 154933 191066 -55557.9 -23305.5 -18393.8 12 11.0154 0.190941 0.574524 0.403915 0.012857 0.600083 1 2.02467e-08 1 2.02467e-08 0
2821 1 10.596 21.192 28.256 -4.44936 198744 130585 162344 -1608.64 -1175.85 -49849.5 12 11.0154 0.190941 0.574524 0.403915 0.012857 0.600083 1 1.16894e-08 1 1.16894e-08 0
2822 1 12.362 22.958 28.256 -4.44936 195566 117545 182301 16162.4 -7279.67 36590 12 11.0154 0.190941 0.574524 0.403915 0.012857 0.600083 1 0 1 0 0
2823 1 12.362 21.192 30.022 -4.44936 182626 190715 195934 11415.9 6783.23 -4793.05 12 11.0154 0.190941 0.574524 0.403915 0.012857 0.600083 1 1.16894e-08 1 1.16894e-08 0
2824 1 10.596 22.958 30.022 -4.44936 178019 195635 121924 -8083.77 -39947.6 -15552.8 12 11.0154 0.190941 0.574524 0.403915 0.012857 0.600083 1 0 1 0 0
2825 1 14.128 21.192 28.256 -4.44936 46018.8 174855 140975 -60457.6 93972 37190.4 12 11.0154 0.190941 0.574524 0.403915 0.012857 0.600083 1 2.33789e-08 1 2.33789e-08 0
2826 1 15.894 22.958 28.256 -4.44936 176961 195901 193150 -7928.65 11086 4028.14 12 11.0154 0.190941 0.574524 0.403915 0.012857 0.600083 1 1.16894e-08 1 1.16894e-08 0
2827 1 15.894 21.192 30.022 -4.44936 198422 198271 187496 428.711 -2014.74 2401.44 12 11.0154 0.190941 0.574524 0.403915 0.012857 0.600083 1 2.02467e-08 1 2.02467e-08 0
2828 1 14.128 22.958 30.022 -4.44936 62744.3 157499 121058 -74940.1 102827 56645 12 11.0154 0.190941 0.574524 0.403915 0.012857 0.600083 1 0 1 0 0
2829 1 17.66 21.192 28.256 -4.44936 177760 55223.3 149023 54935 32342.2 -84518.1 12 11.0154 0.190941 0.574524 0.403915 0.012857 0.600083 1 0 1 0 0
2830 1 19.426 22.958 28.256 -4.44936 193599 198768 198035 -268.985 -1967.13 -102.093 12 11.0154 0.190941 0.574524 0.403915 0.012857 0.600083 1 1.16894e-08 1 1.16894e-08 0
2831 1 19.426 21.192 30.022 -4.44936 198276 164515 173933 -4163.13 -3545.15 -29180.5 12 11.0154 0.190941 0.574524 0.403915 0.012857 0.600083 1 0 1 0 0
2832 1 17.66 22.958 30.022 -4.44936 172985 33935.7 187022 -65211.6 17417.9 44030.2 12 11.0154 0.190941 0.574524 0.403915 0.012857 0.600083 1 2.61384e-08 1 2.61384e-08 0
2833 1 21.192 21.192 28.256 -4.44936 153605 107466 198620 -64229 2705.33 3846.24 12 11.0154 0.190941 0.574524 0.403915 0.012857 0.600083 1 3.09273e-08 1 3.09273e-08 0
2834 1 22.958 22.958 28.256 -4.44936 130962 40467.5 162151 103619 -49843 76152.6 12 11.0154 0.190941 0.574524 0.403915 0.012857 0.600083 1 1.65314e-08 1 1.65314e-08 0
2835 1 22.958 21.192 30.022 -4.44936 180159 168166 179280 23878.2 19057.6 -24435.3 12 11.0154 0.190941 0.574524 0.403915 0.012857 0.600083 1 1.16894e-08 1 1.16894e-08 0
2836 1 21.192 22.958 30.022 -4.44936 198038 191789 181166 -2280.61 -3619.78 -11098.5 12 11.0154 0.190941 0.574524 0.403915 0.012857 0.600083 1 1.16894e-08 1 1.16894e-08 0
2837 1 24.724 21.192 28.256 -4.44936 44014.8 118230 187625 111655 -41553.1 29977.9 12 11.0154 0.190941 0.574524 0.403915 0.012857 0.600083 1 2.33789e-08 1 2.33789e-08 0
2838 1 26.49 22.958 28.256 -4.44936 190617 67033.3 194859 32799.1 -5659.57 22733.6 12 11.0154 0.190941 0.574524 0.403915 0.012857 0.600083 1 1.65314e-08 1 1.65314e-08 0
2839 1 26.49 21.192 30.022 -4.44936 196457 183097 121916 -6038.42 13367.6 34721.9 12 11.0154 0.190941 0.574524 0.403915 0.012857 0.600083 1 0 1 0 0
2840 1 24.724 22.958 30.022 -4.44936 197450 131278 150613 -9481.18 -8009 -57022.7 12 11.0154 0.190941 0.574524 0.403915 0.012857 0.600083 1 2.33789e-08 1 2.33789e-08 0
2841 1 28.256 21.192 28.256 -4.44936 178091 198368 198075 -2927.72 -3824.77 -541.206 12 11.0154 0.190941 0.574524 0.403915 0.012857 0.600083 1 3.09273e-08 1 3.09273e-08 0
2842 1 30.022 22.958 28.256 -4.44936 198780 196653 198518 57.1492 -20.1164 749.489 12 11.0154 0.190941 0.574524 0.403915 0.012857 0.600083 1 1.65314e-08 1 1.65314e-08 0
2843 1 30.022 21.192 30.022 -4.44936 197479 129187 44607.9 -9524.38 14176 103584 12 11.0154 0.190941 0.574524 0.403915 0.012857 0.600083 1 1.65314e-08 1 1.65314e-08 0
2844 1 28.256 22.958 30.022 -4.44936 188965 196342 166193 4894.35 17886.8 -8917.25 12 11.0154 0.190941 0.574524 0.403915 0.012857 0.600083 1 2.02467e-08 1 2.02467e-08 0
2845 1 0 24.724 28.256 -4.44936 189412 170796 177307 16193.4 14185 -24515.2 12 11.0154 0.190941 0.574524 0.403915 0.012857 0.600083 1 2.02467e-08 1 2.02467e-08 1.26218e-29
2846 1 1.766 26.49 28.256 -4.44936 184535 54434.3 178355 45348.2 17059 -54300.5 12 11.0154 0.190941 0.574524 0.403915 0.012857 0.600083 1 2.02467e-08 1 2.02467e-08 0
2847 1 1.766 24.724 30.022 -4.44936 198525 195085 196238 -973.883 807.836 3066.47 12 11.0154 0.190941 0.574524 0.403915 0.012857 0.600083 1 1.16894e-08 1 1.16894e-08 0
2848 1 0 26.49 30.022 -4.44936 194307 165194 189713 12259.6 6370.48 -17453.3 12 11.0154 0.190941 0.574524 0.403915 0.012857 0.600083 1 1.16894e-08 1 1.16894e-08 1.26218e-29
2849 1 3.532 24.724 28.256 -4.44936 193560 196151 121739 3706.3 -20057.5 14236.3 12 11.0154 0.190941 0.574524 0.403915 0.012857 0.600083 1 1.65314e-08 1 1.65314e-08 0
2850 1 5.298 26.49 28.256 -4.44936 102368 183100 98435.3 -38883.8 -98360.5 -39669 12 11.0154 0.190941 0.574524 0.403915 0.012857 0.600083 1 1.16894e-08 1 1.16894e-08 0
2851 1 5.298 24.724 30.022 -4.44936 158476 198458 192135 -3612.09 -16368 -1466.84 12 11.0154 0.190941 0.574524 0.403915 0.012857 0.600083 1 1.16894e-08 1 1.16894e-08 0
2852 1 3.532 26.49 30.022 -4.44936 198316 197034 175997 -902.731 -3258.77 -6311.75 12 11.0154 0.190941 0.574524 0.403915 0.012857 0.600083 1 1.65314e-08 1 1.65314e-08 0
2853 1 7.064 24.724 28.256 -4.44936 163625 162417 15230.8 35755.5 80330.9 -81699.1 12 11.0154 0.190941 0.574524 0.403915 0.012857 0.600083 1 1.65314e-08 1 1.65314e-08 0
2854 1 8.83 26.49 28.256 -4.44936 175962 180093 109654 -20651.1 -45098.6 -40812.7 12 11.0154 0.190941 0.574524 0.403915 0.012857 0.600083 1 1.65314e-08 1 1.65314e-08 0
2855 1 8.83 24.724 30.022 -4.44936 193805 176519 166440 -10526.2 12687 26833.5 12 11.0154 0.190941 0.574524 0.403915 0.012857 0.600083 1 1.65314e-08 1 1.65314e-08 0
2856 1 7.064 26.49 30.022 -4.44936 197078 184011 166465 5016.55 -7420.16 21848.4 12 11.0154 0.190941 0.574524 0.403915 0.012857 0.600083 1 0 1 0 0
2857 1 10.596 24.724 28.256 -4.44936 197815 11670.1 170940 13451.5 -5188.85 72177.3 12 11.0154 0.190941 0.574524 0.403915 0.012857 0.600083 1 1.65314e-08 1 1.65314e-08 0
2858 1 12.362 26.49 28.256 -4.44936 198335 186267 182989 -2365.98 2657.85 14058.3 12 11.0154 0.190941 0.574524 0.403915 0.012857 0.600083 1 1.65314e-08 1 1.65314e-08 0
2859 1 12.362 24.724 30.022 -4.44936 188402 198016 196951 -2820.31 4359.29 1184.4 12 11.0154 0.190941 0.574524 0.403915 0.012857 0.600083 1 1.16894e-08 1 1.16894e-08 0
2860 1 10.596 26.49 30.022 -4.44936 182145 44519.9 198616 -50660.6 1660.02 5054.76 12 11.0154 0.190941 0.574524 0.403915 0.012857 0.600083 1 1.16894e-08 1 1.16894e-08 0
2861 1 14.128 24.724 28.256 -4.44936 182699 192509 -167946 -10043.9 -76799 -47961.4 12 11.0154 0.190941 0.574524 0.403915 0.012857 0.600083 1 1.65314e-08 1 1.65314e-08 0
2862 1 15.894 26.49 28.256 -4.44936 167218 197436 87795.1 -6517.53 59188 12221.4 12 11.0154 0.190941 0.574524 0.403915 0.012857 0.600083 1 1.16894e-08 1 1.16894e-08 0
2863 1 15.894 24.724 30.022 -4.44936 8845.94 196139 191068 -22404.9 38276.5 4515.1 12 11.0154 0.190941 0.574524 0.403915 0.012857 0.600083 1 1.16894e-08 1 1.16894e-08 0
2864 1 14.128 26.49 30.022 -4.44936 186314 197232 123792 -4396.24 30577.2 10781.7 12 11.0154 0.190941 0.574524 0.403915 0.012857 0.600083 1 1.65314e-08 1 1.65314e-08 0
2865 1 17.66 24.724 28.256 -4.44936 193100 180227 148342 -10268.2 16929.5 30593 12 11.0154 0.190941 0.574524 0.403915 0.012857 0.600083 1 2.61384e-08 1 2.61384e-08 0
2866 1 19.426 26.49 28.256 -4.44936 -22603 194133 181713 32082.1 61472.1 -8908.26 12 11.0154 0.190941 0.574524 0.403915 0.012857 0.600083 1 2.02467e-08 1 2.02467e-08 0
2867 1 19.426 24.724 30.022 -4.44936 172625 166278 99797 29158.4 -50883.9 56722.2 12 11.0154 0.190941 0.574524 0.403915 0.012857 0.600083 1 2.33789e-08 1 2.33789e-08 0
2868 1 17.66 26.49 30.022 -4.44936 196901 181269 158533 -5740.03 8701.77 26549.5 12 11.0154 0.190941 0.574524 0.403915 0.012857 0.600083 1 0 1 0 0
2869 1 21.192 24.724 28.256 -4.44936 58785.5 134949 188591 -94532.8 37771.1 25505 12 11.0154 0.190941 0.574524 0.403915 0.012857 0.600083 1 1.65314e-08 1 1.65314e-08 0
2870 1 22.958 26.49 28.256 -4.44936 182699 191104 138646 -11112.2 31099.5 21487.2 12 11.0154 0.190941 0.574524 0.403915 0.012857 0.600083 1 1.65314e-08 1 1.65314e-08 0
2871 1 22.958 24.724 30.022 -4.44936 156217 139071 198672 50414.1 2164.04 -2563.11 12 11.0154 0.190941 0.574524 0.403915 0.012857 0.600083 1 1.65314e-08 1 1.65314e-08 0
2872 1 21.192 26.49 30.022 -4.44936 198776 184695 198568 -289.045 35.6636 1738.11 12 11.0154 0.190941 0.574524 0.403915 0.012857 0.600083 1 1.65314e-08 1 1.65314e-08 0
2873 1 24.724 24.724 28.256 -4.44936 85350.1 35654.3 194905 -136029 20971.9 25149.8 12 11.0154 0.190941 0.574524 0.403915 0.012857 0.600083 1 1.65314e-08 1 1.65314e-08 0
2874 1 26.49 26.49 28.256 -4.44936 198759 158665 189964 -954.672 -447.576 -18807.8 12 11.0154 0.190941 0.574524 0.403915 0.012857 0.600083 1 0 1 0 0
2875 1 26.49 24.724 30.022 -4.44936 64668.3 164722 174066 -67586.8 -57573.7 -29014.4 12 11.0154 0.190941 0.574524 0.403915 0.012857 0.600083 1 1.65314e-08 1 1.65314e-08 0
2876 1 24.724 26.49 30.022 -4.44936 157194 128509 50367 54060.2 -78563.5 102126 12 11.0154 0.190941 0.574524 0.403915 0.012857 0.600083 1 1.65314e-08 1 1.65314e-08 0
2877 1 28.256 24.724 28.256 -4.44936 184035 154482 197931 -25560 -3541.9 -6138.77 12 11.0154 0.190941 0.574524 0.403915 0.012857 0.600083 1 1.65314e-08 1 1.65314e-08 0
2878 1 30.022 26.49 28.256 -4.44936 155169 198215 198034 4972.69 -5711.27 651.191 12 11.0154 0.190941 0.574524 0.403915 0.012857 0.600083 1 1.65314e-08 1 1.65314e-08 0
2879 1 30.022 24.724 30.022 -4.44936 197456 158778 193653 -7282.52 2607.63 14324.2 12 11.0154 0.190941 0.574524 0.403915 0.012857 0.600083 1 1.65314e-08 1 1.65314e-08 0
2880 1 28.256 26.49 30.022 -4.44936 128884 185741 171726 -30191.6 43487.6 18784.1 12 11.0154 0.190941 0.574524 0.403915 0.012857 0.600083 1 1.65314e-08 1 1.65314e-08 0
2881 1 0 28.256 28.256 -4.44936 126333 123917 198770 -73647.2 933.467 948.906 12 11.0154 0.190941 0.574524 0.403915 0.012857 0.600083 1 1.65314e-08 1 1.65314e-08 1.26218e-29
2882 1 1.766 30.022 28.256 -4.44936 167809 105996 169830 53608.5 29945.4 -51829.4 12 11.0154 0.190941 0.574524 0.403915 0.012857 0.600083 1 1.16894e-08 1 1.16894e-08 0
2883 1 1.766 28.256 30.022 -4.44936 197421 145941 151425 8481.59 8029.41 -50023.8 12 11.0154 0.190941 0.574524 0.403915 0.012857 0.600083 1 1.65314e-08 1 1.65314e-08 0
2884 1 0 30.022 30.022 -4.44936 176913 184572 113655 -17628.1 -43146.3 -34779.8 12 11.0154 0.190941 0.574524 0.403915 0.012857 0.600083 1 2.86331e-08 1 2.86331e-08 1.26218e-29
2885 1 3.532 28.256 28.256 -4.44936 193894 83951.4 182493 -23691.4 -8923 -43249.1 12 11.0154 0.190941 0.574524 0.403915 0.012857 0.600083 1 1.16894e-08 1 1.16894e-08 0
2886 1 5.298 30.022 28.256 -4.44936 93636.5 17191.1 131371 -138179 -84189.8 -110640 12 11.0154 0.190941 0.574524 0.403915 0.012857 0.600083 1 0 1 0 0
2887 1 5.298 28.256 30.022 -4.44936 186508 143467 178567 26056 -15751.5 33439.1 12 11.0154 0.190941 0.574524 0.403915 0.012857 0.600083 1 1.16894e-08 1 1.16894e-08 0
2888 1 3.532 30.022 30.022 -4.44936 198402 192404 120060 1555.94 -5466.34 22407.4 12 11.0154 0.190941 0.574524 0.403915 0.012857 0.600083 1 0 1 0 0
2889 1 7.064 28.256 28.256 -4.44936 163313 194066 170798 -12933.8 31505 11488.4 12 11.0154 0.190941 0.574524 0.403915 0.012857 0.600083 1 1.16894e-08 1 1.16894e-08 0
2890 1 8.83 30.022 28.256 -4.44936 182762 197864 198737 3835.24 -851.031 203.742 12 11.0154 0.190941 0.574524 0.403915 0.012857 0.600083 1 1.16894e-08 1 1.16894e-08 0
2891 1 8.83 28.256 30.022 -4.44936 105288 150785 198517 -66988.5 4977.91 3566.66 12 11.0154 0.190941 0.574524 0.403915 0.012857 0.600083 1 1.16894e-08 1 1.16894e-08 0
2892 1 7.064 30.022 30.022 -4.44936 192318 -36586.8 185276 -39005.9 9343.58 56380.8 12 11.0154 0.190941 0.574524 0.403915 0.012857 0.600083 1 2.33789e-08 1 2.33789e-08 0
2893 1 10.596 28.256 28.256 -4.44936 191030 198766 198337 352.96 1857.65 -84.5788 12 11.0154 0.190941 0.574524 0.403915 0.012857 0.600083 1 1.16894e-08 1 1.16894e-08 0
2894 1 12.362 30.022 28.256 -4.44936 152866 192164 93044 17432.4 -69678.2 26454 12 11.0154 0.190941 0.574524 0.403915 0.012857 0.600083 1 1.16894e-08 1 1.16894e-08 0
2895 1 12.362 28.256 30.022 -4.44936 198261 166409 182747 -4105.19 -2889.21 -22783.5 12 11.0154 0.190941 0.574524 0.403915 0.012857 0.600083 1 2.02467e-08 1 2.02467e-08 0
2896 1 10.596 30.022 30.022 -4.44936 96172.9 197123 162580 13048 -60948.2 7750.34 12 11.0154 0.190941 0.574524 0.403915 0.012857 0.600083 1 1.16894e-08 1 1.16894e-08 0
2897 1 14.128 28.256 28.256 -4.44936 182750 198773 197480 372.345 4569.34 -106.125 12 11.0154 0.190941 0.574524 0.403915 0.012857 0.600083 1 1.16894e-08 1 1.16894e-08 0
2898 1 15.894 30.022 28.256 -4.44936 198778 182590 171280 237.069 308.962 -21102.8 12 11.0154 0.190941 0.574524 0.403915 0.012857 0.600083 1 0 1 0 0
2899 1 15.894 28.256 30.022 -4.44936 96229 60678 197540 -119008 11286 13096.9 12 11.0154 0.190941 0.574524 0.403915 0.012857 0.600083 1 1.16894e-08 1 1.16894e-08 0
2900 1 14.128 30.022 30.022 -4.44936 191436 191999 191146 -7058.56 -7489.57 -7196.72 12 11.0154 0.190941 0.574524 0.403915 0.012857 0.600083 1 0 1 0 0
2901 1 17.66 28.256 28.256 -4.44936 174110 196375 164428 7706.07 29112.9 -9093.24 12 11.0154 0.190941 0.574524 0.403915 0.012857 0.600083 1 1.16894e-08 1 1.16894e-08 0
2902 1 19.426 30.022 28.256 -4.44936 196106 198398 142628 1013.87 -12258.1 4644.52 12 11.0154 0.190941 0.574524 0.403915 0.012857 0.600083 1 0 1 0 0
2903 1 19.426 28.256 30.022 -4.44936 173961 147621 196886 -35634.9 6859.65 9848.38 12 11.0154 0.190941 0.574524 0.403915 0.012857 0.600083 1 0 1 0 0
2904 1 17.66 30.022 30.022 -4.44936 68866.2 168312 69276.7 62917 129710 -62817.5 12 11.0154 0.190941 0.574524 0.403915 0.012857 0.600083 1 2.61384e-08 1 2.61384e-08 0
2905 1 21.192 28.256 28.256 -4.44936 171821 188010 174377 17041.6 -25651.5 16213.7 12 11.0154 0.190941 0.574524 0.403915 0.012857 0.600083 1 3.09273e-08 1 3.09273e-08 0
2906 1 22.958 30.022 28.256 -4.44936 195114 196501 181473 -2892.71 -7968.36 -6283.6 12 11.0154 0.190941 0.574524 0.403915 0.012857 0.600083 1 1.16894e-08 1 1.16894e-08 0
2907 1 22.958 28.256 30.022 -4.44936 197360 126908 188652 -10110.6 -3795.75 -26983.1 12 11.0154 0.190941 0.574524 0.403915 0.012857 0.600083 1 1.16894e-08 1 1.16894e-08 0
2908 1 21.192 30.022 30.022 -4.44936 136778 184895 187830 -29343.9 26059.1 12332.7 12 11.0154 0.190941 0.574524 0.403915 0.012857 0.600083 1 2.02467e-08 1 2.02467e-08 0
2909 1 24.724 28.256 28.256 -4.44936 198537 185330 184272 -1816.87 1886.93 13970.8 12 11.0154 0.190941 0.574524 0.403915 0.012857 0.600083 1 0 1 0 0
2910 1 26.49 30.022 28.256 -4.44936 198360 -10447.7 102313 -9397.2 6380.88 142071 12 11.0154 0.190941 0.574524 0.403915 0.012857 0.600083 1 1.65314e-08 1 1.65314e-08 0
2911 1 26.49 28.256 30.022 -4.44936 8814.19 195036 156606 26676.5 89509.7 -12569.5 12 11.0154 0.190941 0.574524 0.403915 0.012857 0.600083 1 1.16894e-08 1 1.16894e-08 0
2912 1 24.724 30.022 30.022 -4.44936 190934 178516 197919 12611.3 2602.82 -4182.69 12 11.0154 0.190941 0.574524 0.403915 0.012857 0.600083 1 1.65314e-08 1 1.65314e-08 0
2913 1 28.256 28.256 28.256 -4.44936 114019 197237 192798 11445.2 22521.4 -3040.97 12 11.0154 0.190941 0.574524 0.403915 0.012857 0.600083 1 3.09273e-08 1 3.09273e-08 0
2914 1 30.022 30.022 28.256 -4.44936 152820 169765 146989 -36519.7 48790.4 38766.9 12 11.0154 0.190941 0.574524 0.403915 0.012857 0.600083 1 1.65314e-08 1 1.65314e-08 0
2915 1 30.022 28.256 30.022 -4.44936 196214 157906 175127 10244.5 -7793.19 31095 12 11.0154 0.190941 0.574524 0.403915 0.012857 0.600083 1 1.65314e-08 1 1.65314e-08 0
2916 1 28.256 30.022 30.022 -4.44936 180558 197652 123829 -4538.53 36958.3 9204.35 12 11.0154 0.190941 0.574524 0.403915 0.012857 0.600083 1 1.65314e-08 1 1.65314e-08 0
