ITEM: TIMESTEP
1000
ITEM: NUMBER OF ATOMS
6807
ITEM: BOX BOUNDS abc origin pp pp pp
42.4453860195 0.0 0.0 -0.0306930097
0.0 42.4453860195 0.0 -0.0306930097
0.0 0.0 42.4453860195 -0.0306930097
ITEM: ATOMS id type x y z Coordination AtomicVolume CavityRadius SurfaceDistance
1 1 42.3296 42.372 -0.0310855 12 10.6697573569 1.7572153801 24.6368169703
2 1 1.63049 1.76427 -0.0034069 12 11.0349589678 1.7547572378 24.5694137094
3 1 1.69051 0.111744 1.66473 12 10.9036344456 1.7630502832 26.4550375133
4 1 42.2401 1.73734 1.58538 12 10.7699648914 1.734073307 24.3478680881
5 1 3.50524 0.0318945 0.0107246 12 11.2673017406 1.7630502832 25.1577342679
6 1 5.27751 1.84478 0.00330544 12 11.1668298574 1.7916982379 22.9770138165
7 1 5.27464 0.059667 1.70067 12 10.9733511128 1.7648271837 25.0565682821
8 1 3.52721 1.81399 1.7068 12 11.1599656834 1.7630502832 24.9301932242
9 1 6.90214 0.0228918 42.3785 12 11.0144197618 1.7911128474 23.3167690574
10 1 8.85676 1.79443 0.0634549 12 11.5319791922 1.7916982379 21.2578109426
11 1 8.75093 -0.00866629 1.68577 12 11.1173461819 1.7750863304 23.5064351485
12 1 7.01938 1.76187 1.8191 12 11.2861283726 1.7906567602 23.1643196463
13 1 10.6226 42.3612 2.95287e-04 12 11.1074662486 1.7767469965 21.8938085876
14 1 12.3645 1.84768 42.4165 12 10.8280025532 1.7524736245 19.8849151846
15 1 12.4464 0.0181547 1.76464 12 11.1132573109 1.7921525777 22.2968047088
16 1 10.6216 1.83342 1.78787 12 11.4986454466 1.7767469965 21.6039780686
17 1 14.0984 0.0757171 42.4274 12 10.8252927747 1.7420824921 20.6990922255
18 1 15.8235 1.75933 -0.0123068 12 10.845606643 1.7459899834 18.934698823
19 1 15.8807 0.150522 1.83616 12 11.3211529311 1.7495802209 21.2581472248
20 1 14.0172 1.83288 1.72665 12 10.5340573965 1.7311766688 20.4934532124
21 1 17.6116 0.0593998 0.0489244 12 10.9848783307 1.7540450099 19.6978551631
22 1 19.4755 1.78584 -0.0134488 12 11.0211294334 1.7675070654 17.7808675105
23 1 19.4747 -0.049086 1.71493 12 10.9962004549 1.7473215754 20.1971836398
24 1 17.6675 1.86294 1.74862 12 11.1263532575 1.7488617862 19.4673803904
25 1 21.2234 0.0039324 -0.00303076 12 11.1111398813 1.7653284369 18.690926023
26 1 22.9997 1.79103 42.2609 12 10.9856786191 1.7654171763 16.9363070024
27 1 23.0788 42.3389 1.69799 12 11.0956230025 1.762190136 19.5824961794
28 1 21.2614 1.67824 1.72453 12 11.0831978096 1.7654171763 18.5671639907
29 1 24.771 -0.0436207 42.3405 12 10.9805190171 1.7619373874 18.3135658628
30 1 26.5521 1.73514 42.3925 12 11.110466626 1.7663994983 17.050239071
31 1 26.6605 0.0252762 1.70617 12 11.0412558994 1.7432506465 19.4946652676
32 1 24.6869 1.64045 1.62713 12 11.1774418684 1.7568432366 18.1774226743
33 1 28.3097 42.3672 42.3357 12 10.9054897279 1.7459720966 18.6631816717
34 1 30.0499 1.71038 42.2953 12 10.991017322 1.7595645908 17.7029902618
35 1 29.967 42.4284 1.60342 12 10.8775009731 1.737691239 20.0399190895
36 1 28.333 1.78924 1.66909 12 10.5482623402 1.7459720966 18.4348077288
37 1 31.8088 -0.0057155 -0.0405711 12 11.2862979131 1.7568948103 19.6022523837
38 1 33.6247 1.87751 42.3789 12 10.9799010043 1.7674777862 18.9967243364
39 1 33.5948 0.11584 1.61854 12 11.102176316 1.7666237288 21.1774129509
40 1 31.7926 1.8657 1.54334 12 10.8110007788 1.757167969 19.2564588325
41 1 35.4241 0.0921452 42.2862 12 11.1696188651 1.7425341976 20.9726342431
42 1 37.1387 1.81206 42.3531 12 11.1328775964 1.769067487 20.6842973373
43 1 37.112 0.0456265 1.83926 12 11.0461298969 1.7425341976 22.9287226555
44 1 35.3616 1.85133 1.68942 12 11.0366618717 1.7425341976 20.8252659677
45 1 38.7202 0.0129273 42.342 12 10.9281956861 1.7685039446 22.6552041913
46 1 40.4814 1.8188 -0.0178349 12 10.8485554388 1.7429869862 22.4116953065
47 1 40.5693 0.00497873 1.61879 12 11.0721759632 1.7430514932 24.5495582674
48 1 38.7853 1.88612 1.71859 12 10.7086221633 1.7397235533 22.5111940636
49 1 42.2861 3.51138 -0.0240444 12 10.8708689132 1.7423497545 22.4459940505
50 1 1.61507 5.26445 0.0276457 12 11.1256956549 1.7789782152 22.7335102665
51 1 1.67945 3.4024 1.6814 12 10.9198390457 1.7789782152 24.6273260349
52 1 42.377 5.15084 1.83814 12 11.1122324412 1.7783050959 22.7676441745
53 1 3.39431 3.61755 -0.00619748 12 11.2402967174 1.75609698 23.0429447397
54 1 5.21675 5.44098 0.0713466 12 10.9076134958 1.75609698 20.9565945632
55 1 5.24768 3.63216 1.81084 12 11.2221259011 1.7775030601 22.9647594798
56 1 3.48739 5.40563 1.84932 12 11.0732531048 1.7789782152 23.1205255955
57 1 6.99539 3.65489 0.0656917 12 11.1872658929 1.7916982379 20.9481072123
58 1 8.77919 5.32138 0.163296 12 10.6817254583 1.7591116046 19.1044102337
59 1 8.81011 3.66662 1.86553 12 11.2202281548 1.7779650328 21.1929370313
60 1 6.96381 5.35488 1.91186 12 10.9043262011 1.7762289931 21.1640250018
61 1 10.6286 3.67297 0.0291992 12 10.9360618697 1.7559832527 19.2340897014
62 1 12.3678 5.37583 0.0180653 12 10.930940762 1.7554159167 17.4682577956
63 1 12.3943 3.51093 1.82331 12 10.6434072387 1.7521111969 19.8784822176
64 1 10.6967 5.25898 1.86201 12 10.8621359098 1.7548644122 19.4614774196
65 1 14.13 3.59284 0.0274526 12 10.9451249726 1.7524736245 18.1136713007
66 1 15.9214 5.36647 42.2944 12 10.9628664866 1.7505167733 16.2891209961
67 1 15.8505 3.58834 1.78462 12 11.0170925437 1.748992683 18.864001232
68 1 14.1394 5.31804 1.70946 12 11.0192936988 1.7595626569 18.0835682753
69 1 17.6652 3.55085 0.0469064 12 10.9658423433 1.7675070654 17.1955220268
70 1 19.4593 5.31946 42.3881 12 10.6776020068 1.7675070654 15.3904361537
71 1 19.534 3.52011 1.75437 12 10.8970991757 1.7675070654 17.7996783516
72 1 17.7255 5.18952 1.71673 12 10.9685797633 1.7635738675 17.2764084477
73 1 21.2258 3.57353 42.3771 12 10.8904854548 1.7671505221 16.0243453954
74 1 23.0788 5.34259 0.0280971 12 10.9216086065 1.7656989872 14.6033791969
75 1 23.0626 3.51573 1.67433 12 10.9509864292 1.7619812705 17.0255797219
76 1 21.2919 5.25884 1.64971 12 11.082213325 1.7823802621 16.2248663018
77 1 24.7567 3.48434 42.3636 12 11.0048949601 1.7599800691 15.6646166914
78 1 26.5323 5.30274 42.3421 12 11.1447846327 1.7690881876 14.5196773503
79 1 26.5783 3.45504 1.63259 12 11.1741275457 1.769554648 17.0292462436
80 1 24.8105 5.2759 1.67706 12 11.3038974314 1.7741449475 15.8440285322
81 1 28.3106 3.52875 42.4068 12 10.9255166396 1.7588195039 16.0432883956
82 1 30.1023 5.29755 42.3072 12 10.8623126054 1.7587939476 15.3285172564
83 1 30.0966 3.48459 1.69754 12 10.9084533804 1.7595645908 17.7653493346
84 1 28.3469 5.28186 1.66848 12 11.2658018838 1.7758060212 16.2169548667
85 1 31.8614 3.64366 42.3533 12 10.9755777292 1.7595645908 17.05621324
86 1 33.5018 5.36526 -0.0029579 12 10.6944672422 1.7507301213 16.694893924
87 1 33.473 3.61213 1.69128 12 10.7589335192 1.7507819145 18.8967126855
88 1 31.7047 5.43425 1.78213 12 10.875002905 1.7499733775 17.2073993083
89 1 35.2987 3.54429 42.4182 12 10.896243439 1.7324407434 18.6686907722
90 1 37.0389 5.3812 42.3932 12 10.6205702671 1.7378517742 18.4445561513
91 1 37.2365 3.65069 1.53141 12 10.8767542119 1.7381912539 20.5341089442
92 1 35.3696 5.29671 1.68387 12 11.0711696107 1.7507819145 18.7361845717
93 1 38.9052 3.60271 -0.0139053 12 10.8385335349 1.7708635983 20.4841269528
94 1 40.6447 5.32655 0.0539386 12 10.8411034832 1.7514811173 20.5213598299
95 1 40.5957 3.56742 1.83048 12 10.7398493204 1.7519857117 22.5482381059
96 1 38.8527 5.42105 1.76074 12 10.8007117998 1.770346133 20.5818233522
97 1 -0.0155821 7.10919 -0.0328899 12 11.2017075685 1.7645381119 20.7593318607
98 1 1.70643 8.88021 0.0426729 12 10.9267973033 1.7540599112 21.2467071089
99 1 1.70728 7.01752 1.91844 12 11.2513319295 1.7758262191 23.1585479576
100 1 42.3015 8.85919 1.71533 12 11.1861818274 1.7797819632 21.1140624737
101 1 3.3951 7.12092 0.0751316 12 10.9685317949 1.7545770618 21.3387134759
102 1 5.2536 8.81414 0.115613 12 11.0426295401 1.7677584513 19.3473187831
103 1 5.2106 7.08529 1.8604 12 10.8476805319 1.7383708752 21.270962723
104 1 3.42694 8.87988 1.83092 12 10.8346000542 1.7511749883 21.5803469839
105 1 7.06748 7.01924 0.16341 12 10.9016633337 1.7647422801 19.1043683151
106 1 8.77022 8.92546 0.0735152 12 11.2037848751 1.7647422801 17.1662895094
107 1 8.92403 7.07508 1.80373 12 11.0829362243 1.7734000093 19.2294990573
108 1 7.07297 8.80537 1.82397 12 10.8131474187 1.7430930805 19.3544148363
109 1 10.6114 6.98223 0.0939152 12 11.0832778181 1.7647173911 17.2711745898
110 1 12.5151 8.8783 -0.0397563 12 10.905605343 1.7643621679 15.3280483577
111 1 12.3881 7.19167 1.74793 12 10.987923232 1.7747870726 17.5982191763
112 1 10.6128 8.86175 1.81289 12 11.220517687 1.7477865282 17.5726548025
113 1 14.2078 7.08035 0.0693843 12 10.919299934 1.7534942532 15.7801408767
114 1 16.0181 8.83631 0.0371796 12 11.2093558048 1.75253801 14.2309271892
115 1 15.9871 7.06664 1.71809 12 11.0717818102 1.7519162501 16.5706034341
116 1 14.1275 8.84496 1.65816 12 10.7468744368 1.7467991574 16.0604024459
117 1 17.7303 7.00344 42.4034 12 10.9677245788 1.743844611 14.8880501395
118 1 19.4039 8.86413 42.3453 12 11.1558923704 1.7516673737 13.2548942315
119 1 19.4103 7.04155 1.6521 12 11.1809340316 1.7823802621 15.6588314675
120 1 17.709 8.89983 1.80508 12 10.9741270146 1.7435275996 15.1619332681
121 1 21.2621 7.07563 -0.0381422 12 11.0614572274 1.7823802621 13.8664690036
122 1 22.9712 8.91765 -0.0305603 12 11.1168342753 1.7838393293 12.6166834581
123 1 22.9716 7.16358 1.77484 12 11.4414541613 1.7851311765 15.0200908132
124 1 21.0941 8.83849 1.70031 12 11.4771846795 1.7851311765 14.4225428552
125 1 24.7424 7.11216 42.3546 12 11.1758613623 1.7741449475 13.3439357561
126 1 26.5846 8.77006 42.3093 12 11.2001901818 1.7528912343 12.5768074327
127 1 26.6075 7.09583 1.60614 12 11.2126885215 1.7732035258 14.8960448503
128 1 24.8013 8.82127 1.72087 12 11.6079441233 1.7816415503 14.105863573
129 1 28.3557 7.01805 42.2874 12 11.096350473 1.748346335 13.7958335481
130 1 30.059 8.85653 42.3605 12 11.0965733394 1.7720852543 13.3684915666
131 1 30.0758 7.03975 1.73487 12 11.0695381341 1.77501218 15.782874474
132 1 28.355 8.84003 1.81544 12 11.0721198014 1.77501218 14.5844745203
133 1 31.7587 7.06728 42.3344 12 10.8539715196 1.7533550625 14.890992984
134 1 33.6486 8.85424 0.059491 12 10.6807399368 1.7537600994 14.9418052281
135 1 33.5783 7.10531 1.6936 12 10.7975851305 1.7507819145 16.9523086165
136 1 31.8993 8.82648 1.78083 12 11.1350332549 1.77501218 15.5275834181
137 1 35.29 7.08618 42.3996 12 10.4175108863 1.7456151576 16.5911298049
138 1 37.0709 8.87468 0.0330405 12 10.9296561381 1.7704114399 16.8011877067
139 1 37.0673 7.09994 1.68162 12 10.8248689043 1.7585130425 18.736689974
140 1 35.3273 8.89161 1.66456 12 10.6995536794 1.7460467801 16.9953279216
141 1 38.8991 7.01386 -0.00430915 12 10.9283058525 1.7612838025 18.6296152571
142 1 40.6139 8.81806 0.0339994 12 11.2488791305 1.7709285009 18.9153753837
143 1 40.6451 7.06843 1.74022 12 10.949320313 1.7645381119 20.7966808369
144 1 38.7927 8.85999 1.81045 12 11.2643755231 1.7708442541 19.0610705237
145 1 42.3335 10.6214 0.0215722 12 10.9772801594 1.7796663183 19.3476830586
146 1 1.71621 12.3111 0.097116 12 11.2073496195 1.7528385066 20.1353861156
147 1 1.6493 10.5831 1.79562 12 10.9170126789 1.7797819632 21.7126598818
148 1 42.3796 12.444 1.81836 12 10.953814557 1.7795845612 20.0768215283
149 1 3.44064 10.5601 0.116668 12 10.8446391295 1.7677599024 19.8921849638
150 1 5.24233 12.3439 0.149935 12 10.9813657895 1.775257327 18.0424617171
151 1 5.26146 10.5777 1.83706 12 10.6237189958 1.7657759568 19.7297272686
152 1 3.51655 12.4081 1.87236 12 11.0786110789 1.7528385066 20.3676529289
153 1 6.96757 10.6019 0.188102 12 11.0475126576 1.7806044222 17.527943847
154 1 8.88574 12.3899 -0.0209202 12 11.4261590302 1.7806044222 15.5599772863
155 1 8.90101 10.6051 1.7644 12 10.9306293387 1.7759971288 17.5551695309
156 1 7.02281 12.2607 1.8906 12 11.0075796827 1.7805235832 18.1198264029
157 1 10.7175 10.5579 0.0285193 12 11.2737116035 1.7735712044 15.3686917944
158 1 12.4747 12.4721 42.3888 12 10.9136884323 1.746965701 13.7336123856
159 1 12.4641 10.6794 1.80968 12 11.0159792147 1.7477865282 15.9938903297
160 1 10.6981 12.3857 1.68934 12 11.0871855389 1.7702109552 15.9742919467
161 1 14.1132 10.5966 0.0388651 12 11.1069799009 1.76997926 13.9273955231
162 1 15.9598 12.3331 42.3848 12 11.1582519159 1.7564321031 12.5118253434
163 1 15.9562 10.6848 1.76722 12 10.995061672 1.7564321031 14.7397896285
164 1 14.1767 12.4689 1.73603 12 10.979737106 1.7564321031 14.5854699705
165 1 17.7993 10.5751 0.0283534 12 10.9871114731 1.7506617698 12.8108287889
166 1 19.3761 12.476 42.3186 12 11.0189200758 1.7431033586 11.3689604283
167 1 19.4963 10.6479 1.84295 12 11.1578739781 1.7637165768 13.9271429914
168 1 17.6982 12.3906 1.75621 12 11.0561734787 1.7643106125 13.3620519899
169 1 21.194 10.7089 42.3757 12 11.4662339598 1.7623093923 11.9894108218
170 1 23.0848 12.4418 42.255 12 11.3142676546 1.7480654589 10.9473581131
171 1 23.0083 10.7206 1.65126 12 11.4279301878 1.7851311765 13.3941652758
172 1 21.2014 12.3553 1.73551 12 11.0586950799 1.7634194764 12.7249087649
173 1 24.8818 10.4534 42.4009 12 11.2364589566 1.7528767258 11.8551854081
174 1 26.63 12.2666 0.0270658 12 11.049020253 1.7652848197 11.4015039965
175 1 26.7309 10.5785 1.82641 12 11.157319468 1.7530675296 13.6986964643
176 1 24.7807 12.2889 1.721 12 11.288528611 1.757466689 12.7488035681
177 1 28.3813 10.516 0.0206692 12 10.8011165798 1.7652848197 12.2883975459
178 1 30.1569 12.385 -0.0248089 12 11.1762457516 1.7652848197 12.0785307491
179 1 30.0412 10.58 1.7103 12 11.0353630182 1.7749155932 14.164087219
180 1 28.3697 12.2511 1.75371 12 10.7503785455 1.7652478188 13.2830465727
181 1 31.8558 10.6422 -0.00791974 12 11.0792639967 1.7537600994 13.3074576365
182 1 33.5894 12.4454 42.3786 12 10.8772026302 1.7252250606 13.4512184366
183 1 33.614 10.7031 1.73231 12 10.8774753957 1.769673911 15.5161622696
184 1 31.8705 12.3311 1.84275 12 11.0828105833 1.7566333872 14.3779235089
185 1 35.2792 10.6411 42.3364 12 10.6501346874 1.744788786 14.9811351931
186 1 36.9599 12.4404 42.3236 12 11.0137981922 1.7729947885 15.2774313309
187 1 36.9838 10.5908 1.68044 12 11.1011049863 1.7447992691 17.2571716744
188 1 35.3684 12.4237 1.76776 12 10.9450674603 1.7371236228 15.805401556
189 1 38.7663 10.7714 42.3764 12 11.3761278497 1.7709285009 16.9997670794
190 1 40.5959 12.4254 0.0545035 12 10.5882667826 1.7676153905 17.6755253978
191 1 40.5395 10.745 1.79017 12 11.3710329302 1.7797819632 19.443619486
192 1 38.8171 12.3345 1.76199 12 10.9686916567 1.7761681601 17.826342866
193 1 42.3392 14.1207 0.0891776 12 10.9511669336 1.758916925 18.4395700257
194 1 1.65781 15.8799 0.136863 12 10.8737980872 1.7825098403 19.4976546493
195 1 1.69454 14.3164 1.85962 12 10.9623943171 1.7513523978 20.8947052041
196 1 42.3857 15.8405 1.87176 12 11.1800501496 1.7741294435 19.5359786607
197 1 3.4945 14.2334 0.0927541 12 11.0485478439 1.7528385066 18.8423914881
198 1 5.26796 15.9606 0.0283163 12 11.0244739209 1.7718815088 17.2256730085
199 1 5.29539 14.0932 1.74237 12 11.0927076869 1.7720172721 18.6695251191
200 1 3.45419 16.0344 1.7397 12 11.0680992618 1.7720172721 19.6960643316
201 1 6.9478 14.1466 0.0388485 12 11.4050038185 1.7865394362 16.334475717
202 1 8.82484 15.8988 0.126365 12 11.1350274909 1.7689674732 14.8858739162
203 1 8.78675 14.1598 1.78241 12 11.3102005597 1.7759335594 16.5304865995
204 1 6.99236 15.8411 1.87492 12 10.9049497561 1.7718439205 17.3866180438
205 1 10.5764 14.1593 0.0237487 12 10.9604594902 1.7687586834 14.1434720548
206 1 12.3583 15.9294 42.4207 12 11.360755995 1.7822926886 12.7232376528
207 1 12.4258 14.0921 1.81727 12 11.0603289101 1.7822852336 14.7715438933
208 1 10.6228 15.8999 1.8518 12 11.20835964 1.7822926886 15.1747245514
209 1 14.1845 14.1733 -0.0137036 12 11.0492085982 1.7527690506 12.4699086002
210 1 16.0089 15.8317 42.3676 12 11.0470082081 1.7527690506 10.9426780273
211 1 16.0128 14.1922 1.77327 12 10.9483309297 1.7564321031 13.0801323096
212 1 14.1844 15.8688 1.78267 12 11.2415495094 1.7822926886 13.3435881491
213 1 17.7445 14.0808 -0.0404402 12 10.9344457184 1.7764855678 11.0325211375
214 1 19.4274 15.8917 0.0122391 12 10.88446198 1.7379018742 9.930017507
215 1 19.6265 14.1024 1.7411 12 10.9347229996 1.7582457253 12.1746057216
216 1 17.8056 15.9262 1.72626 12 11.0803552083 1.7678015371 11.8483849423
217 1 21.2058 14.1139 42.3187 12 11.1190436994 1.741291453 10.2718234465
218 1 23.0848 15.8961 0.032632 12 11.0574677833 1.779041721 9.6153389999
219 1 23.0131 14.1478 1.78334 12 11.3169313422 1.757466689 11.8576655571
220 1 21.2732 15.8581 1.66538 12 11.064255773 1.760234984 11.2912252909
221 1 24.8115 14.1241 42.3871 12 11.1425310955 1.7574666889 10.3572020865
222 1 26.5737 15.9948 0.0324781 12 10.9216589724 1.7363465826 10.1027010191
223 1 26.5226 14.0489 1.73217 12 11.2143829509 1.7642225474 12.3159524002
224 1 24.7505 15.9074 1.73185 12 11.0543706398 1.7700822704 11.3981293652
225 1 28.3129 14.0878 0.0242407 12 11.1383283126 1.7647159106 11.1432587063
226 1 29.9858 15.8807 -0.00501362 12 11.32605724 1.7901461917 11.2256913089
227 1 30.0552 14.163 1.79088 12 10.9434849413 1.7640210623 13.2896013735
228 1 28.2516 15.8425 1.73106 12 11.0153980746 1.7890793059 12.1055373966
229 1 31.869 14.1453 0.102504 12 11.3099977362 1.7901289081 12.3391989361
230 1 33.5627 15.9693 42.3733 12 10.9102532941 1.7901461917 12.5647278195
231 1 33.6729 14.144 1.72207 12 11.0098409858 1.8104137735 14.4946473996
232 1 31.9166 15.8601 1.7983 12 10.8895000181 1.7901461917 13.5412821946
233 1 35.2652 14.1027 42.3449 12 10.853029899 1.7498212396 13.7968927862
234 1 37.0311 15.8336 0.0500804 12 11.1196491356 1.7506126642 14.7035210707
235 1 37.1572 14.1474 1.66739 12 11.2451867009 1.7554876839 16.2761165294
236 1 35.2816 15.8753 1.82147 12 11.1036664802 1.7571193831 15.0665837505
237 1 38.9634 14.1171 9.25689e-04 12 10.9564300424 1.7602424161 16.2337983705
238 1 40.5823 15.8955 0.0814138 12 11.0874735112 1.7737341518 17.009290156
239 1 40.5714 14.0212 1.81329 12 10.5433090863 1.7151402018 18.616892373
240 1 38.9678 15.8691 1.83784 12 11.0165996621 1.7565199615 17.3022010627
241 1 42.3602 17.6143 -0.0198146 12 11.4697422129 1.7825098403 18.0376154335
242 1 1.67756 19.4707 0.0556593 12 11.1862330119 1.7815627172 19.4096057825
243 1 1.77534 17.7913 1.81641 12 11.0623095525 1.7825098403 20.644475891
244 1 42.3692 19.3809 1.72758 12 11.0463802324 1.7741294435 19.2131997648
245 1 3.49841 17.7381 0.0616467 12 11.2294618652 1.7818325417 18.3439367214
246 1 5.42582 19.3921 0.058419 12 10.8722324613 1.725608253 16.7771329814
247 1 5.25916 17.6338 1.81326 12 10.7761467594 1.7720172721 18.3339460778
248 1 3.54503 19.3976 1.89119 12 10.8315955054 1.7562144331 19.392221114
249 1 7.08484 17.5444 42.4098 12 10.9389395802 1.7437968899 15.7545101867
250 1 8.64369 19.4218 42.405 12 10.9050715424 1.7583742485 14.4648148132
251 1 8.7025 17.6187 1.8353 12 11.1335151398 1.7627878816 16.0160434571
252 1 7.02906 19.3369 1.7441 12 10.6362081347 1.7629196863 16.8673040684
253 1 10.56 17.7121 0.0378201 12 11.4702285567 1.7740255319 13.4536110612
254 1 12.3389 19.4703 42.3191 12 11.1837768656 1.781805668 12.0703498607
255 1 12.3451 17.6804 1.79724 12 11.4179910419 1.7822926886 13.8716467727
256 1 10.5434 19.4492 1.72095 12 11.3343714848 1.7831824306 14.6281707526
257 1 14.2949 17.6438 42.4025 12 11.1544464385 1.781805668 11.3534653096
258 1 15.9697 19.4536 0.0442255 12 10.6330306789 1.7437275613 10.2677736734
259 1 15.8486 17.55 1.74971 12 11.0776738863 1.7678670455 12.1820983446
260 1 14.095 19.3083 1.66742 12 11.1848487162 1.7567425282 12.5691819401
261 1 17.701 17.7013 0.016906 12 10.8787585526 1.7678670455 9.8808510719
262 1 19.4746 19.3631 42.3896 12 11.0047180213 1.7595751389 9.1485407844
263 1 19.5396 17.661 1.69156 12 11.0588282835 1.7846902474 11.0654998189
264 1 17.6626 19.4511 1.71998 12 10.8914883416 1.7678670455 11.2678106364
265 1 21.2328 17.6268 -0.0239698 12 10.9825799581 1.7619758057 9.2261223017
266 1 22.924 19.3772 0.0704405 12 11.2050288991 1.7869165164 8.8757084648
267 1 23.0635 17.7208 1.74932 12 11.0893951124 1.7658797768 10.8620187799
268 1 21.235 19.4391 1.85517 12 11.1779780761 1.7619758057 10.6761932447
269 1 24.7841 17.6767 -0.00516623 12 10.9178464799 1.7867887695 9.3222160795
270 1 26.4863 19.454 42.3553 12 11.2780702706 1.7867999511 9.1994794799
271 1 26.4837 17.7093 1.75429 12 11.0438056474 1.7710053068 11.2225964938
272 1 24.7207 19.5549 1.81442 12 11.1839697762 1.7846396055 10.7879494474
273 1 28.2683 17.6405 0.0180898 12 11.0930327384 1.7556491633 10.052997944
274 1 29.9942 19.3708 42.395 12 10.9065237197 1.7678317381 10.3134119614
275 1 30.1727 17.5918 1.80701 12 11.080919458 1.7541242714 12.4096084352
276 1 28.2616 19.4411 1.74433 12 11.0608320093 1.7749908017 11.409732554
277 1 31.7884 17.7242 0.0176349 12 10.9015403877 1.7901461917 11.5237612798
278 1 33.5286 19.3838 0.0136545 12 11.2137909165 1.7725669781 12.171250767
279 1 33.579 17.6279 1.77507 12 10.8340044353 1.7725669781 13.9047284002
280 1 31.7409 19.3843 1.79629 12 10.7295455907 1.7725669781 12.7011072783
281 1 35.2687 17.5962 0.00311465 12 10.8419916057 1.7500510927 13.3875538107
282 1 37.0199 19.3453 42.3186 12 10.8841338156 1.754831363 14.2622573219
283 1 37.0822 17.6164 1.67006 12 11.0609955304 1.7582076205 15.8119319172
284 1 35.3265 19.3031 1.73978 12 11.0209568349 1.7712552689 14.6309398549
285 1 38.8098 17.7115 42.3653 12 10.9953960793 1.77370786 15.5538919657
286 1 40.564 19.4366 42.3727 12 10.9263552077 1.7737341518 16.6639073416
287 1 40.588 17.6586 1.82606 12 11.2217596132 1.7729960654 18.1510250068
288 1 38.7746 19.4793 1.68193 12 11.1156006747 1.7582076205 16.7620812361
289 1 42.3462 21.1151 -0.0344695 12 10.7567345087 1.7701276087 18.0639878045
290 1 1.69278 22.9041 42.3922 12 11.0549365016 1.7709828065 19.5498223241
291 1 1.68209 21.2517 1.7817 12 11.1498415055 1.7717964054 20.6001502269
292 1 42.3599 22.9327 1.64997 12 11.1360125812 1.7715321535 19.2831804664
293 1 3.44866 21.1177 0.029607 12 11.2265892862 1.7694384884 18.1937923734
294 1 5.31436 22.9808 -0.013937 12 11.0984499825 1.7707399191 16.8085387698
295 1 5.18656 21.1165 1.66685 12 10.9397749159 1.7562144331 17.9588333893
296 1 3.5112 22.902 1.76627 12 11.2321421058 1.7709828065 19.3195060899
297 1 7.00415 21.115 -0.00997746 12 10.6377472164 1.7390677487 15.4879970133
298 1 8.74752 23.056 -0.0349297 12 10.8230161853 1.732766977 14.4067658925
299 1 8.72794 21.1721 1.66869 12 10.9473291806 1.7629196863 15.6492161076
300 1 7.01318 22.955 1.79826 12 10.947483258 1.7530090571 16.8989346229
301 1 10.5513 21.133 -0.0144505 12 10.8619218207 1.7410910025 13.2252413396
302 1 12.3484 23.0205 0.098925 12 10.7440823274 1.7086960633 12.2880608536
303 1 12.3508 21.183 1.73059 12 11.113351973 1.7574184018 13.4303065118
304 1 10.5075 22.9932 1.7019 12 10.9477690081 1.7813852235 14.6826805494
305 1 14.1902 21.1379 0.00301061 12 10.921879946 1.7428899173 10.9599732832
306 1 15.8843 23.0491 42.3804 12 10.8151175039 1.762893139 10.2232769798
307 1 15.8383 21.2099 1.63347 12 10.6420595963 1.7536213517 11.6244090789
308 1 14.1721 22.9513 1.76107 12 10.740282955 1.7641467246 12.5902380879
309 1 17.6044 21.1832 -0.0149013 12 10.8112185526 1.7610563812 9.4793394522
310 1 19.4281 22.9429 42.4019 12 10.7936547019 1.7610563812 9.1805053468
311 1 19.4481 21.1207 1.72826 12 10.9343434607 1.7610563812 10.7790875148
312 1 17.5831 22.9204 1.62307 12 11.0282339112 1.7553564803 11.1942943383
313 1 21.1773 21.2557 0.0784358 12 11.179304524 1.7867762204 8.8418736635
314 1 22.9504 22.9475 -0.0301757 12 10.7702082378 1.7869165164 8.8847549792
315 1 22.9991 21.2533 1.85429 12 11.1310723832 1.7869165164 10.553247076
316 1 21.1311 23.0119 1.71686 12 10.6966580041 1.7537378087 10.6527778693
317 1 24.7443 21.2449 42.3121 12 11.3615630822 1.7869165164 8.8222940341
318 1 26.5666 22.9967 42.4092 12 11.277238175 1.7970348244 9.2678677643
319 1 26.5118 21.2468 1.6543 12 11.1835208593 1.7773888712 10.8988796872
320 1 24.7513 22.9356 1.74948 12 11.1338456944 1.7606220827 10.7422396956
321 1 28.271 21.1987 42.3888 12 11.2518425919 1.7773888712 9.582667651
322 1 30.0414 22.9642 0.0566768 12 11.4045410192 1.7814806621 10.4134831664
323 1 30.0528 21.0788 1.8078 12 10.8372275983 1.7773888712 11.8948044674
324 1 28.2815 23.0466 1.7213 12 11.207573234 1.7773888712 11.4111358048
325 1 31.7918 21.1394 0.126524 12 11.2505805376 1.7693236091 11.1421709888
326 1 33.5324 22.9353 0.0384578 12 11.0872806039 1.7690903816 12.1982809406
327 1 33.5968 21.1695 1.81976 12 11.0912077679 1.7725669781 13.5468954923
328 1 31.7666 22.9908 1.8016 12 11.119087657 1.7688514495 12.71082589
329 1 35.3255 21.2439 0.0469522 12 11.3362950519 1.7693236091 13.2857313371
330 1 37.1233 23.0937 42.3484 12 11.0025811194 1.75090427 14.3946293324
331 1 36.9598 21.1623 1.73568 12 11.1197349341 1.7422943883 15.6141669518
332 1 35.3013 23.0257 1.83006 12 10.7460120712 1.7688489291 14.6961555551
333 1 38.7556 21.1289 42.3667 12 10.8073728264 1.75090427 15.3867294562
334 1 40.6039 22.9478 42.4002 12 10.8724186409 1.7548584378 16.8593426241
335 1 40.5943 21.1312 1.62413 12 11.0185166975 1.7811300835 17.8907907887
336 1 38.8542 22.8386 1.7763 12 11.0711444229 1.7584227916 16.8994440319
337 1 42.3044 24.6589 0.00871287 12 11.0449103519 1.761541565 18.3622587779
338 1 1.73269 26.3978 0.0154369 12 11.0718411227 1.7770015787 20.0547055319
339 1 1.68622 24.7089 1.74823 12 11.3208649154 1.7671417583 20.8718051279
340 1 42.3558 26.5283 1.70226 12 11.3051337216 1.761541565 19.7998088436
341 1 3.55665 24.742 0.0265832 12 11.0701214027 1.7709828065 18.4395578983
342 1 5.37107 26.379 0.0389476 12 10.6706024282 1.7179332427 17.4655405643
343 1 5.31643 24.6555 1.68707 12 10.816097694 1.7657616642 18.2025956642
344 1 3.53042 26.4621 1.7785 12 11.015167373 1.7666647622 19.9341470314
345 1 7.0938 24.769 42.3064 12 10.4451136364 1.7308675843 15.7318183609
346 1 8.78113 26.5204 42.3354 12 10.7338360784 1.7436356139 15.0775003934
347 1 8.79474 24.7674 1.70273 12 10.6255903974 1.7308675843 16.0022236588
348 1 7.09192 26.3734 1.7535 12 10.6690556354 1.7280656701 17.4649873838
349 1 10.5462 24.6719 0.0426854 12 10.6641189473 1.7644035565 13.6370629857
350 1 12.2781 26.4109 42.414 12 11.0952375178 1.7687337649 12.9516872297
351 1 12.3569 24.6835 1.80212 12 10.8765193618 1.765930671 13.9244982157
352 1 10.5572 26.4192 1.71723 12 11.0302114861 1.7546682382 15.2862762222
353 1 14.1018 24.752 42.3802 12 10.7248407642 1.7658563471 11.5050217249
354 1 15.9363 26.4466 42.4219 12 10.9688609608 1.7424501098 11.1303748779
355 1 15.8812 24.7191 1.64944 12 10.8526400795 1.765930671 12.1144374581
356 1 14.1298 26.5448 1.62589 12 10.9625337768 1.765930671 13.4014348475
357 1 17.7954 24.6892 42.2507 12 10.8754258809 1.7483670915 9.7223111098
358 1 19.4136 26.4993 42.2531 12 11.1032760285 1.7830847754 9.7249442089
359 1 19.4272 24.7641 1.72638 12 11.0384060491 1.7527829137 11.0974312524
360 1 17.7251 26.4063 1.68689 12 10.9210397373 1.7532469924 11.8591023642
361 1 21.2107 24.5152 42.3287 12 10.9315326801 1.7830847754 9.0463509642
362 1 22.9399 26.5759 0.0192211 12 11.0394127489 1.7830847754 9.5500445319
363 1 22.9915 24.7679 1.62511 12 11.0265175523 1.7512230212 10.8197193672
364 1 21.123 26.5019 1.68111 12 11.0925938976 1.7829553647 11.2431867916
365 1 24.6736 24.6254 42.3828 12 11.0083183976 1.7858881282 9.1734474691
366 1 26.4008 26.5655 42.4297 12 10.9719178233 1.7858881282 10.0300239461
367 1 26.4516 24.7716 1.66205 12 10.8347938587 1.7858881282 11.1035819955
368 1 24.7075 26.4788 1.58945 12 10.7889003688 1.7762050172 11.1876396501
369 1 28.2771 24.8148 42.363 12 11.179560691 1.785295528 10.0275653846
370 1 30.0988 26.5292 42.4125 12 11.0268539308 1.7616137143 11.3210552513
371 1 30.0401 24.767 1.78224 12 11.1051111187 1.7505869049 12.3559203704
372 1 28.2333 26.5482 1.68622 12 10.7007874628 1.7505354792 12.067834916
373 1 31.8563 24.7272 -0.0350194 12 10.9987986405 1.7502813819 11.5471129408
374 1 33.5937 26.5707 0.00108112 12 10.9668199333 1.7410660068 12.8881574181
375 1 33.6028 24.8186 1.79495 12 10.9359981942 1.7680809396 13.9710393554
376 1 31.8172 26.5332 1.71521 12 11.1003486429 1.7623363019 13.5250302893
377 1 35.2841 24.633 0.0208666 12 11.1314202777 1.7769907087 13.4756581319
378 1 37.136 26.4135 42.3262 12 11.106795871 1.7746460484 14.8620366888
379 1 37.0629 24.6346 1.69719 12 10.8459098373 1.7579462448 15.8818057528
380 1 35.3885 26.4957 1.76809 12 11.1144896661 1.7610573573 15.2623670488
381 1 38.8673 24.6366 42.4061 12 11.026387754 1.7864134038 15.8637116597
382 1 40.5578 26.3972 -0.0209841 12 11.0703195334 1.7521894004 17.3170458952
383 1 40.5986 24.668 1.77528 12 10.9511485233 1.761541565 18.3371954343
384 1 38.782 26.3731 1.75028 12 11.0082610293 1.7576015972 17.3180659545
385 1 42.2794 28.1324 42.3712 12 11.07486343 1.7771349707 18.8720692435
386 1 1.76615 29.9445 -0.0125164 12 11.1855311586 1.7771349707 20.8277655292
387 1 1.75459 28.1861 1.80966 12 10.9141412929 1.7771349707 21.5103962976
388 1 42.3954 29.8064 1.67775 12 11.5407144536 1.7621130022 20.404016505
389 1 3.38296 28.1143 0.0139373 12 10.8413678481 1.7771349707 19.3198457487
390 1 5.24769 30.0131 42.4163 12 10.8191905302 1.7550998897 18.6534234545
391 1 5.34 28.1843 1.65399 12 11.2298751671 1.7882580946 19.0827304822
392 1 3.56852 29.9668 1.65973 12 11.1291424483 1.7547195813 20.8480739216
393 1 7.06558 28.2019 0.0152024 12 11.1253154908 1.7715246824 16.8237419707
394 1 8.85709 30.0889 42.3589 12 11.0517597091 1.7580815938 16.3215800447
395 1 8.78363 28.1943 1.76733 12 11.1024992295 1.7462645148 16.8814882349
396 1 7.07169 29.9481 1.70335 12 11.1806779826 1.7580815938 18.5561333664
397 1 10.4596 28.2782 42.3484 12 11.0788203216 1.7482015404 14.5660549254
398 1 12.2259 30.0027 42.2851 12 11.1748509764 1.7808488025 14.3280456853
399 1 12.3539 28.2458 1.6296 12 11.2541936358 1.7809611777 14.8427580316
400 1 10.3726 30.1863 1.64333 12 11.0505526578 1.7809611777 16.6513380811
401 1 14.0709 28.2626 42.2804 12 10.949176241 1.7441874951 12.6142802772
402 1 15.8673 29.9605 -0.0315366 12 10.8426535457 1.7361831998 12.6562111886
403 1 15.9027 28.2041 1.67728 12 10.7433572211 1.7587295301 13.1480236226
404 1 14.0721 29.9942 1.58279 12 10.9365402971 1.7697289184 14.7054399078
405 1 17.578 28.2 0.0317349 12 11.0093366181 1.8013140587 11.1489246999
406 1 19.4259 29.9874 42.3703 12 11.2505259734 1.7727583184 11.3608307015
407 1 19.3855 28.1658 1.78672 12 10.9332737395 1.7552241608 12.1503421976
408 1 17.6393 30.0176 1.66693 12 11.322999761 1.7853368638 13.3421069392
409 1 21.181 28.2419 42.34 12 11.022966301 1.7750412586 10.1194533315
410 1 23.0111 29.9635 42.4122 12 11.3256704039 1.7752129558 10.8374809664
411 1 22.916 28.2815 1.75112 12 11.1264656008 1.7765338588 11.7097264557
412 1 21.0136 29.9705 1.66845 12 11.0898759836 1.7752129558 12.4640382079
413 1 24.7686 28.3221 42.3229 12 11.0089700415 1.7765338588 10.1595624648
414 1 26.4955 30.2003 -0.0184095 12 11.0142784336 1.7484634837 11.5167917571
415 1 26.4901 28.2699 1.66384 12 10.852081446 1.7762328697 12.1571275352
416 1 24.7642 30.1019 1.76285 12 11.0893310041 1.7765338588 12.6015077865
417 1 28.2174 28.1969 0.0074735 12 11.2000286723 1.7623702176 11.2200027142
418 1 30.0959 30.0558 0.0207558 12 11.2379856428 1.7859467996 12.6066120312
419 1 30.0124 28.2607 1.65592 12 11.0946147754 1.7859474466 13.320821928
420 1 28.2642 30.1019 1.69439 12 10.9996242508 1.7850756277 13.4309020768
421 1 31.8286 28.3525 42.3952 12 10.7016656926 1.7623363019 12.592503635
422 1 33.5771 30.0118 42.2986 12 10.9071214938 1.7492286223 13.7693274738
423 1 33.5452 28.2499 1.81047 12 11.1370118104 1.7739512132 14.8466965311
424 1 31.8587 30.0741 1.65286 12 11.181552185 1.7859474466 14.6508696974
425 1 35.3726 28.2503 42.3649 12 10.9975709159 1.7747207317 14.1720297951
426 1 37.0208 30.0169 42.3663 12 11.1262409168 1.7811838368 15.6438702694
427 1 37.0622 28.273 1.69666 12 11.2354736827 1.7747207317 16.5427090362
428 1 35.2425 30.0422 1.67313 12 11.0950439098 1.7707731054 16.0314940605
429 1 38.9158 28.1752 42.2393 12 11.2015074984 1.7811838368 16.3002825052
430 1 40.5815 29.9683 42.3738 12 10.991822068 1.7811838368 18.0198860717
431 1 40.4419 28.1633 1.68216 12 11.0503029571 1.7621130022 18.6666359742
432 1 38.8219 29.9452 1.69474 12 10.84072959 1.7810986952 18.0179351405
433 1 42.3117 31.8449 42.4245 12 11.4448561356 1.7336272107 19.9105546944
434 1 1.79146 33.6594 -0.00450933 12 11.0402262391 1.7360448109 21.9478178074
435 1 1.66306 31.8656 1.71415 12 11.4415553362 1.7411740474 22.2702257753
436 1 -0.0723185 33.6827 1.69864 12 10.9814210901 1.7792892535 21.6565690589
437 1 3.53282 31.7252 0.0557368 12 10.9050964339 1.7404367882 20.5525594656
438 1 5.37871 33.5657 42.4404 12 10.9292752325 1.7678166868 20.1717338288
439 1 5.30633 31.8017 1.7443 12 10.9813162419 1.7669482905 20.4975367644
440 1 3.58131 33.5932 1.63988 12 11.0369551774 1.7404367882 22.3417677818
441 1 6.95479 31.7541 0.0191997 12 10.6940060763 1.7571885255 18.3529177713
442 1 8.70502 33.6185 42.438 12 10.5596504006 1.732712669 18.1358495588
443 1 8.68388 31.8688 1.75044 12 10.8221800483 1.7620486273 18.451500421
444 1 7.09392 33.5687 1.76077 12 10.4095372574 1.7414208553 20.2063807795
445 1 10.6365 31.8673 0.0130134 12 11.0559414277 1.7602455341 16.2153155719
446 1 12.4346 33.6843 -0.0151314 12 11.1775120659 1.7464785857 16.2166266713
447 1 12.3489 31.7828 1.66652 12 11.0937910568 1.7809611777 16.4601487779
448 1 10.5674 33.595 1.70243 12 10.8303766183 1.732909132 18.300870836
449 1 14.1336 31.7191 42.3674 12 11.0709216813 1.7523035719 14.2988245867
450 1 15.9389 33.6089 0.0225709 12 10.8562570565 1.7510251488 14.5857876457
451 1 15.8141 31.8199 1.69705 12 10.8811513935 1.741827208 14.9300045879
452 1 14.1259 33.658 1.68474 12 11.0244256181 1.7444762529 16.5546140043
453 1 17.5523 31.7834 42.3448 12 11.1030452621 1.7676955281 12.9066471966
454 1 19.4709 33.5605 42.3399 12 11.0069676233 1.760582359 13.4680672007
455 1 19.4184 31.916 1.67152 12 11.161993167 1.7596369195 13.7853194019
456 1 17.6332 33.4945 1.72107 12 10.9337727784 1.7514602939 15.241301958
457 1 21.2244 31.8172 42.3624 12 11.2017044322 1.7752129558 11.9984535841
458 1 23.0333 33.4959 -0.0405743 12 11.2925089324 1.7665684412 13.0435175171
459 1 22.8479 31.693 1.72163 12 11.242210336 1.7665660718 13.251060704
460 1 21.2058 33.6004 1.7595 12 10.9272262711 1.7508539161 14.5372725039
461 1 24.7797 31.8357 42.3207 12 11.2205870013 1.7662468119 12.0060080556
462 1 26.655 33.6156 0.0103131 12 11.0432704724 1.7543829272 13.5123711786
463 1 26.5056 31.8065 1.75058 12 10.8570148277 1.7538631381 13.8017423117
464 1 24.7597 33.5725 1.79975 12 11.3542649602 1.7775519407 14.5681341993
465 1 28.3718 31.861 42.4118 12 10.980238996 1.7298282917 12.8133489053
466 1 30.0794 33.6927 42.349 12 11.1256355737 1.7616000278 14.1752658474
467 1 30.0462 31.8224 1.71711 12 11.0313810859 1.7859474466 14.7402483884
468 1 28.2354 33.5722 1.80344 12 11.0082091506 1.755369276 15.1818977736
469 1 31.8233 31.894 -0.0181708 12 11.1973443184 1.7641445609 13.9323261568
470 1 33.5379 33.5932 42.3339 12 11.1492724571 1.7596681581 15.3324707188
471 1 33.522 31.8714 1.70342 12 11.0864801059 1.7593821642 16.0081930738
472 1 31.6889 33.6376 1.73786 12 11.0748217877 1.7596681581 16.1084802365
473 1 35.3021 31.7302 -0.0344599 12 10.7499135013 1.7497847051 15.3884941497
474 1 37.0021 33.5125 0.0584695 12 10.9950908534 1.7766674179 17.1848275234
475 1 36.9726 31.7468 1.76145 12 10.9378638193 1.754411835 17.5998013106
476 1 35.2043 33.598 1.69241 12 11.1130574205 1.775384847 17.4774930877
477 1 38.8942 31.7323 0.138214 12 10.9568922046 1.7808064219 17.5946561394
478 1 40.6399 33.6324 0.0341258 12 10.7200551844 1.7205546219 19.418156979
479 1 40.6329 31.7292 1.77256 12 10.983244477 1.7617097308 19.808561128
480 1 38.7889 33.4732 1.70582 12 10.9136202633 1.7399540977 19.3086041545
481 1 42.371 35.2989 -0.0180569 12 10.8198294491 1.7592357096 21.2478619978
482 1 1.728 37.1107 0.0105962 12 11.1265992115 1.759676972 23.3445917329
483 1 1.76393 35.3922 1.83896 12 10.8951569547 1.7588585988 23.6526859123
484 1 42.3991 37.0976 1.70046 12 10.9974361854 1.7616469689 23.119199854
485 1 3.54592 35.432 0.0325738 12 10.8546258508 1.7424275869 22.3053169995
486 1 5.2113 37.2053 0.015508 12 11.0073672831 1.7718669524 22.1121296274
487 1 5.33401 35.344 1.68905 12 10.7667418451 1.7453640097 22.0677284129
488 1 3.52006 37.1064 1.76924 12 10.823834967 1.7597093455 24.1233261971
489 1 7.08278 35.3671 0.0530713 12 10.8975503854 1.743947427 19.9989845971
490 1 8.81989 37.3038 -0.0313027 12 11.0549627002 1.7427121102 20.0827621643
491 1 8.81563 35.3898 1.67979 12 10.7859940473 1.7546544067 20.1056787924
492 1 6.99 37.1801 1.74941 12 11.29827597 1.7537924176 22.0768258536
493 1 10.5309 35.3163 0.056657 12 11.1156367804 1.741309761 18.1142734386
494 1 12.4269 37.1184 0.0357767 12 11.1821680068 1.7629276196 18.3158719412
495 1 12.3837 35.3328 1.81432 12 11.0410171421 1.7321445678 18.3769647672
496 1 10.4607 37.1845 1.68335 12 11.2361276347 1.779982188 20.302800437
497 1 14.1338 35.4068 42.2963 12 10.7977337888 1.7428768101 16.3320676586
498 1 15.9021 37.1106 42.3089 12 11.0135365271 1.7410223397 16.7761486545
499 1 15.8548 35.3652 1.61284 12 10.801651508 1.7232073115 16.8131759929
500 1 14.168 37.0154 1.72577 12 11.0013083413 1.7504418412 18.5529393063
501 1 17.6969 35.3273 -0.0162265 12 10.9180888456 1.761016903 15.1132089311
502 1 19.3523 37.1156 0.026294 12 11.1770191461 1.7626541703 15.9807675796
503 1 19.45 35.3552 1.72975 12 11.210551614 1.7609577176 15.9839921666
504 1 17.6025 37.0611 1.71138 12 11.2415233509 1.7532812338 17.5134305165
505 1 21.2178 35.3131 42.3974 12 11.0504858936 1.761016903 14.4073316929
506 1 22.9815 37.1356 42.3527 12 11.1625550679 1.7655099241 15.5135848742
507 1 22.9592 35.3375 1.70063 12 11.3285275559 1.7780542316 15.5767048081
508 1 21.1791 37.067 1.72442 12 11.3079868624 1.7654084172 16.8833185379
509 1 24.7471 35.3229 42.4201 12 11.3107176065 1.7786004591 14.4300748593
510 1 26.451 37.1216 42.3007 12 10.8814649897 1.7507074264 15.7649115644
511 1 26.5468 35.3604 1.709 12 11.0531836489 1.7786004591 15.9000153218
512 1 24.806 37.1624 1.68166 12 11.1488819983 1.7786004591 16.9254274452
513 1 28.2447 35.4159 42.4098 12 10.9747544841 1.7616000278 14.8743080323
514 1 30.0541 37.2117 42.3182 12 10.903007464 1.7616000278 16.2901875832
515 1 30.0523 35.4131 1.73674 12 11.1027560106 1.7612796233 16.5829888573
516 1 28.2452 37.1319 1.65283 12 11.0075951583 1.7543062756 17.2509107574
517 1 31.765 35.5297 -0.00411005 12 11.0445268442 1.7616000278 15.7678065538
518 1 33.544 37.225 -0.0153103 12 11.0202673145 1.7702924669 17.4485211094
519 1 33.5298 35.4072 1.70532 12 11.5351626941 1.7777701952 17.6135003512
520 1 31.7655 37.1474 1.79504 12 10.9667047873 1.7542225426 18.0689883949
521 1 35.3655 35.3959 42.3887 12 11.0430246013 1.7777701952 17.1753793026
522 1 37.0798 37.0815 0.0670508 12 10.8340183833 1.7786492696 19.0729126375
523 1 37.0795 35.3481 1.75987 12 11.0400306471 1.7777701952 19.2927877072
524 1 35.4329 37.2422 1.78425 12 11.0880839612 1.7777701952 19.4817808498
525 1 38.7986 35.2472 0.0190716 12 10.8264874454 1.7794040484 18.9790743366
526 1 40.655 37.1924 6.89691e-04 12 11.1549736559 1.7794040484 21.067366271
527 1 40.5856 35.3406 1.75552 12 10.9670258513 1.7582635322 21.2236672861
528 1 38.875 37.0991 1.81638 12 11.0100201963 1.7794040484 21.152984601
529 1 -0.00270021 38.8555 42.3643 12 11.2416195842 1.7597060959 23.0433923856
530 1 1.66766 40.7366 -0.015398 12 10.9511531102 1.7574464917 25.2244687562
531 1 1.75339 38.8842 1.69643 12 10.8882476182 1.7597093455 25.1605303828
532 1 0.0754469 40.755 1.73483 12 10.9640907032 1.7567494788 25.1750619044
533 1 3.53084 38.9745 -0.0265479 12 11.0299128747 1.7597093455 24.1595763903
534 1 5.24903 40.6701 42.413 12 10.7268351231 1.76216937 24.1553581452
535 1 5.26925 38.9643 1.76619 12 10.8614424081 1.7644321821 24.0639452869
536 1 3.44065 40.6529 1.71115 12 11.1677703982 1.7648271837 26.1037602809
537 1 7.02441 39.0112 42.3788 12 10.7873895829 1.7405227493 22.0785073826
538 1 8.76525 40.7016 42.422 12 10.6783866315 1.7464294192 22.338750618
539 1 8.84914 39.1083 1.74842 12 10.7772953329 1.7427121102 22.2871636357
540 1 6.9623 40.7465 1.69962 12 10.6525252264 1.7648271837 24.2164173989
541 1 10.5532 39.0817 0.0730689 12 10.9924347214 1.7642235884 20.4542879186
542 1 12.4955 40.7861 0.102156 12 11.0611505515 1.7667944598 20.6888601524
543 1 12.3973 38.8645 1.83992 12 11.2907494711 1.7642235884 20.5639764679
544 1 10.5301 40.7317 1.79132 12 10.8738933568 1.7767469965 22.5711524155
545 1 14.1193 38.8288 0.0685623 12 11.3285498077 1.7666262292 18.6996320794
546 1 15.866 40.7386 42.3233 12 11.2702374909 1.7546334407 19.3024824274
547 1 15.9709 38.9181 1.76983 12 11.3253742329 1.7580666084 19.2545355257
548 1 14.2111 40.7375 1.82032 12 11.31946835 1.7580666084 21.0773122063
549 1 17.5932 38.9357 0.012972 12 11.0349518709 1.7683724202 17.6670051103
550 1 19.3719 40.7407 -0.0227365 12 11.0244969686 1.7644884613 18.5459779686
551 1 19.3414 38.9565 1.75405 12 10.9942855545 1.7639990961 18.4520941832
552 1 17.6744 40.6111 1.70955 12 11.1123393248 1.7664085503 19.96324155
553 1 21.1154 38.8534 0.0449145 12 11.2166267615 1.7644884613 16.9616776189
554 1 22.9722 40.6205 42.3928 12 11.2584631614 1.7574550637 18.1145895412
555 1 23.038 38.882 1.69193 12 11.3732812126 1.7651414636 18.0105748201
556 1 21.1674 40.6527 1.77437 12 11.0206688542 1.7434480994 19.4377865118
557 1 24.8131 38.9132 42.3499 12 11.0214016315 1.7628613899 16.9033275679
558 1 26.5085 40.7431 42.3824 12 11.0016914478 1.760010358 18.4157954292
559 1 26.5614 38.8673 1.62657 12 10.9178833724 1.7642523704 18.2514822612
560 1 24.9067 40.6882 1.66927 12 11.1283705368 1.7642523704 19.4047845703
561 1 28.3552 38.8836 42.3554 12 10.8234468153 1.7501773115 17.2356091361
562 1 30.0801 40.5611 42.328 12 10.8563878788 1.7504234964 18.7327453258
563 1 29.9667 38.9145 1.71862 12 10.9282446757 1.7542552015 18.7359688925
564 1 28.3009 40.6363 1.64209 12 10.8637552865 1.7440205537 19.6772389865
565 1 31.8729 38.8722 42.3885 12 10.9242643646 1.7488836436 17.9505949879
566 1 33.5899 40.6502 -0.0421618 12 11.0822819602 1.7500099909 19.7961114626
567 1 33.5971 38.8855 1.73848 12 10.7620858098 1.7469443538 19.7070421338
568 1 31.7515 40.5703 1.71201 12 11.0806560572 1.7504234964 20.2718133229
569 1 35.3136 38.9452 0.0162494 12 11.0370154615 1.7702924669 19.3344171944
570 1 37.1519 40.6787 -0.0170605 12 10.9503008044 1.7400132107 21.339105196
571 1 37.1761 38.9591 1.73017 12 10.7043571103 1.7428751139 21.2798556304
572 1 35.3305 40.8182 1.66756 12 10.9447855324 1.7425341976 21.6000424976
573 1 38.8904 38.8078 42.4311 12 10.9778045042 1.779262506 20.9792102668
574 1 40.6053 40.6637 -0.0370215 12 11.0113266713 1.7574464917 23.0558409638
575 1 40.6141 39.0012 1.67187 12 11.1272684538 1.7617637856 23.0390892336
576 1 38.8561 40.7154 1.68479 12 10.8132305933 1.7587802426 23.1676191311
577 1 -0.0220432 0.121051 3.46413 12 11.089151767 1.7622249777 26.5176767852
578 1 1.66679 1.80268 3.40408 12 11.0076546439 1.7564014959 26.4742921353
579 1 1.70958 -0.00461103 5.1719 12 11.0423304359 1.7741835061 28.4525848311
580 1 42.3468 1.69827 5.26635 12 11.1079223272 1.7635447027 26.3724063994
581 1 3.5256 42.3606 3.52868 12 11.203177587 1.7737405045 27.1095903753
582 1 5.25641 1.72371 3.58897 12 11.3204722371 1.7756021541 25.1573808672
583 1 5.24706 42.3168 5.36403 12 11.3552094258 1.7741835061 26.4943939815
584 1 3.52977 1.76016 5.15016 12 11.4686798169 1.7852181673 26.4862023043
585 1 7.02531 0.0113879 3.45556 12 10.9712010948 1.7550077068 25.2917285839
586 1 8.75736 1.83801 3.5352 12 11.2809986565 1.7541024288 23.4552283499
587 1 8.88625 42.3817 5.2383 12 10.8331702015 1.7504126875 24.7354093086
588 1 6.98714 1.73893 5.36483 12 11.3842250144 1.7541024288 24.4745307879
589 1 10.5187 0.0164407 3.55751 12 11.1880965526 1.7921525777 24.020694911
590 1 12.4618 1.80572 3.53594 12 10.8589055435 1.7913381445 22.143710445
591 1 12.3586 -0.00820411 5.34122 12 10.9824481254 1.7921525777 23.3193795263
592 1 10.6845 1.68973 5.2848 12 10.9872251415 1.7675491997 22.8581830504
593 1 14.1517 0.0927927 3.48779 12 10.9348640922 1.7901695783 22.8416124588
594 1 15.7781 1.96883 3.5271 12 11.0027031016 1.7617827907 21.1878709686
595 1 15.9296 0.0767847 5.23046 12 11.4321296835 1.777175983 22.379977833
596 1 14.0648 1.77968 5.37262 12 10.9439844414 1.7621613659 21.602314781
597 1 17.7588 0.0446181 3.40525 12 11.5322794218 1.7715825878 21.7480112298
598 1 19.5171 1.82492 3.42794 12 11.046898653 1.7533320829 20.083489225
599 1 19.4682 0.122385 5.16132 12 11.2723755656 1.7774115217 21.8250004774
600 1 17.6113 1.79791 5.23467 12 11.227040106 1.7774115217 20.8071103749
601 1 21.2349 42.3521 3.52805 12 10.8228552686 1.7413336765 21.0578607429
602 1 22.9521 1.72335 3.38347 12 11.0541111168 1.7565189427 19.4901605129
603 1 22.9444 -0.0242347 5.2354 12 10.9360209296 1.7657970257 21.6653802515
604 1 21.276 1.66368 5.25181 12 10.8185717877 1.7542765508 20.5420795368
605 1 24.7916 0.00338171 3.55932 12 11.1697611841 1.7612741533 20.7009031234
606 1 26.5693 1.8414 3.42986 12 11.316766171 1.7696836663 19.4324552453
607 1 26.5073 0.0802939 5.18287 12 10.9160680584 1.7650925691 21.8229986061
608 1 24.7721 1.74544 5.29669 12 11.1893753594 1.7616941598 20.4489655639
609 1 28.3307 0.0591538 3.42225 12 10.7009817741 1.7639086014 20.858126018
610 1 29.9686 1.76891 3.4363 12 10.7468681709 1.7378157598 20.0738211318
611 1 30.0339 0.0443936 5.1297 12 11.3572983927 1.8069630458 22.4252670166
612 1 28.2682 1.80806 5.33421 12 11.1612069164 1.7802437466 20.6862920051
613 1 31.7453 0.0930508 3.30205 12 11.3885409736 1.7666237288 21.5887730338
614 1 33.5182 1.89882 3.33455 12 11.0404245381 1.7666237288 21.0979801629
615 1 33.5465 0.0265235 5.14606 12 11.2165861027 1.7666237288 23.3259362693
616 1 31.8199 1.79628 5.24889 12 11.4117069792 1.7581588571 21.5915460788
617 1 35.2846 0.0535451 3.431 12 11.0928437429 1.766285304 23.052690206
618 1 37.0456 1.87437 3.4572 12 11.3750186545 1.7856385186 22.6914961009
619 1 37.1231 42.3845 5.21744 12 11.6385008816 1.7856385186 24.6781986299
620 1 35.213 1.74405 5.32014 12 11.2580542184 1.7856385186 22.6933070696
621 1 38.8919 0.0710473 3.45227 12 11.055180376 1.7627100058 24.7223696632
622 1 40.4813 1.77178 3.46968 12 10.7213549196 1.734073307 24.536170322
623 1 40.5908 0.0731633 5.24887 12 11.0170323171 1.7635447027 26.2822085509
624 1 38.8418 1.80983 5.2713 12 11.0675596422 1.7853172595 24.3385364386
625 1 42.3536 3.41785 3.54722 12 11.0582044642 1.7563984118 24.7048079775
626 1 1.64717 5.30914 3.57352 12 11.369283756 1.7789782152 24.873778515
627 1 1.71428 3.45909 5.30373 12 11.1340730865 1.7665459319 26.4585133001
628 1 42.3358 5.10825 5.36906 12 11.2379589345 1.7666966846 24.5137968948
629 1 3.41142 3.65066 3.42481 12 11.2905955508 1.7756021541 25.0108381519
630 1 5.25631 5.34069 3.64682 12 10.8285949652 1.7716173861 23.2663635979
631 1 5.23174 3.59123 5.35984 12 11.254245334 1.7756021541 24.3890247264
632 1 3.4244 5.32308 5.38104 12 11.0808579513 1.7680455572 24.4197100583
633 1 6.94465 3.61096 3.61357 12 11.176025906 1.7779650328 23.2633837102
634 1 8.86909 5.27074 3.63601 12 11.20014576 1.7734513555 21.5082367294
635 1 8.79377 3.42776 5.30575 12 11.1247488755 1.7675401014 22.6682223854
636 1 7.16053 5.41402 5.37156 12 11.0536028929 1.7541875277 22.403089531
637 1 10.6153 3.46601 3.58248 12 11.0196134881 1.7675491997 21.7566323867
638 1 12.4538 5.29036 3.54619 12 11.0682147974 1.7747870726 19.9771919807
639 1 12.3889 3.58779 5.35177 12 10.8572778509 1.7675491997 21.0450063335
640 1 10.5981 5.25447 5.37714 12 11.2424508855 1.7668772447 20.8197926343
641 1 14.0959 3.59622 3.5462 12 10.656039032 1.7595252763 20.5216699021
642 1 15.9693 5.39669 3.48988 12 11.1103650541 1.7595626569 18.936036792
643 1 15.8952 3.59489 5.27785 12 11.0497976618 1.7621613659 19.954865355
644 1 14.0543 5.28284 5.30319 12 11.0421793322 1.7687375191 19.5060193197
645 1 17.6805 3.59994 3.52322 12 10.9728431937 1.7534219031 19.5777670316
646 1 19.5373 5.32856 3.52396 12 11.1336466942 1.7644525418 18.0731279568
647 1 19.4939 3.54185 5.25596 12 10.9552080007 1.7534219031 19.3591482052
648 1 17.8236 5.31588 5.19311 12 10.8819251588 1.7591464133 18.5231121752
649 1 21.2617 3.5164 3.41589 12 10.82455949 1.7515554361 18.6353332609
650 1 22.8831 5.22844 3.54181 12 11.2682631369 1.7710779097 17.5253697227
651 1 22.9791 3.48169 5.18043 12 11.1080504816 1.7543510883 19.384568181
652 1 21.2602 5.23642 5.31986 12 10.9537178594 1.7559883058 18.1556090204
653 1 24.7304 3.5049 3.40936 12 11.4245380508 1.7676846314 18.2903487021
654 1 26.5314 5.37282 3.46702 12 11.3505454062 1.7784059415 17.3578175168
655 1 26.4967 3.59377 5.26325 12 11.3177017525 1.7802437466 19.305761069
656 1 24.7448 5.24388 5.29262 12 11.2513315951 1.7766972094 18.171825138
657 1 28.4182 3.54108 3.38683 12 11.2944627415 1.7802437466 18.5974036196
658 1 30.1471 5.43576 3.56199 12 11.0247360922 1.7781400427 18.1124293262
659 1 30.0545 3.4987 5.21785 12 11.2634405132 1.7802426202 20.0156408547
660 1 28.2597 5.35518 5.29191 12 10.9756150714 1.7802437466 18.4179538739
661 1 31.7489 3.55406 3.47599 12 10.9577912505 1.7378157598 19.5678338916
662 1 33.6124 5.26811 3.49398 12 11.0855359839 1.7507819145 19.2643602061
663 1 33.5106 3.5314 5.27062 12 11.0016031775 1.7636971427 21.0441761066
664 1 31.8675 5.2727 5.32216 12 11.0825461978 1.7653134137 19.4312085279
665 1 35.2794 3.5247 3.47683 12 11.1270564567 1.7636971427 20.9146925095
666 1 37.0989 5.23102 3.51766 12 11.324179133 1.7703313135 20.9081250213
667 1 37.0307 3.6541 5.28289 12 11.0880332106 1.7849375388 22.4177011558
668 1 35.3049 5.27413 5.32321 12 11.0928778762 1.7633154161 20.7678300182
669 1 38.9084 3.50953 3.55582 12 10.8419335787 1.770346133 22.7917411935
670 1 40.6411 5.33229 3.583 12 11.1324505767 1.770346133 22.849309435
671 1 40.5558 3.50715 5.31393 12 10.9177367782 1.7596407468 24.3473382824
672 1 38.87 5.33728 5.29468 12 11.0197259379 1.770346133 22.5210442196
673 1 42.3291 7.08616 3.54835 12 11.3683360712 1.7666966846 23.0456714611
674 1 1.70276 8.87187 3.53746 12 10.9993987529 1.7788713708 23.5287149465
675 1 1.77355 7.20856 5.30707 12 11.2384957829 1.7666966846 24.565084304
676 1 0.0354528 8.90684 5.3278 12 10.8912773083 1.748205829 22.8859661407
677 1 3.49134 7.1856 3.63323 12 10.9185263871 1.7680455572 23.4084107352
678 1 5.31541 8.92002 3.51886 12 10.9188828225 1.7470502667 21.4937845151
679 1 5.26001 7.02318 5.28262 12 10.7801789522 1.7504567823 22.6131543664
680 1 3.61042 8.90427 5.33973 12 11.0356233571 1.758894421 22.6889007231
681 1 7.00171 7.11972 3.61759 12 11.0218577603 1.7734513555 21.4482057821
682 1 8.84703 8.81165 3.5286 12 10.856199203 1.7734513555 19.6917507109
683 1 8.84484 7.23493 5.36469 12 11.1246607189 1.7734513555 20.6436301267
684 1 7.0068 8.86932 5.31638 12 11.1058526145 1.7427341881 20.8310562368
685 1 10.6019 6.96988 3.57251 12 11.2157032701 1.7746098467 19.8194197569
686 1 12.4567 8.84825 3.49893 12 11.0381887677 1.7740985721 18.1410751902
687 1 12.3992 7.20552 5.28648 12 11.0711207302 1.7747870726 19.0934125454
688 1 10.6155 8.92342 5.21822 12 10.9372894164 1.7587254015 19.0669431467
689 1 14.2069 7.1159 3.48956 12 11.03945576 1.7747870726 18.3972684762
690 1 15.8399 8.97297 3.50245 12 11.1068371427 1.7590573162 17.0096164924
691 1 15.8535 7.08785 5.20467 12 11.1844684723 1.7591464133 18.008834194
692 1 14.1244 8.84841 5.26387 12 10.8535383783 1.7590573162 17.6503232527
693 1 17.7236 7.10884 3.40045 12 11.1618329024 1.7591464133 17.4220749505
694 1 19.4294 8.89034 3.59823 12 10.9926558549 1.7503518299 16.2988398467
695 1 19.4134 7.08557 5.29865 12 10.8107170513 1.756376437 17.2068612841
696 1 17.6415 8.81596 5.28463 12 11.3092509751 1.781827207 16.6492251685
697 1 21.193 7.11095 3.52315 12 11.4716596055 1.7823802621 16.8138712553
698 1 23.0324 8.83563 3.56463 12 11.3954336822 1.7851311765 15.8769923201
699 1 23.011 7.07826 5.30455 12 11.3537732641 1.7710779097 17.2028332676
700 1 21.2133 8.83342 5.36531 12 10.7952768666 1.7541924451 16.179583843
701 1 24.8174 6.96273 3.48625 12 11.4696041229 1.7800719723 16.5030244651
702 1 26.6129 8.77612 3.57301 12 11.2014533597 1.7813995162 15.9314544207
703 1 26.6044 6.98443 5.32389 12 10.6839570411 1.7702197353 17.233585237
704 1 24.8872 8.78041 5.27714 12 10.9644358036 1.7816415503 16.2884199681
705 1 28.288 7.08814 3.43892 12 10.8145167311 1.7784059415 16.7617349191
706 1 30.1127 8.75383 3.66774 12 11.1253086603 1.77501218 16.6169131044
707 1 30.0222 7.00472 5.31725 12 10.8647799393 1.7653134137 17.8969061735
708 1 28.3606 8.73377 5.32026 12 10.8494077928 1.7474706614 16.6402470804
709 1 31.9609 7.10407 3.52735 12 10.7801479689 1.7653134137 17.7628691026
710 1 33.6017 8.78319 3.50592 12 11.0438394518 1.7742442179 17.6419353756
711 1 33.581 7.05798 5.28029 12 11.0636256776 1.7742442179 19.2158307997
712 1 31.8404 8.79688 5.39149 12 10.9939189772 1.774211648 17.6140069341
713 1 35.324 7.07314 3.48993 12 11.2797747515 1.7638505085 19.1242642926
714 1 37.0062 8.77747 3.48632 12 10.9586461327 1.7627628912 19.3096837456
715 1 37.0926 7.0206 5.35926 12 11.2257580633 1.7638505085 20.7859213023
716 1 35.3855 8.84551 5.4045 12 11.2083932086 1.7742442179 19.1397372462
717 1 38.8349 7.09241 3.41775 12 11.0768938754 1.7682744907 20.9542808549
718 1 40.5866 8.81969 3.59746 12 11.1466821432 1.7613636092 21.4008076634
719 1 40.6269 7.14491 5.36472 12 11.2098424706 1.7639663063 22.5554205289
720 1 38.7333 8.78551 5.29522 12 10.9478183115 1.7347084153 20.8777290331
721 1 42.3789 10.5582 3.59101 12 11.1893356649 1.7797819632 21.9309372924
722 1 1.62602 12.4151 3.48907 12 11.2779221854 1.7788713708 22.3851321736
723 1 1.73765 10.5788 5.42086 12 11.1129581602 1.7788713708 23.2368006481
724 1 42.3408 12.348 5.32406 12 11.2665463854 1.7853065528 21.6807016218
725 1 3.52218 10.6759 3.53701 12 10.9924597513 1.7788713708 21.9846716003
726 1 5.27486 12.3336 3.60079 12 10.6647041779 1.7519738407 20.4346460732
727 1 5.3137 10.6759 5.37634 12 10.8276862504 1.7313119667 20.9907186808
728 1 3.49745 12.324 5.22669 12 10.9031588256 1.7606967633 21.7080525298
729 1 7.18455 10.5595 3.54668 12 10.8290898019 1.7239421406 19.833161469
730 1 8.98106 12.4287 3.51733 12 10.7232838359 1.7759971288 18.2812501953
731 1 8.93624 10.622 5.26196 12 10.8608902695 1.7388739999 19.185652932
732 1 7.14369 12.2179 5.23159 12 10.9517186603 1.7515804966 19.5930854063
733 1 10.5779 10.6902 3.50541 12 10.7889040106 1.742909774 18.1402174923
734 1 12.3982 12.4147 3.5437 12 10.9639409439 1.7419760407 16.8130181598
735 1 12.3921 10.6379 5.18429 12 11.073623848 1.7573954274 17.5669094262
736 1 10.6347 12.4343 5.2625 12 10.7073633752 1.7449306281 17.7033205892
737 1 14.2257 10.7213 3.46013 12 10.9918829557 1.7479962557 16.7243724992
738 1 16.023 12.4281 3.55269 12 10.9128096389 1.7583280159 15.3134420633
739 1 15.8861 10.625 5.25542 12 11.2042574678 1.781827207 16.3478583638
740 1 14.1651 12.4078 5.43993 12 11.1056145328 1.7573758595 16.0326736445
741 1 17.7604 10.6277 3.49117 12 11.0332273964 1.781827207 15.6667642372
742 1 19.6364 12.486 3.55224 12 11.0286847739 1.7643358628 14.4857989608
743 1 19.4758 10.6171 5.33576 12 11.0170825825 1.781407093 15.5655584185
744 1 17.7186 12.3839 5.2704 12 11.1490801605 1.7817207288 15.3156932519
745 1 21.3483 10.5123 3.59407 12 11.0989607126 1.7637165768 15.2400580128
746 1 23.0046 12.2916 3.48088 12 10.9367462655 1.7443588686 14.1792207566
747 1 23.0635 10.4572 5.33956 12 10.7558654648 1.7408734454 15.6096927795
748 1 21.2809 12.2043 5.33185 12 10.9702668555 1.7439226669 14.9561537007
749 1 24.7921 10.6775 3.54787 12 11.4452365848 1.7816415503 15.1212276814
750 1 26.7419 12.2724 3.52439 12 10.9846602142 1.7477010587 14.6286708407
751 1 26.6102 10.566 5.30202 12 11.1011420177 1.7456525464 15.6240879831
752 1 24.7466 12.3844 5.29836 12 10.9694343424 1.7432113204 14.9456935093
753 1 28.4046 10.5712 3.69776 12 10.7773345922 1.7474747548 15.6382699877
754 1 30.0581 12.3166 3.49406 12 11.0599911628 1.7562834482 15.2994329251
755 1 30.1554 10.6525 5.349 12 11.1511220006 1.7499808493 16.3289876266
756 1 28.3682 12.4376 5.31743 12 10.7111946154 1.7499808493 15.3310181012
757 1 31.8653 10.4616 3.48586 12 11.1632323878 1.769673911 16.3596294417
758 1 33.6357 12.3546 3.41741 12 11.1314641624 1.8104137735 16.4340971601
759 1 33.6223 10.6054 5.32985 12 11.3162540364 1.7742442179 17.6502519861
760 1 31.8632 12.3851 5.20976 12 11.3540579037 1.7550900334 16.414327765
761 1 35.3978 10.6299 3.57891 12 11.1755930103 1.769673911 17.8861473477
762 1 37.0991 12.4369 3.58471 12 11.2008704938 1.7761681601 18.1597120538
763 1 37.0688 10.5738 5.32425 12 10.691417005 1.7549433967 19.3071210604
764 1 35.3617 12.3891 5.36529 12 10.9936058457 1.7560779776 17.7683053218
765 1 38.7798 10.5293 3.58554 12 11.1384059949 1.7761681601 19.6992257356
766 1 40.6397 12.4412 3.58265 12 10.8929998263 1.7761681601 20.2795177974
767 1 40.5296 10.5898 5.24369 12 11.0635283863 1.7703613398 21.1686738305
768 1 38.8636 12.2939 5.33351 12 10.8430862553 1.7757443161 19.6070310949
769 1 42.3101 14.211 3.64312 12 10.8200418406 1.7850199293 21.054223574
770 1 1.7183 15.962 3.62536 12 11.1464836711 1.7526015325 22.0064152747
771 1 1.63782 14.1436 5.30866 12 11.1879378837 1.7853065528 22.4586675268
772 1 42.3796 15.9201 5.362 12 11.192188208 1.7851467411 20.8754861374
773 1 3.45882 14.1165 3.57429 12 11.3290162283 1.7543057177 21.2171365663
774 1 5.21054 15.9157 3.57752 12 11.3425470842 1.7720172721 19.8120910507
775 1 5.28911 14.0478 5.24195 12 11.2293828056 1.7735790696 20.1756136722
776 1 3.40055 16.0318 5.3651 12 11.3460719336 1.7490929421 20.9857818671
777 1 7.07343 13.9991 3.5501 12 10.9189151176 1.7530874873 18.9436102355
778 1 8.76568 15.9719 3.57773 12 11.0198241982 1.7299870046 17.5853320598
779 1 8.83448 14.0971 5.20383 12 10.8181388032 1.7505188291 18.1293580003
780 1 6.99091 15.8067 5.28633 12 10.9684274789 1.7584293401 18.7089519986
781 1 10.6693 14.1929 3.59548 12 10.8721602768 1.7640851634 17.0221684014
782 1 12.35 15.8656 3.6295 12 10.8940445282 1.7815625699 15.7883173694
783 1 12.4219 14.1847 5.32972 12 11.0081418649 1.7657132946 16.3199973828
784 1 10.5799 15.9239 5.34607 12 10.9091279905 1.7631443637 16.6629933505
785 1 14.2568 14.1755 3.54902 12 11.0389415204 1.756483551 15.2888337546
786 1 15.8901 15.8848 3.53127 12 10.7396031061 1.7556861943 14.1080232418
787 1 15.8681 14.1308 5.33478 12 11.0970761281 1.7801740053 15.1384881001
788 1 14.152 15.9699 5.35276 12 10.9021453172 1.7632808774 15.2613562464
789 1 17.6721 14.1399 3.45796 12 11.1586307996 1.7643358628 14.0537347853
790 1 19.5342 15.8332 3.49853 12 11.4003782367 1.7846902474 13.2174562343
791 1 19.523 14.1028 5.27724 12 11.0128860112 1.760096482 14.6632546092
792 1 17.6859 15.875 5.33368 12 10.9624257247 1.7585817131 14.4424764924
793 1 21.3307 14.0284 3.57292 12 10.6431487174 1.7435652113 13.6528268367
794 1 22.9507 15.7892 3.61189 12 11.2222541332 1.7700822704 13.1000892484
795 1 22.9871 14.1323 5.2607 12 10.8693565203 1.7443588686 14.4548630512
796 1 21.2897 15.8774 5.35666 12 10.9476857171 1.8002347505 14.0868768848
797 1 24.8346 14.0155 3.50043 12 11.2555341238 1.7692433644 13.6455042819
798 1 26.4843 15.8422 3.48903 12 11.2836466961 1.7890793059 13.3483200659
799 1 26.4484 14.0736 5.263 12 10.8841161501 1.75370443 14.7303865856
800 1 24.7167 15.9801 5.33765 12 11.2836616328 1.7696424997 14.1322557114
801 1 28.3246 14.1293 3.54662 12 11.0966471808 1.7890793059 14.3321317778
802 1 30.077 15.8705 3.46201 12 10.9606619429 1.7889482422 14.2510860536
803 1 30.052 14.1518 5.39078 12 10.8215698626 1.7499744193 15.1960037946
804 1 28.213 15.8739 5.30763 12 11.0815397091 1.7890725481 14.5839201784
805 1 31.7374 14.2267 3.56567 12 11.1006742077 1.8104137735 15.4422667452
806 1 33.5531 15.9871 3.67586 12 10.8988325667 1.8101415128 15.8449589552
807 1 33.5634 14.1004 5.35814 12 11.0652195251 1.8097877435 16.4516734716
808 1 31.8434 15.8694 5.31832 12 10.7932119245 1.736981415 15.4711704982
809 1 35.354 14.1609 3.62466 12 11.1346414175 1.8104137735 16.9035389421
810 1 37.1254 15.9364 3.52164 12 11.2067518249 1.7571193831 17.4775714577
811 1 37.0953 14.1622 5.34497 12 10.8619857355 1.7560779776 18.0467001686
812 1 35.3425 15.8637 5.33059 12 11.0255019385 1.7571193831 16.7827620451
813 1 38.9047 14.0976 3.5415 12 10.9850774234 1.774729412 18.7936065687
814 1 40.5687 15.8774 3.631 12 10.9474951043 1.7501551224 19.6898265929
815 1 40.519 14.1993 5.38229 12 10.9649004088 1.7853065528 19.9865924756
816 1 38.8045 16.0088 5.37682 12 10.9051520579 1.735882329 18.5310013008
817 1 42.3638 17.736 3.55946 12 11.1581677424 1.7734678772 20.609002647
818 1 1.78062 19.3863 3.61051 12 10.756435428 1.7350626684 21.8471932194
819 1 1.68372 17.7621 5.32479 12 10.9648535325 1.7587110153 21.9307345304
820 1 0.0110389 19.5232 5.32138 12 10.8577903843 1.7565604383 20.6170868616
821 1 3.52527 17.7817 3.6479 12 10.7493493368 1.7526015325 20.8145754133
822 1 5.3448 19.4119 3.49934 12 10.8970718216 1.7380138315 19.2777706625
823 1 5.28837 17.6899 5.39984 12 10.9864096209 1.7393807876 19.4618210951
824 1 3.56583 19.4944 5.31002 12 10.9646456329 1.7380138315 20.6277798682
825 1 6.97984 17.6181 3.59012 12 10.7929367352 1.7393807876 18.45575832
826 1 8.72271 19.4088 3.62153 12 11.4718267791 1.7831824306 17.2494318537
827 1 8.75812 17.603 5.37039 12 11.0753963698 1.7595371099 17.3255719454
828 1 7.0351 19.4203 5.41731 12 10.9072048574 1.7379190356 18.2216769748
829 1 10.6596 17.6327 3.53957 12 11.1977762935 1.7831824306 16.2231935693
830 1 12.2785 19.5621 3.49514 12 10.881939802 1.7831824306 15.0196626711
831 1 12.3375 17.752 5.21086 12 10.9290511186 1.7632808774 15.7219729698
832 1 10.6277 19.492 5.2886 12 11.3723161957 1.7829333927 16.3132970364
833 1 14.0676 17.6788 3.63037 12 10.9796043696 1.756483551 14.5847654147
834 1 15.9068 19.3663 3.49175 12 11.2398313846 1.7557103486 13.4640602427
835 1 15.8752 17.5883 5.20088 12 10.8918836539 1.7560853816 14.7086218577
836 1 14.118 19.4665 5.24422 12 10.9867241805 1.7560853816 14.9842340229
837 1 17.6105 17.5854 3.54746 12 11.1778756325 1.7833893561 13.2589458412
838 1 19.3092 19.3921 3.46076 12 11.1342958944 1.784682035 12.5898310417
839 1 19.392 17.6172 5.2565 12 11.2985871458 1.8009640254 13.9999959525
840 1 17.6193 19.481 5.28419 12 11.2474070241 1.7610138335 14.1339720405
841 1 21.2889 17.5733 3.49431 12 11.3823331687 1.8019908981 12.6345331159
842 1 23.0089 19.462 3.57862 12 11.041244354 1.7680304489 12.3403373558
843 1 23.0381 17.7656 5.34184 12 11.2325321081 1.8019908981 13.919200219
844 1 21.1856 19.5197 5.09019 12 11.2613674714 1.8019908981 13.8726966641
845 1 24.8147 17.6512 3.46076 12 11.3922037779 1.7700822704 12.7064630793
846 1 26.5123 19.5495 3.54603 12 11.1742567935 1.7710053068 12.7783070393
847 1 26.5509 17.7037 5.31581 12 11.0756067958 1.7591898185 14.0621600866
848 1 24.7668 19.4795 5.43092 12 11.0177567821 1.7617457778 13.7595903091
849 1 28.263 17.7064 3.50811 12 11.2234646036 1.7890793059 13.2887263965
850 1 29.9924 19.4164 3.50125 12 10.7238004525 1.7598238378 13.5929934745
851 1 29.9341 17.5975 5.26732 12 11.2588135554 1.759222211 14.808394915
852 1 28.2308 19.3581 5.30304 12 10.882411156 1.7653118581 14.2739343363
853 1 31.8814 17.6482 3.55141 12 10.8049018919 1.738907511 14.6441334021
854 1 33.5958 19.4408 3.55905 12 10.9385433949 1.7725512704 15.1166165943
855 1 33.6044 17.7325 5.26219 12 10.7569069769 1.75202176 15.8344994498
856 1 31.7476 19.3901 5.23749 12 11.1621400028 1.7602139322 15.1788074454
857 1 35.4162 17.6946 3.53488 12 10.9545162447 1.7571193831 16.325266943
858 1 37.1035 19.4285 3.54316 12 11.2002059471 1.7573836108 17.1320937521
859 1 37.1729 17.7032 5.29187 12 11.0126987103 1.7531859795 17.4356517683
860 1 35.3012 19.4897 5.2503 12 10.9873623303 1.7570118375 16.4549860299
861 1 38.833 17.6958 3.53337 12 11.0923136337 1.7572022641 18.3460626918
862 1 40.6404 19.4931 3.4287 12 11.0365734106 1.7811300835 19.2936115577
863 1 40.6181 17.7734 5.26445 12 11.2050445795 1.7587110153 19.5167638204
864 1 38.9539 19.6408 5.27867 12 10.9588801832 1.7482832914 18.3847324976
865 1 0.0657233 21.1833 3.55154 12 11.3276156438 1.7811300835 20.6092348206
866 1 1.74065 22.9224 3.58095 12 11.065364258 1.7707165762 21.8422265908
867 1 1.67644 21.1737 5.35143 12 10.5866465874 1.7278233735 21.6767317263
868 1 42.4008 22.9757 5.34618 12 11.0766339361 1.7672747939 20.5668195763
869 1 3.50781 21.2099 3.57733 12 10.9580028594 1.7559006702 20.496589298
870 1 5.24703 22.8566 3.56069 12 11.0349495176 1.7527928442 19.3674799427
871 1 5.37382 21.1565 5.2617 12 10.9304398439 1.7380138315 19.4413950275
872 1 3.52891 22.8217 5.41369 12 10.8716869967 1.7395512138 20.5180194462
873 1 7.08596 21.1763 3.41589 12 11.0838264196 1.7324354706 18.0302416834
874 1 8.78286 22.9563 3.42272 12 10.8282153305 1.7807161125 17.0968730729
875 1 8.81893 21.2664 5.33733 12 11.2473638786 1.7372653192 17.3158591193
876 1 6.99047 22.9586 5.29707 12 11.0150797895 1.7665996402 18.313955737
877 1 10.466 21.1959 3.45531 12 11.1062762237 1.7829605943 15.9430863476
878 1 12.3656 22.9444 3.48504 12 11.0039721264 1.7814558095 14.9757914816
879 1 12.4166 21.2038 5.2691 12 10.9056944017 1.7304362825 15.6343999947
880 1 10.5706 22.8181 5.26177 12 11.1952632158 1.7814558095 16.4193757789
881 1 14.0998 21.1513 3.43552 12 10.9254356053 1.7552509752 13.9843355793
882 1 15.8523 22.9022 3.44396 12 10.850711526 1.7704521415 13.4185252241
883 1 15.7907 21.2122 5.24432 12 11.0998109591 1.7704521415 14.5630495775
884 1 13.9957 22.9131 5.28542 12 11.0377805896 1.7704521415 15.0968884885
885 1 17.6055 21.1551 3.38548 12 11.0633998297 1.7552509752 12.7773268695
886 1 19.4076 23.0123 3.45631 12 11.0306801435 1.7553564803 12.614017516
887 1 19.3586 21.2396 5.21323 12 10.919462277 1.749569855 14.0452921305
888 1 17.5975 22.8877 5.24071 12 11.0824032716 1.768187711 14.277420219
889 1 21.0755 21.3116 3.50788 12 10.9254932083 1.7409980318 12.2579845651
890 1 22.8339 23.0184 3.46191 12 10.9758656439 1.7512230212 12.3371984426
891 1 23.0356 21.2365 5.25113 12 11.0195426617 1.7628495132 13.9167318902
892 1 21.221 23.0267 5.30206 12 10.6800497118 1.7329102362 14.0556855668
893 1 24.73 21.2754 3.56972 12 10.8964388894 1.7608235479 12.4660899372
894 1 26.564 22.9978 3.48318 12 11.1411524191 1.7606220827 12.704818099
895 1 26.5528 21.2412 5.28079 12 11.1424796518 1.7641630267 14.1115857969
896 1 24.8013 23.0511 5.15624 12 11.1362251829 1.7641630267 14.1356360838
897 1 28.3555 21.1194 3.49226 12 10.9806726681 1.7773712455 13.0671260392
898 1 30.0621 22.9809 3.47201 12 11.190904983 1.7556611011 13.5860708402
899 1 30.0071 21.1937 5.24614 12 11.1544253229 1.7602139322 14.6599008035
900 1 28.3182 23.0278 5.20246 12 11.2317157474 1.7648019927 14.4914337517
901 1 31.8311 21.1772 3.46012 12 11.0875940398 1.7559230275 14.1029760631
902 1 33.5841 23.033 3.57287 12 11.2824724086 1.7688514495 15.1285922522
903 1 33.5091 21.2162 5.32572 12 11.3851550842 1.7562014385 15.7365337199
904 1 31.7365 23.0457 5.30313 12 11.3762386151 1.7759759156 15.1575848206
905 1 35.3494 21.2798 3.48934 12 10.98786514 1.7573836108 15.9231738617
906 1 37.1487 22.8673 3.51611 12 10.7232304562 1.7512773781 17.1479234791
907 1 37.1 21.2696 5.32591 12 10.9303792618 1.7460854435 17.3751583023
908 1 35.3739 23.0674 5.24733 12 11.0065496728 1.7595192401 16.5585031396
909 1 38.9231 21.1892 3.4704 12 10.8817573135 1.7796256451 18.1763760719
910 1 40.6567 23.0477 3.49126 12 11.5530316452 1.7811300835 19.3850749084
911 1 40.5995 21.2211 5.30377 12 11.1379528204 1.7808903964 19.3885178257
912 1 38.7897 22.9713 5.26979 12 10.9705412704 1.7529735169 18.3558975991
913 1 -0.00601833 24.7885 3.52559 12 11.2363691123 1.7707165762 20.8578279038
914 1 1.78658 26.4486 3.51113 12 11.2214355624 1.7648100384 22.3116599544
915 1 1.69712 24.5661 5.27278 12 11.050805975 1.7560556698 21.9166157474
916 1 42.3128 26.4264 5.26431 12 11.1281007945 1.7560556698 20.9247356885
917 1 3.49841 24.6812 3.55559 12 11.2364298071 1.7671417583 20.7733720391
918 1 5.34651 26.3548 3.46111 12 11.3084580566 1.7882580946 19.8233379269
919 1 5.16152 24.7099 5.29446 12 11.019696877 1.7676040274 19.550007172
920 1 3.5225 26.4532 5.30349 12 11.2768772184 1.7660302044 20.8771268731
921 1 7.00108 24.6173 3.51639 12 10.8399988345 1.7676040274 18.4691868968
922 1 8.77669 26.3861 3.53014 12 11.0111307649 1.7534804561 17.7295472293
923 1 8.74806 24.5592 5.22564 12 11.178136386 1.776557098 17.4252113738
924 1 6.9806 26.5144 5.36273 12 11.0961379921 1.7676040274 18.5887234163
925 1 10.5596 24.7543 3.4667 12 11.0636782481 1.7814558095 16.2847893791
926 1 12.4403 26.4154 3.46909 12 11.3510201422 1.7695514015 15.702671955
927 1 12.288 24.581 5.26225 12 11.1676867629 1.776557098 15.7734442589
928 1 10.484 26.4964 5.24569 12 11.4795656959 1.7809313642 16.8234939905
929 1 14.2118 24.6134 3.50339 12 10.9693974327 1.765930671 14.405201174
930 1 15.9139 26.418 3.3834 12 11.1378539182 1.759310124 14.0344836082
931 1 15.9209 24.7453 5.23878 12 11.2138442739 1.7704521415 14.8296689912
932 1 14.0822 26.3365 5.26928 12 11.2656950953 1.7724173388 15.4679062487
933 1 17.6026 24.6069 3.43889 12 10.9912451633 1.7585142142 13.1582802673
934 1 19.4841 26.4351 3.50117 12 10.8376191859 1.7523658404 13.1462338218
935 1 19.4336 24.6975 5.20872 12 11.0697043761 1.7593359971 14.3998994166
936 1 17.7274 26.424 5.18942 12 11.2356771518 1.7978953878 14.8852249278
937 1 21.2564 24.7273 3.51029 12 10.7066954748 1.7502554655 12.6601892864
938 1 22.918 26.4276 3.4363 12 11.0373338693 1.7435341585 12.8654650751
939 1 23.0267 24.7149 5.19063 12 10.8895167936 1.7572703927 14.253694994
940 1 21.228 26.5175 5.22462 12 11.0035769956 1.7565665701 14.5845766545
941 1 24.8482 24.825 3.43183 12 11.1834726994 1.7524828126 12.6483954237
942 1 26.4858 26.55 3.42605 12 11.1395657652 1.7757502251 13.2289728572
943 1 26.5231 24.7885 5.30256 12 11.1944144686 1.7746314953 14.2999782763
944 1 24.705 26.5791 5.29938 12 11.2151836324 1.7757502251 14.4569529256
945 1 28.1977 24.8578 3.41491 12 11.0852057863 1.7648019927 13.2219718799
946 1 29.8766 26.6413 3.50373 12 11.1279137419 1.749294498 14.2927204506
947 1 30.0467 24.856 5.21037 12 11.1285111593 1.7661443561 14.9964024996
948 1 28.2461 26.6133 5.32681 12 11.1044932595 1.7757502251 14.7339644908
949 1 31.8063 24.8847 3.45802 12 11.2745583197 1.7713273899 14.5616396454
950 1 33.7002 26.4873 3.57425 12 11.083426376 1.7742295718 15.9131350533
951 1 33.6648 24.8749 5.33845 12 10.9183104058 1.7713273899 15.8563349606
952 1 31.7578 26.5734 5.25437 12 11.3161420712 1.7763392429 15.6062858783
953 1 35.3531 24.7518 3.50243 12 10.9031139845 1.7391474711 16.3012583166
954 1 37.1688 26.6396 3.48086 12 11.0829247229 1.7391474711 17.6655184279
955 1 37.1502 24.7832 5.29496 12 11.027743388 1.7313902759 17.4796309784
956 1 35.3845 26.5246 5.32008 12 11.2288886857 1.762000399 16.8384053313
957 1 38.7149 24.7154 3.46821 12 11.0068434404 1.7584227916 18.2941503041
958 1 40.6006 26.4475 3.49851 12 11.2898797669 1.7542168408 19.821472933
959 1 40.4869 24.7197 5.36204 12 11.1807245542 1.7557617008 19.4168542842
960 1 38.8081 26.5242 5.33756 12 10.9256586405 1.7325639728 18.6221737726
961 1 0.00715151 28.2655 3.64511 12 11.3260951335 1.7542168408 21.452787679
962 1 1.81931 30.0189 3.44696 12 10.8611064129 1.7539241991 22.9539036452
963 1 1.69182 28.3245 5.28963 12 11.1275623991 1.7680260942 22.4762569422
964 1 42.398 30.0722 5.19167 12 11.1532023415 1.7899857207 21.8995175075
965 1 3.43525 28.3058 3.50111 12 11.082998178 1.7882580946 21.6581504437
966 1 5.31878 29.9227 3.48076 12 11.4497484131 1.7882580946 20.8684881059
967 1 5.15219 28.2425 5.25069 12 11.2565255582 1.7879148472 20.193051129
968 1 3.39389 30.0985 5.17185 12 11.0566064822 1.7534611067 21.9407708187
969 1 7.11254 28.1528 3.53891 12 10.9668674686 1.7843405493 19.1870313314
970 1 8.86297 30.0232 3.48787 12 11.2653452975 1.7620486273 18.7447516159
971 1 8.75751 28.3286 5.16034 12 10.9994721016 1.7811356102 18.1873885464
972 1 7.02394 29.9591 5.19892 12 11.1469628189 1.7537835611 19.6192997945
973 1 10.6716 28.2502 3.36815 12 11.429926383 1.7811356102 17.0639577341
974 1 12.3377 29.9642 3.45214 12 11.1816818395 1.7809611777 16.941016881
975 1 12.3297 28.2919 5.1459 12 11.2489737826 1.7808884669 16.6337056308
976 1 10.6811 30.0802 5.29941 12 11.2084083332 1.7811356102 17.7727089834
977 1 14.1077 28.2186 3.31396 12 11.0099971463 1.7724173388 15.3008915584
978 1 15.8663 29.9557 3.40741 12 11.0716084635 1.7848998676 15.3134126914
979 1 15.8564 28.1711 5.2151 12 11.3550049703 1.7984968009 15.5655602571
980 1 14.1582 29.8725 5.13643 12 11.2261674046 1.7721635416 16.6361977341
981 1 17.6197 28.202 3.47835 12 11.2132042289 1.7978536287 14.0850040207
982 1 19.4451 30.0148 3.45813 12 11.1846204513 1.7853368638 14.3686063897
983 1 19.4481 28.2153 5.21107 12 11.1713831122 1.7984968009 15.1603599886
984 1 17.631 30.0441 5.26827 12 11.1767475721 1.7984968009 15.8651141709
985 1 21.2133 28.2783 3.38266 12 10.8084490713 1.7658530074 13.3604307581
986 1 22.9716 30.0916 3.53974 12 10.9708166778 1.7658530074 14.053832293
987 1 22.884 28.2405 5.20036 12 10.985618871 1.7419512707 14.9143456343
988 1 21.0889 29.9492 5.26913 12 10.8795336764 1.7642491965 15.4782369605
989 1 24.6746 28.2469 3.42676 12 11.316282424 1.7765338588 13.4021432618
990 1 26.459 30.0732 3.46687 12 11.1063133496 1.7548766363 14.4237200995
991 1 26.4691 28.4332 5.36084 12 10.9184486986 1.7757502251 14.8985483729
992 1 24.6774 29.9665 5.24815 12 10.7390549948 1.7450848087 15.2881934862
993 1 28.1204 28.3537 3.44187 12 11.0264148651 1.7441803597 14.2309657592
994 1 29.9389 29.9937 3.58637 12 11.2111366505 1.7859474466 15.565900187
995 1 29.9293 28.3464 5.28142 12 11.0129473139 1.75937092 15.4485549294
996 1 28.1822 30.1339 5.34045 12 10.7937493706 1.753240617 15.580396277
997 1 31.7683 28.3311 3.47231 12 11.3011773731 1.7742295718 15.5897267515
998 1 33.5598 30.0265 3.52469 12 11.2485264343 1.7742295718 16.8889288612
999 1 33.4702 28.309 5.36768 12 11.3624174728 1.7742295718 16.4872252175
1000 1 31.7237 30.0364 5.25664 12 11.0331509879 1.7718424513 16.4943360305
1001 1 35.4075 28.3359 3.48205 12 11.1572081311 1.7720613689 17.1313981431
1002 1 37.1085 30.0499 3.5096 12 10.9003437037 1.7707731054 18.4568725943
1003 1 37.1354 28.3436 5.36546 12 11.0649566207 1.7552153137 18.0953917562
1004 1 35.3764 30.0326 5.27345 12 11.0988643324 1.7690270461 17.9080883675
1005 1 38.9506 28.2819 3.54291 12 10.8601761286 1.7540109192 19.10179912
1006 1 40.6265 29.9476 3.45062 12 11.0184997404 1.7834974627 20.4369055738
1007 1 40.547 28.167 5.33745 12 11.0945920665 1.7899857207 20.0477333646
1008 1 38.8385 30.0394 5.25034 12 11.114858232 1.7899857207 19.647766798
1009 1 0.0111974 31.6673 3.40659 12 11.3409627968 1.7792892535 22.0972177853
1010 1 1.82495 33.5911 3.43995 12 11.370183623 1.7794844847 24.0163909909
1011 1 1.58468 31.852 5.36433 12 10.9927436514 1.7794844847 23.4345620262
1012 1 42.2736 33.603 5.21581 12 11.4733252905 1.7794844847 23.1089702001
1013 1 3.42357 31.8109 3.52445 12 11.3286757668 1.7669482905 22.8510018393
1014 1 5.27778 33.6109 3.40881 12 11.0674159502 1.7573086415 22.3841316195
1015 1 5.26732 31.9433 5.24923 12 11.2006831994 1.7669482905 21.3724636246
1016 1 3.44491 33.48 5.25742 12 11.1729968833 1.7748066126 23.158964358
1017 1 6.94973 31.8072 3.50971 12 11.2472492089 1.7668741242 20.6019683785
1018 1 8.75571 33.5933 3.44959 12 10.9648673634 1.7603080585 20.4281983277
1019 1 8.92045 31.8595 5.25771 12 11.3745099984 1.7675312921 19.3515706322
1020 1 7.03416 33.676 5.25989 12 11.12526664 1.7544968922 21.1638545598
1021 1 10.6021 31.8365 3.36374 12 11.0357410648 1.7600938709 18.5664995758
1022 1 12.364 33.5133 3.43573 12 10.8843942906 1.7501592512 18.5843556081
1023 1 12.3867 31.8866 5.21896 12 11.1631501852 1.7608242078 17.9934019529
1024 1 10.6664 33.5713 5.14077 12 11.0630386231 1.7770011228 19.5395266922
1025 1 14.0951 31.7035 3.40576 12 11.2384686127 1.7615591604 16.8729855181
1026 1 15.8036 33.4916 3.44702 12 11.0024961175 1.729421678 17.1631644915
1027 1 15.933 31.6635 5.30729 12 11.0167102926 1.7615591604 16.7880249824
1028 1 14.1497 33.475 5.31032 12 11.0550545679 1.7596902732 18.1265638648
1029 1 17.5256 31.7663 3.50024 12 11.029530148 1.7853368638 15.7320382133
1030 1 19.3237 33.4642 3.45512 12 11.0194306925 1.7519705526 16.0917981206
1031 1 19.3586 31.705 5.29427 12 11.0860283073 1.7585673727 16.4366450209
1032 1 17.5441 33.5596 5.16556 12 11.2213928099 1.7496560207 17.6408375729
1033 1 21.1081 31.8159 3.46824 12 11.020208411 1.7658460345 14.9005684797
1034 1 22.8949 33.5483 3.44447 12 10.8397359775 1.7530996261 15.7284776989
1035 1 22.9625 31.7846 5.18734 12 10.814834492 1.7772479782 16.0172921886
1036 1 21.2077 33.5143 5.20883 12 11.0660815574 1.7587743851 16.972256884
1037 1 24.5945 31.821 3.4771 12 10.9665344958 1.7548766363 14.897460648
1038 1 26.5241 33.568 3.53086 12 11.1101247035 1.7696443043 16.2119392848
1039 1 26.5031 31.8002 5.30472 12 11.0144560504 1.7548766363 15.9071878078
1040 1 24.7045 33.6017 5.2668 12 11.1103571184 1.7551172301 16.5966677791
1041 1 28.301 31.8369 3.41294 12 10.9561398844 1.753240617 15.6528811195
1042 1 29.9416 33.6273 3.59197 12 10.8491901316 1.7344246895 17.1043109576
1043 1 30.06 31.7514 5.26782 12 11.0402635498 1.7545434117 16.6451654175
1044 1 28.1973 33.6197 5.26956 12 11.056318707 1.754879013 16.9501516403
1045 1 31.7536 31.8726 3.45307 12 11.2793216151 1.7724053353 16.8226884376
1046 1 33.4289 33.604 3.52259 12 11.1755819748 1.7589638556 18.1794349353
1047 1 33.5135 31.8262 5.23879 12 11.1713710717 1.7650039044 17.8549788078
1048 1 31.6383 33.5621 5.42469 12 11.1159806627 1.7575051479 17.7880834905
1049 1 35.2282 31.8682 3.55791 12 11.2269994958 1.7707731054 18.2188556236
1050 1 37.0355 33.5839 3.45722 12 11.1675859704 1.7584571181 19.6773163733
1051 1 37.0749 31.7855 5.20036 12 11.0938149996 1.7584036581 19.4602920336
1052 1 35.392 33.6582 5.29984 12 11.0488487146 1.7611282389 19.4543381222
1053 1 38.8078 31.6696 3.35727 12 10.7896719796 1.7355311654 19.778650283
1054 1 40.6612 33.4717 3.424 12 11.0950810252 1.7747910311 21.5959637437
1055 1 40.5398 31.7504 5.17136 12 11.1487024153 1.7889215601 21.338929906
1056 1 38.894 33.4291 5.16921 12 11.4754914961 1.7611282389 21.1578164094
1057 1 -0.0194978 35.3104 3.51825 12 10.998660253 1.7714608609 23.513257263
1058 1 1.63844 37.1392 3.48687 12 10.899976691 1.7585285089 25.3154967619
1059 1 1.92856 35.369 5.34507 12 11.1095635582 1.7794844847 24.9696218598
1060 1 0.00335278 36.9799 5.23598 12 11.056181375 1.7561144812 24.7206090548
1061 1 3.53756 35.4121 3.47567 12 11.1041242195 1.756502355 24.348533871
1062 1 5.23653 37.0989 3.49826 12 11.24510044 1.7564704265 24.1337407699
1063 1 5.35203 35.4004 5.2815 12 11.113274608 1.7471533767 22.9553647976
1064 1 3.4164 37.1782 5.27198 12 11.0062345857 1.7598353679 25.047878873
1065 1 7.04492 35.2907 3.47911 12 10.8070418539 1.7522388852 22.2131734213
1066 1 8.77489 37.0971 3.42763 12 11.1814201776 1.7791886062 22.2228362239
1067 1 8.86645 35.4286 5.18538 12 11.2296583221 1.7770011228 21.284922437
1068 1 7.12851 37.0771 5.23939 12 11.3708007805 1.7896118616 23.0241205783
1069 1 10.6288 35.2662 3.44658 12 11.0515589121 1.779982188 20.3301458682
1070 1 12.3725 37.1 3.47137 12 10.950230579 1.779982188 20.5129447419
1071 1 12.4063 35.3172 5.22163 12 11.3199269802 1.7770011228 19.7749026218
1072 1 10.6051 37.1209 5.23131 12 11.2437168539 1.779982188 21.5291616556
1073 1 14.2321 35.3336 3.60095 12 11.0432646089 1.729421678 18.8221607763
1074 1 15.8853 37.1 3.55889 12 11.0825338424 1.7516254839 19.2824872305
1075 1 15.8886 35.3344 5.33124 12 10.9232732724 1.7516254839 18.7727464857
1076 1 14.0239 37.1098 5.26979 12 10.9343214116 1.7890803341 20.3544297017
1077 1 17.5556 35.2628 3.40921 12 11.277166605 1.7490740526 17.586780269
1078 1 19.4844 37.2116 3.50828 12 11.2254011475 1.7532812338 18.499821507
1079 1 19.3823 35.3885 5.18568 12 11.2303931273 1.7549592353 18.3258307943
1080 1 17.6935 37.0539 5.19652 12 11.0621152769 1.7594524586 19.5695826612
1081 1 21.0967 35.2249 3.55243 12 11.1239839715 1.7461822687 16.9526719029
1082 1 23.0015 37.1621 3.43545 12 11.1990579224 1.7655099241 18.0941644625
1083 1 22.9781 35.4184 5.15025 12 10.9931219257 1.7530996261 17.6967495691
1084 1 21.2137 37.2062 5.19311 12 11.0043752169 1.7461822687 18.9304321148
1085 1 24.6923 35.3066 3.52727 12 11.1358338451 1.7786004591 16.983882468
1086 1 26.4778 37.1474 3.37859 12 11.2097999743 1.7691325942 18.3091761223
1087 1 26.4647 35.4 5.24486 12 11.2128862469 1.7696443043 17.5957240581
1088 1 24.7269 37.1926 5.23226 12 11.1238307113 1.7561166866 18.5519320068
1089 1 28.2886 35.4076 3.54453 12 11.0961373718 1.7691374355 17.6227038109
1090 1 30.0223 37.1065 3.57783 12 11.0369923089 1.7565140691 19.005313063
1091 1 30.0646 35.3044 5.28591 12 10.9501234142 1.7857988201 18.2122560716
1092 1 28.2133 37.1211 5.37607 12 11.1657613746 1.7561166866 18.7115837112
1093 1 31.6937 35.3171 3.54728 12 10.9687724079 1.7625669137 18.4102842692
1094 1 33.4817 37.2801 3.55078 12 11.3215960551 1.7625669137 20.0047518648
1095 1 33.5679 35.3268 5.30296 12 11.335569408 1.7768144766 19.4943765018
1096 1 31.8038 37.0037 5.26422 12 11.0400926597 1.7565140691 19.7063903201
1097 1 35.1947 35.3325 3.49429 12 11.3694530122 1.7777196317 19.6340087228
1098 1 37.1036 37.2329 3.43975 12 11.0711833464 1.7736258001 21.4166647729
1099 1 37.0851 35.3906 5.15083 12 11.5113217941 1.7737139125 21.2395151627
1100 1 35.2867 37.1114 5.28255 12 11.319947955 1.787208312 21.2093079682
1101 1 38.8641 35.3256 3.46133 12 10.9628578237 1.7565882667 21.4215340608
1102 1 40.6532 37.0626 3.51406 12 10.8611638957 1.7617637856 23.2420085808
1103 1 40.577 35.3486 5.18069 12 11.1450622866 1.7732920312 22.9343560017
1104 1 38.9361 37.1368 5.12349 12 11.3459157494 1.7737139125 23.0632063355
1105 1 42.398 38.946 3.24829 12 10.8720347731 1.7310536631 24.9994884849
1106 1 1.72491 40.676 3.45386 12 10.7559034759 1.7573721953 27.0951085671
1107 1 1.58433 38.9059 5.13964 12 11.0257930294 1.7614010472 26.6962004285
1108 1 42.4128 40.6231 5.13255 12 10.9162098916 1.7635447027 26.7839401618
1109 1 3.52975 38.8279 3.49126 12 11.0684947124 1.7597071023 26.0234144359
1110 1 5.28564 40.6488 3.56478 12 10.9450925515 1.7648271837 26.1118734812
1111 1 5.21667 38.9754 5.35564 12 11.3115821771 1.7896118616 25.042826465
1112 1 3.35838 40.6519 5.18863 12 10.9598009216 1.7735198761 27.1044506099
1113 1 7.01993 39.0114 3.40332 12 11.2050260472 1.7896118616 24.1533170087
1114 1 8.73708 40.7442 3.47457 12 10.6786371038 1.7492640167 24.4492934036
1115 1 8.78325 38.9152 5.20697 12 11.4302868577 1.7896118616 23.3271976092
1116 1 7.01665 40.7447 5.23334 12 10.8555547385 1.787481686 25.1757230973
1117 1 10.5572 38.8798 3.47469 12 10.8988668785 1.777524996 22.4333363394
1118 1 12.2952 40.6027 3.55428 12 11.0721110217 1.7921525777 22.8233691124
1119 1 12.2601 38.8622 5.21866 12 10.8094915944 1.7567646959 21.9504960184
1120 1 10.6251 40.6819 5.17437 12 10.9649994374 1.7887147792 23.6379452247
1121 1 14.1195 38.7773 3.56139 12 10.9846794315 1.7580666084 20.9337736374
1122 1 15.8304 40.642 3.54611 12 11.1561847083 1.7664085503 21.6745786578
1123 1 15.8308 38.9158 5.21779 12 10.899823367 1.751015152 21.0665550934
1124 1 14.0307 40.7369 5.19931 12 11.0420727325 1.7518297033 22.6385423414
1125 1 17.6728 38.9723 3.593 12 11.0672479987 1.7664085503 20.1112331234
1126 1 19.506 40.6228 3.55578 12 10.9814828858 1.7624950946 20.8362869741
1127 1 19.3937 38.8704 5.33479 12 10.9515670858 1.7483003522 20.2645618899
1128 1 17.6412 40.6999 5.27434 12 11.3510321505 1.7774115217 21.8898034723
1129 1 21.2071 38.9311 3.46859 12 10.9709409368 1.7533805 19.4094540239
1130 1 23.0179 40.7034 3.47515 12 11.1125562097 1.7533805 20.5593091375
1131 1 22.9962 38.8365 5.19146 12 10.8780580521 1.7533805 19.7019377492
1132 1 21.2563 40.6185 5.28972 12 11.1137972249 1.754451848 21.0603269808
1133 1 24.7864 38.9964 3.49292 12 11.0407314691 1.7642523704 19.487657008
1134 1 26.5554 40.6691 3.50695 12 10.8846133684 1.7432506465 20.8412896587
1135 1 26.53 39.0029 5.24532 12 10.8803425746 1.7568841779 19.7675551716
1136 1 24.8484 40.677 5.25061 12 10.917994006 1.7616941598 20.8323669357
1137 1 28.2239 38.8694 3.4944 12 11.1691192998 1.7532564917 19.7581462283
1138 1 29.9604 40.7866 3.45209 12 10.9712767102 1.8073649425 21.2459519676
1139 1 30.022 38.8709 5.22395 12 11.3497567563 1.8073649425 20.3069544667
1140 1 28.2599 40.7269 5.19191 12 10.9541852863 1.8064212167 21.1964813496
1141 1 31.7192 38.9458 3.41307 12 10.9043886589 1.7532564917 20.3639293627
1142 1 33.595 40.708 3.30909 12 11.1028264976 1.7661853466 21.9628373201
1143 1 33.4606 38.9163 5.2882 12 11.0889799052 1.787208312 21.4363577487
1144 1 31.886 40.6863 5.08646 12 11.4838017465 1.8073649425 22.1270581351
1145 1 35.394 38.9812 3.45011 12 10.971455752 1.787187662 21.6275432977
1146 1 37.054 40.6254 3.45432 12 10.9557058126 1.7627100058 23.3366720943
1147 1 37.0454 38.9294 5.28655 12 11.3394696177 1.7870796383 22.9908828286
1148 1 35.2607 40.6842 5.19773 12 11.2826512487 1.787208312 23.3034870191
1149 1 38.9143 39.0042 3.43071 12 11.0511477792 1.7627100058 23.2761273259
1150 1 40.6183 40.8075 3.54503 12 11.2791346663 1.7609057862 25.2461143802
1151 1 40.7677 38.8064 5.10615 12 11.2951331851 1.7425344527 24.8940624417
1152 1 38.8133 40.5834 5.31376 12 11.5111761653 1.7627100058 24.7867814605
1153 1 42.4057 42.37 7.03257 12 11.1574792969 1.7635447027 26.3994537725
1154 1 1.73717 1.67628 6.99957 12 11.4442683081 1.7846894288 26.503604353
1155 1 1.7511 0.00368641 8.88298 12 11.1351791287 1.7631479694 26.3892358956
1156 1 42.3508 1.62703 8.72303 12 11.2949888013 1.7728985079 24.4364572327
1157 1 3.47521 42.3419 7.08905 12 11.5057357203 1.7852181673 26.5109489361
1158 1 5.31597 1.83636 7.05337 12 11.6698031597 1.7852181673 24.3200158825
1159 1 5.34318 -0.0183833 8.8226 12 11.2754425622 1.744320372 24.4599350395
1160 1 3.5305 1.70452 8.84925 12 11.4817060556 1.7841093035 24.4178112888
1161 1 7.16723 -0.0476339 7.03475 12 11.2160749603 1.744320372 24.4608200614
1162 1 8.91569 1.70352 7.06067 12 10.933496116 1.7504126875 22.4662967883
1163 1 8.786 0.0154912 8.80884 12 10.9295509576 1.7558160616 22.6321451821
1164 1 7.21335 1.81848 8.82122 12 11.0877418354 1.7435947687 22.2581193329
1165 1 10.5286 -0.00350924 7.06865 12 11.1164756042 1.7898842475 22.8693736056
1166 1 12.3453 1.85941 7.03108 12 10.9330542265 1.7835725564 20.9515430038
1167 1 12.402 42.3544 8.6919 12 11.1399105642 1.7840034809 21.2724699471
1168 1 10.6118 1.71815 8.84586 12 11.2806280713 1.7840034809 20.5976521239
1169 1 14.1587 0.100956 7.05635 12 11.0501353598 1.7514624556 21.6015450661
1170 1 15.97 1.89544 7.05828 12 10.9516173634 1.7621613659 19.8704232917
1171 1 15.9336 42.3528 8.77442 12 10.6923399733 1.7345616672 20.1786331827
1172 1 14.1759 1.78057 8.80595 12 10.9607277385 1.7840034809 19.2708832721
1173 1 17.5063 0.0124706 7.13622 12 11.0992357635 1.7774115217 20.8510177504
1174 1 19.45 1.7671 6.96187 12 11.1393266944 1.7707846619 19.4106030257
1175 1 19.3376 42.3714 8.6838 12 10.711509498 1.7709199992 19.6138886204
1176 1 17.6232 1.73617 8.83294 12 10.9014383161 1.7643408218 18.4525782743
1177 1 21.13 0.0293484 6.94245 12 10.9196004226 1.7657970257 20.5402439279
1178 1 22.9669 1.75802 7.0191 12 11.0240534345 1.7657970257 19.1438025823
1179 1 22.9183 42.3446 8.7635 12 11.1317895279 1.7657970257 19.3899144196
1180 1 21.1769 1.65592 8.8135 12 11.3003552004 1.7638316778 18.085441039
1181 1 24.6918 -0.00470833 7.0937 12 11.1094146212 1.7653927555 20.4446669006
1182 1 26.5107 1.65334 7.03364 12 11.0981562623 1.7626803743 19.4257824825
1183 1 26.5689 0.0024388 8.93159 12 10.852853612 1.7624676783 19.4684748223
1184 1 24.5638 1.73593 8.82576 12 11.3410875106 1.7751261022 17.9919742085
1185 1 28.2673 0.00738806 7.04067 12 10.8834078763 1.7647975833 20.9003125026
1186 1 30.0888 1.72153 7.13936 12 11.4483993591 1.7486432254 19.9060043796
1187 1 29.8878 0.0463937 8.84413 12 11.192717691 1.7884174564 20.0120624986
1188 1 28.2275 1.78465 8.76159 12 10.6416928577 1.7538683239 18.4618548103
1189 1 31.9373 42.3372 6.95648 12 11.5367781824 1.7884174564 21.7642838739
1190 1 33.5693 1.76212 7.1061 12 10.9359222831 1.7547038311 20.8639723041
1191 1 33.5733 42.382 8.815 12 11.2278971136 1.7838170539 21.0884957021
1192 1 31.8378 1.74167 8.92386 12 11.160292174 1.7884174564 19.1502145072
1193 1 35.3111 0.0131572 7.02638 12 11.0134861719 1.7714689796 22.7416352152
1194 1 37.0201 1.73496 7.02091 12 11.3563740534 1.7856385186 22.3678435423
1195 1 37.1081 42.3848 8.80014 12 11.1350941457 1.7727163933 22.5549633428
1196 1 35.364 1.77585 8.78944 12 11.0611745281 1.769334476 20.5022592501
1197 1 38.8805 42.3936 7.07026 12 11.2763847931 1.7752760526 24.3899322739
1198 1 40.5617 1.73202 6.98926 12 11.3207271598 1.7781960724 24.2811519701
1199 1 40.5323 42.3117 8.75934 12 11.2292092036 1.7747702162 24.4326288882
1200 1 38.753 1.7259 8.9042 12 11.4995659113 1.7781960724 22.1740224969
1201 1 42.4205 3.5719 7.12705 12 11.1121168973 1.7627353294 24.3158607278
1202 1 1.68195 5.2344 7.01046 12 11.0545914138 1.7613088906 24.5366937038
1203 1 1.724 3.51715 8.8948 12 11.3396798874 1.7841093035 24.4246969777
1204 1 0.0230547 5.34848 8.82079 12 11.1071798681 1.7440641336 22.407355073
1205 1 3.49371 3.45332 7.06531 12 11.2604667599 1.7852181673 24.4054774538
1206 1 5.32085 5.34048 7.02953 12 11.0978401822 1.7579372146 22.3145117456
1207 1 5.28195 3.60058 8.88891 12 11.5246739303 1.7841093035 22.2611560031
1208 1 3.49101 5.29672 8.73351 12 11.240757907 1.7826514794 22.4107958131
1209 1 7.18101 3.64711 7.07611 12 11.2975004632 1.7579372146 22.2212015856
1210 1 8.94632 5.40662 7.06597 12 11.0310943855 1.7532712093 20.338858633
1211 1 8.76565 3.6039 8.83803 12 10.9644287456 1.7634168623 20.3041907259
1212 1 7.13228 5.38327 8.87646 12 11.0054033108 1.7541875277 20.162902343
1213 1 10.5658 3.54608 7.11413 12 11.157359953 1.7675491997 20.5470663885
1214 1 12.3547 5.368 7.08614 12 11.041883457 1.7658556988 18.7746088135
1215 1 12.3106 3.57254 8.8222 12 11.0180255078 1.7833449394 18.6656151874
1216 1 10.5809 5.41603 8.92173 12 11.1395636449 1.7499159962 18.2554733117
1217 1 14.1927 3.54398 7.14701 12 11.0042360362 1.7687375191 19.1798680694
1218 1 15.962 5.35149 6.93195 12 11.6177126472 1.7687375191 17.633195908
1219 1 15.9509 3.5955 8.82847 12 11.216269713 1.7460494336 17.5017200621
1220 1 14.0753 5.29194 8.83821 12 11.1197312158 1.7766756688 16.9198700512
1221 1 17.8027 3.55216 6.95801 12 11.065610508 1.7438971151 18.3537660619
1222 1 19.4877 5.2979 7.00883 12 10.6203238539 1.738876753 16.8958477876
1223 1 19.4234 3.52185 8.76925 12 11.0737581589 1.7643408218 16.9166845146
1224 1 17.8123 5.22968 8.89747 12 11.0313478777 1.751121947 15.846879793
1225 1 21.2307 3.52878 7.02725 12 11.0304575997 1.7531176232 17.9748806435
1226 1 22.961 5.23991 7.11957 12 11.0490160384 1.7772312629 16.7736138412
1227 1 22.9153 3.54581 8.81193 12 11.0158048952 1.7649702867 16.6122247733
1228 1 21.2149 5.27022 8.85665 12 10.7346847697 1.7464609432 15.4522105083
1229 1 24.7861 3.47258 7.01498 12 11.2295645265 1.7772312629 18.0161689135
1230 1 26.5126 5.30241 7.04102 12 10.8830002072 1.7772312629 16.8546986772
1231 1 26.4655 3.52487 8.82361 12 11.2386899958 1.7837133719 16.8469830917
1232 1 24.6762 5.25613 8.90025 12 11.0337326136 1.7772312629 15.4186206208
1233 1 28.261 3.50781 6.99652 12 11.0604264076 1.776101896 18.343918599
1234 1 30.0162 5.15747 7.04457 12 11.0614803757 1.750397023 17.6328806417
1235 1 29.9445 3.53661 8.82612 12 10.944838908 1.7433654838 17.4613245045
1236 1 28.1729 5.34506 8.8452 12 10.9272697929 1.7640376432 15.7709683537
1237 1 31.8278 3.49146 7.20525 12 11.0810267745 1.7453035625 19.1179809063
1238 1 33.5027 5.25586 7.10974 12 11.1411290323 1.755276468 18.7053903196
1239 1 33.6001 3.45766 8.85964 12 10.9410789998 1.755276468 18.6080784695
1240 1 31.7242 5.35078 8.80805 12 11.1199419982 1.7569488707 16.7756663478
1241 1 35.3072 3.47739 7.01972 12 10.8342526706 1.7634155831 20.5289440676
1242 1 37.0012 5.26024 7.17915 12 10.5402220293 1.7513225441 20.2567599969
1243 1 36.9872 3.55576 8.92419 12 10.9268533181 1.7457129206 20.0768639266
1244 1 35.3577 5.25868 8.85075 12 10.9573048894 1.7773257933 18.2950514884
1245 1 38.7518 3.61235 7.06932 12 11.4137112643 1.7781960724 22.1482504985
1246 1 40.6233 5.3261 7.04403 12 11.0311750016 1.7592966962 22.3529005928
1247 1 40.6634 3.50088 8.82276 12 11.2637074285 1.7741865754 22.3124012484
1248 1 38.8214 5.33218 8.77791 12 10.6966131239 1.7441897721 20.2248177758
1249 1 0.011994 7.15424 7.03736 12 11.3442340079 1.7666966846 22.513769098
1250 1 1.80197 8.81955 7.17018 12 10.7971548394 1.758894421 22.712402145
1251 1 1.87043 7.05726 8.8075 12 11.068526696 1.7599256497 22.5036329361
1252 1 42.4133 8.82395 8.85395 12 11.0374365762 1.7622909781 20.6175945755
1253 1 3.53399 7.06248 7.02488 12 10.950537082 1.758903855 22.4498302897
1254 1 5.32215 8.86825 7.07494 12 11.2239672576 1.7587737744 20.4964120646
1255 1 5.37155 7.03242 8.84324 12 11.0337313846 1.7519368923 20.2445440316
1256 1 3.60411 8.83677 8.85409 12 10.9189629453 1.758894421 20.4717721228
1257 1 7.03199 7.15746 7.10149 12 10.8480162747 1.7541875277 20.3708713702
1258 1 8.80227 8.92435 7.14472 12 10.9855372082 1.7490189778 18.5618840995
1259 1 8.75187 7.16635 8.75967 12 10.7784663527 1.73331052 18.3657674721
1260 1 7.04511 8.81524 9.01242 12 11.0943457088 1.7573767256 18.2353304909
1261 1 10.6581 7.20453 7.07751 12 11.1265791452 1.7587254015 18.5570348293
1262 1 12.377 8.98724 6.99383 12 10.9720864801 1.762187754 16.8964269094
1263 1 12.4795 7.14091 8.87626 12 10.9327814003 1.762187754 16.4551372266
1264 1 10.6358 8.77735 8.78944 12 10.8207090454 1.762187754 16.5610299298
1265 1 13.9997 7.06829 7.07863 12 10.9844032902 1.7687375191 17.221842843
1266 1 15.8369 8.67727 7.00611 12 11.201185281 1.7590563227 15.7682792073
1267 1 15.9116 7.03299 8.84531 12 11.1829812477 1.7427460654 15.2377316707
1268 1 14.2176 8.87707 8.79235 12 10.9212073136 1.762920984 14.8720694628
1269 1 17.7452 6.98713 7.0261 12 11.0238805093 1.7577030454 16.12000948
1270 1 19.4339 8.86684 7.04441 12 10.8947341251 1.7686685054 14.8011799053
1271 1 19.425 7.0157 8.80127 12 10.8224238842 1.7686685054 14.440108371
1272 1 17.6171 8.70236 8.7748 12 11.263699023 1.7685660148 13.8003031011
1273 1 21.1091 7.03198 7.02316 12 10.9242147253 1.7565400024 15.7165340262
1274 1 23.0205 8.77289 7.04112 12 10.7822993326 1.7564188285 14.8520443949
1275 1 22.8408 6.95015 8.80877 12 10.8756741656 1.7565400024 14.3889561823
1276 1 21.1873 8.79479 8.79115 12 11.0640056624 1.7722171185 13.2548089235
1277 1 24.7036 7.03102 7.08822 12 10.9807527757 1.7771292656 15.6646915646
1278 1 26.5114 8.69858 6.97115 12 10.8256796622 1.7460721337 14.9344875014
1279 1 26.5058 7.07787 8.72527 12 11.0085747102 1.7898118813 14.434641713
1280 1 24.6637 8.76683 8.802 12 10.8412732865 1.74596928 13.2642203546
1281 1 28.3016 7.00305 7.07659 12 10.5573002012 1.7494822159 16.0589196067
1282 1 29.9607 8.81248 7.15233 12 11.0522214786 1.7472743081 15.4888201777
1283 1 29.9071 7.01519 8.88429 12 11.1144277308 1.7421296548 15.1210617523
1284 1 28.2104 8.88185 8.80143 12 10.8793543521 1.7362957678 13.6127706265
1285 1 31.7606 7.02767 7.0755 12 10.9518146812 1.7643676126 17.1153853762
1286 1 33.5619 8.72807 7.07522 12 11.0023422846 1.7740483969 17.0638256466
1287 1 33.455 7.00064 8.89745 12 10.8776105648 1.754060756 16.4287825651
1288 1 31.7748 8.69804 8.83688 12 10.9344251855 1.7629844904 14.9285337526
1289 1 35.3732 7.01524 7.16467 12 11.1008161731 1.7591753921 18.587168646
1290 1 37.2033 8.84647 7.0772 12 11.0451925071 1.7779649223 18.7557309059
1291 1 37.1141 6.9677 8.87489 12 10.7847757852 1.7781905543 18.3310849843
1292 1 35.28 8.73314 8.8448 12 11.298287723 1.778249962 16.5281041715
1293 1 38.8699 6.93008 7.06501 12 10.7618638167 1.7538873911 20.5361136467
1294 1 40.588 8.8581 7.07242 12 11.2757030636 1.7703613398 20.5762574426
1295 1 40.6114 7.09832 8.79937 12 11.0534472129 1.7446839085 20.3365661554
1296 1 38.8351 8.74992 8.89429 12 11.1562206061 1.7948982701 18.3940895946
1297 1 0.0177663 10.5395 7.10354 12 11.3388133929 1.7769116574 21.0722458271
1298 1 1.76375 12.4341 7.00169 12 11.1566307075 1.779353613 21.6501143373
1299 1 1.86811 10.5971 8.87382 12 11.3637622809 1.779353613 20.9893041134
1300 1 42.2968 12.3401 8.87191 12 11.3042851388 1.779353613 19.23804204
1301 1 3.52475 10.614 7.09871 12 11.1034372057 1.7582483824 20.9152331624
1302 1 5.30973 12.3239 7.07933 12 11.3468398751 1.7735790696 19.220286777
1303 1 5.3364 10.6032 8.9901 12 11.3140551879 1.7655858537 18.4907975029
1304 1 3.53399 12.5105 8.8675 12 11.264101867 1.7734609296 19.1626937792
1305 1 7.15016 10.7005 7.14942 12 11.3166853105 1.7573767256 18.6347990077
1306 1 8.92094 12.436 7.00196 12 11.0788626631 1.7486706838 17.1970513152
1307 1 8.93867 10.6206 8.89897 12 10.9109256115 1.7573767256 16.4265639471
1308 1 7.19524 12.384 8.86036 12 11.1161843017 1.7662178117 16.7504498165
1309 1 10.6104 10.588 7.05003 12 11.1043704514 1.7486706838 16.9759572786
1310 1 12.4067 12.367 6.95804 12 11.3082986049 1.7658728162 15.4831022185
1311 1 12.4093 10.6513 8.91646 12 11.329668915 1.762187754 14.6548393031
1312 1 10.6562 12.368 8.84728 12 11.209497212 1.7740245141 14.8788017918
1313 1 14.2158 10.5766 7.15998 12 11.0222118671 1.7573954274 15.2615997907
1314 1 15.8915 12.3293 7.1026 12 11.0749712919 1.7801982408 14.0447199394
1315 1 15.906 10.5642 8.87111 12 11.1022456648 1.7638067085 13.3126444278
1316 1 14.1558 12.4654 8.83476 12 11.1358652018 1.7638067085 13.1226938022
1317 1 17.6592 10.6439 7.05153 12 11.4479171565 1.781827207 14.3237331703
1318 1 19.4747 12.3696 7.06586 12 10.9901922119 1.74834274 13.3676709206
1319 1 19.3892 10.5644 8.82793 12 11.1599989817 1.7724969448 12.4449526383
1320 1 17.6731 12.4462 8.89792 12 11.0877560543 1.7638067085 11.970413125
1321 1 21.2424 10.497 7.10308 12 10.7099135957 1.7718355497 13.8874525214
1322 1 23.0447 12.2662 7.03857 12 11.0968628932 1.7733735226 13.3453817331
1323 1 22.9282 10.5489 8.76109 12 10.9661389165 1.77310242 12.4916578195
1324 1 21.1494 12.3626 8.77909 12 11.2510986631 1.7733735226 11.6295598825
1325 1 24.7886 10.5204 7.00096 12 10.8007452605 1.7460721337 13.9793956542
1326 1 26.5324 12.4015 6.98851 12 11.0310929281 1.7518496351 13.4334923967
1327 1 26.4288 10.4873 8.77445 12 10.9808604002 1.7456525464 12.4947662033
1328 1 24.8162 12.2053 8.71665 12 11.0373655475 1.7723621132 11.7534071394
1329 1 28.3407 10.6422 7.09017 12 11.110303482 1.7456525464 14.2745406545
1330 1 30.1044 12.3452 7.0833 12 10.7659496686 1.7499808493 14.2040617175
1331 1 30.0908 10.6092 8.81198 12 10.7768051984 1.7379086367 13.3671125233
1332 1 28.2751 12.3384 8.79015 12 11.077673434 1.7384967321 12.1246803012
1333 1 31.9616 10.4751 7.10842 12 10.9641344271 1.7517781864 15.5741619869
1334 1 33.5647 12.3161 7.13181 12 10.9698659679 1.7494571648 15.5053214796
1335 1 33.5645 10.5328 8.89924 12 11.0278215552 1.7542729532 14.8681101121
1336 1 31.741 12.2725 8.77817 12 10.7092716965 1.7550766394 13.3855747554
1337 1 35.4524 10.651 7.05399 12 11.0568725199 1.7517781864 17.1425444815
1338 1 37.0887 12.376 7.20898 12 10.8453953816 1.7560779776 17.1816265358
1339 1 37.0517 10.5358 8.89152 12 11.1392410346 1.7946710892 16.5874298457
1340 1 35.3053 12.362 8.86808 12 11.188736019 1.7646712414 14.9882181745
1341 1 38.8378 10.6709 7.03222 12 11.1069988464 1.7948982701 18.8592937238
1342 1 40.6099 12.3915 7.04801 12 11.2590177249 1.7754935441 19.3220147004
1343 1 40.6746 10.5054 8.87295 12 11.1474655748 1.7948824537 18.747728729
1344 1 38.7094 12.331 8.89937 12 11.0925511236 1.7948982701 16.8247752331
1345 1 0.0162571 14.0886 7.21004 12 11.1976440432 1.7853065528 20.0348783513
1346 1 1.75954 15.9137 7.20402 12 11.2449399695 1.7594072491 20.8813538727
1347 1 1.67714 14.1359 8.79624 12 10.9670350875 1.779353613 20.2084139246
1348 1 42.2166 15.9769 8.97417 12 11.1065225358 1.7594072491 18.3710305882
1349 1 3.54403 14.0689 7.01124 12 11.2685936835 1.7733259702 20.0136127669
1350 1 5.32472 15.8693 7.0249 12 11.0705131432 1.7735790696 18.5014707355
1351 1 5.34963 14.1882 8.79408 12 11.2241640174 1.7734069857 17.5054030921
1352 1 3.5206 15.8875 8.80852 12 11.1719466644 1.7608320142 18.5232930487
1353 1 7.11893 14.1572 7.04008 12 11.1259983169 1.7735790696 17.6702295213
1354 1 8.8618 15.8161 7.01408 12 10.7817642584 1.7584293401 16.2472361137
1355 1 8.8569 14.1488 8.82309 12 10.8867556764 1.7567468073 15.2812353407
1356 1 7.15198 15.8904 8.79495 12 10.777419947 1.7584293401 15.988050345
1357 1 10.6461 14.1687 7.07953 12 11.1036389376 1.7658728162 15.6758786038
1358 1 12.3717 16.0207 7.15039 12 11.1054114517 1.7632808774 14.2720665543
1359 1 12.4263 14.1541 8.88466 12 11.2605969682 1.7658728162 13.3405146941
1360 1 10.5624 15.9643 8.80814 12 10.8660823656 1.7523890613 13.8257927929
1361 1 14.1682 14.3001 7.12789 12 11.0499089755 1.7801982408 14.0112193315
1362 1 16.0104 15.9759 7.08986 12 10.8947615328 1.7789274988 13.0991443726
1363 1 15.9143 14.1447 8.89434 12 10.9976724583 1.7801982408 11.8365544207
1364 1 14.2455 15.9743 8.82448 12 10.986812159 1.758254487 12.056940048
1365 1 17.7154 14.0591 7.02724 12 11.0973741567 1.7801982408 13.1655957436
1366 1 19.4021 15.8377 7.04123 12 11.0843194308 1.760096482 12.578654333
1367 1 19.4757 14.0981 8.82397 12 10.9526705871 1.7712544363 11.2241986557
1368 1 17.6886 15.9157 8.81111 12 10.8765630659 1.7473545769 11.0667332652
1369 1 21.2762 14.1259 6.97884 12 11.0312516645 1.7429931094 12.8708612843
1370 1 22.872 15.8956 7.08862 12 10.8373417774 1.7524290315 12.3245303901
1371 1 23.0945 14.1046 8.83819 12 11.2952137067 1.7733735226 11.0239461815
1372 1 21.2815 15.8088 8.84454 12 10.9360900475 1.7498012323 10.6880193738
1373 1 24.7474 14.1326 7.01474 12 11.2056701874 1.7536703199 12.8400200981
1374 1 26.5028 15.894 7.03129 12 11.1700263133 1.7771791855 12.6829571422
1375 1 26.5797 14.1328 8.89514 12 11.267870807 1.7536703199 11.1910468671
1376 1 24.7752 15.9212 8.83016 12 11.1441606287 1.7554937543 10.7246097177
1377 1 28.2693 14.1197 6.98905 12 10.8373832861 1.7772789185 13.3116366055
1378 1 30.0534 15.7704 7.07933 12 11.1049327699 1.7772789185 13.2749719062
1379 1 30.0229 13.9856 8.80279 12 10.9361372549 1.7717639998 12.1028095556
1380 1 28.2584 15.8426 8.91244 12 11.3176644253 1.7772789185 11.0868556521
1381 1 31.859 14.1231 7.03442 12 10.7266272727 1.7550766394 14.2824521477
1382 1 33.5911 15.9566 7.09874 12 10.9290594174 1.7483500118 14.4673711749
1383 1 33.5307 14.1169 8.71571 12 10.9547895615 1.7646712414 13.5930268824
1384 1 31.7404 15.8376 8.85804 12 11.0952924086 1.7852063205 12.2050285513
1385 1 35.3862 14.1387 7.08474 12 10.9811380208 1.7646712414 15.7956575873
1386 1 37.1322 15.83 7.05377 12 10.9329719104 1.7546757847 16.2721841195
1387 1 37.075 14.2426 9.07499 12 11.0002172731 1.7640016276 15.1348627223
1388 1 35.4065 15.9092 8.82274 12 11.1610135256 1.7646050801 13.8821237005
1389 1 38.7886 14.0613 7.05937 12 10.8789074665 1.7252450667 17.7174202659
1390 1 40.6965 15.8795 7.06098 12 11.1391129779 1.7594072491 18.5298419738
1391 1 40.4406 14.123 8.79865 12 11.122828896 1.7626262651 17.5311405334
1392 1 38.9396 15.9511 8.74127 12 11.1347843532 1.7381101491 16.135228667
1393 1 42.3622 17.6949 7.10222 12 11.1871974771 1.7590899594 19.4479581121
1394 1 1.72033 19.5055 7.05955 12 10.8449971295 1.7463438585 20.6155354485
1395 1 1.65181 17.6231 8.78251 12 11.022582812 1.7587917099 19.6603821615
1396 1 42.3692 19.4533 8.85439 12 11.0483252474 1.7651117419 18.0976982784
1397 1 3.52718 17.7406 7.09385 12 11.2302365599 1.7364875485 19.5369912316
1398 1 5.3714 19.5136 7.15312 12 10.7496488149 1.737037648 18.0488424268
1399 1 5.40237 17.6281 8.77305 12 10.9384289401 1.7278075558 17.036697349
1400 1 3.50888 19.4917 8.81035 12 10.883350475 1.7394189223 18.2142704336
1401 1 7.01764 17.6722 7.14278 12 10.5618476766 1.7584293401 17.0211958343
1402 1 8.77004 19.3526 7.07006 12 10.7183533357 1.75092208 15.848402524
1403 1 8.78638 17.6667 8.77776 12 10.7273546868 1.7313170969 14.6370161091
1404 1 7.18218 19.4326 8.83208 12 10.5096459399 1.7454134045 15.5875669641
1405 1 10.5379 17.6672 7.0477 12 10.8520739179 1.7595371099 14.9521733068
1406 1 12.3941 19.3796 7.08069 12 11.114063355 1.750923093 13.9073742978
1407 1 12.3421 17.6952 8.8553 12 10.7498939357 1.7565799695 12.4877728331
1408 1 10.5353 19.3872 8.78507 12 11.1021921012 1.76792605 13.4146316873
1409 1 14.1289 17.6812 7.12865 12 11.0053016256 1.7503737049 13.3083740917
1410 1 15.8729 19.4512 7.05097 12 11.2047972993 1.7675766892 12.7921556313
1411 1 15.9362 17.7414 8.79569 12 10.8915547259 1.753658996 11.2080670263
1412 1 14.1051 19.3952 8.93069 12 10.8186691446 1.7442896985 11.5158723499
1413 1 17.6859 17.651 6.9729 12 11.0638400339 1.7610138335 12.5778630859
1414 1 19.5202 19.4859 6.94948 12 11.2159640119 1.7768562457 12.2047280265
1415 1 19.3796 17.6549 8.82507 12 11.2730921433 1.7768562457 10.4777169268
1416 1 17.6392 19.486 8.79282 12 11.1152336022 1.776448973 10.7041779007
1417 1 21.0606 17.7053 7.08193 12 11.3333331062 1.8019908981 12.1264228177
1418 1 22.919 19.5273 6.95885 12 11.0580049665 1.7456417614 12.2249100882
1419 1 22.9341 17.5756 8.73519 12 10.9254101403 1.7433367241 10.5358808609
1420 1 21.1973 19.3763 8.8684 12 11.4037180471 1.7768562457 10.2512142232
1421 1 24.6728 17.6789 7.06083 12 10.7088558291 1.7528529679 12.2152896459
1422 1 26.4856 19.4959 7.10193 12 10.9284186531 1.7653118581 12.2018933173
1423 1 26.3511 17.7751 8.75894 12 10.9986393395 1.7523603058 10.6387661148
1424 1 24.587 19.4246 8.75353 12 10.8684004548 1.7266399785 10.4351377871
1425 1 28.2021 17.6645 7.0543 12 11.0568653538 1.7772789185 12.6613203106
1426 1 30.0368 19.3199 7.06333 12 11.1308235031 1.7648293515 12.9872864777
1427 1 30.0186 17.6685 8.75958 12 11.1324079595 1.7846806864 11.4430912993
1428 1 28.3645 19.4117 8.82369 12 11.172423771 1.7696251765 10.8769103437
1429 1 31.8419 17.579 6.99958 12 11.0441815805 1.7852063205 13.6422439993
1430 1 33.4982 19.4074 7.06188 12 11.0174593355 1.7443210516 14.0431859879
1431 1 33.6091 17.6364 8.75441 12 10.8817122832 1.7852063205 12.6903783492
1432 1 31.7974 19.4043 8.77708 12 11.135182219 1.7852063205 11.8179902256
1433 1 35.3799 17.7057 7.03339 12 11.0673690881 1.7546757847 15.0264465735
1434 1 37.0845 19.4849 7.02402 12 10.9469096041 1.7487651167 15.8682200937
1435 1 37.1493 17.6879 8.85188 12 11.0631656432 1.7546757847 14.5686189984
1436 1 35.2949 19.3606 8.72951 12 10.8217421566 1.74449543 13.4463629008
1437 1 38.8734 17.7545 7.01583 12 11.0214157382 1.7546757847 17.062494906
1438 1 40.5671 19.4196 7.08806 12 10.8705491766 1.7495156043 18.0452068965
1439 1 40.582 17.7849 8.89926 12 11.0437596792 1.7506966322 16.9287638256
1440 1 38.776 19.525 8.80399 12 11.0009291204 1.7465621282 15.5671478696
1441 1 42.3166 21.183 7.0859 12 10.8664888033 1.7578590313 19.1740101007
1442 1 1.70196 22.878 7.05419 12 10.7908277069 1.7749143378 20.5503572883
1443 1 1.75435 21.2097 8.73107 12 10.7935689551 1.7702423753 19.4826108201
1444 1 42.387 22.899 8.86048 12 11.167761404 1.7748774255 18.0318428356
1445 1 3.49145 21.189 7.08368 12 10.8201494696 1.7432155891 19.35680585
1446 1 5.28969 22.962 7.14855 12 11.1009649845 1.7547244811 18.0467032511
1447 1 5.30646 21.1061 8.91936 12 10.9529293553 1.7454134045 16.7766266904
1448 1 3.49864 23.0608 8.83974 12 11.0339493519 1.7749143378 18.2274528107
1449 1 7.01641 21.1941 7.13789 12 10.6383987555 1.7544000835 16.9517297999
1450 1 8.79135 22.8495 7.12722 12 11.0206944296 1.7594480775 15.7705038639
1451 1 8.82661 21.0892 8.76747 12 11.0276049294 1.7544096164 14.5506786136
1452 1 7.03624 22.9081 8.84779 12 11.1139370295 1.7923274811 15.6101445431
1453 1 10.6701 21.1995 7.16062 12 11.1193470829 1.7594480775 14.7838183707
1454 1 12.3093 22.9427 7.16762 12 10.790669162 1.7590676889 13.9419796933
1455 1 12.3468 21.1514 8.90541 12 11.0078677031 1.7403453327 12.4350069694
1456 1 10.5777 23.0932 8.85184 12 11.0360780704 1.7574055882 13.3282367838
1457 1 14.1075 21.1835 7.07149 12 11.0757243709 1.7676108591 13.3243089643
1458 1 15.9912 22.9856 7.0133 12 11.1724071024 1.77019325 12.8752193708
1459 1 15.8093 21.2202 8.78509 12 10.9000135293 1.771875207 11.1464709108
1460 1 14.1328 22.9133 8.81839 12 10.9191119145 1.7630645047 11.7201931787
1461 1 17.6409 21.2227 7.04425 12 10.8890948392 1.7676108591 12.4167849132
1462 1 19.4515 22.9458 7.00324 12 10.9164210363 1.7414474748 12.4024959968
1463 1 19.3441 21.2026 8.7649 12 11.2345748795 1.7768562457 10.5068799299
1464 1 17.6102 22.9545 8.78636 12 11.0382453134 1.7531868059 10.7963819952
1465 1 21.1177 21.2228 6.93391 12 11.0610455436 1.7598549302 12.2718145068
1466 1 23.0073 23.009 6.90229 12 10.8138589134 1.7572703927 12.3952540157
1467 1 22.9869 21.2598 8.73215 12 10.9257847413 1.7550186536 10.4397764947
1468 1 21.2821 22.8737 8.7582 12 11.1641156793 1.7598549302 10.6008390203
1469 1 24.7508 21.2398 7.13134 12 10.8942169476 1.7628495132 12.1350074846
1470 1 26.485 23.0097 7.07716 12 11.060182102 1.7641630267 12.3904292888
1471 1 26.5886 21.2495 8.84725 12 10.9744295349 1.7696251765 10.5685018228
1472 1 24.7115 22.9766 8.73509 12 10.9402984281 1.7770488193 10.5777725263
1473 1 28.2314 21.2504 7.01967 12 11.2837233813 1.7696251765 12.5700520649
1474 1 30.0245 22.938 7.02511 12 11.0305921243 1.7771679293 13.0361037049
1475 1 30.1238 21.2527 8.80338 12 11.251939514 1.7696251765 11.2822957429
1476 1 28.3067 23.0069 8.81852 12 11.1151923345 1.7739641179 10.936346756
1477 1 31.6749 21.2135 7.01917 12 11.2464634563 1.7771679293 13.4841826151
1478 1 33.5666 23.1259 6.97685 12 11.2258323835 1.7771679293 14.2159929878
1479 1 33.6108 21.2229 8.75485 12 11.3814778245 1.761238958 12.6936239979
1480 1 31.8267 23.0341 8.87736 12 11.0868672751 1.7771679293 11.8003138075
1481 1 35.3156 21.2096 6.97061 12 11.0398647386 1.7600582131 15.0555923294
1482 1 37.0716 23.1133 7.0585 12 10.9859014236 1.7600582131 15.8998416124
1483 1 36.9586 21.2072 8.73325 12 10.9485659131 1.7470037619 14.4600253729
1484 1 35.3402 22.9608 8.81868 12 11.0280474911 1.7651124535 13.4665254913
1485 1 38.8265 21.325 7.12586 12 10.9840487662 1.7495156043 16.8651117648
1486 1 40.6085 23.0429 7.05995 12 11.1437046756 1.7582588314 18.1068472355
1487 1 40.6209 21.1129 8.88977 12 11.1829889526 1.7527725759 16.7001021276
1488 1 38.8312 22.9245 8.89424 12 10.9993500018 1.7524684906 15.5534270011
1489 1 42.4133 24.7342 7.10076 12 11.0267443338 1.7582588314 19.4252857599
1490 1 1.60793 26.4869 7.00268 12 11.2396824366 1.7680260942 20.8266745256
1491 1 1.73982 24.8023 8.77924 12 10.8527579561 1.7749143378 19.4951569935
1492 1 42.3678 26.4977 8.84857 12 11.1040098323 1.7700302111 18.3696096081
1493 1 3.46672 24.6664 7.01809 12 10.9217302425 1.7520120063 19.5370075007
1494 1 5.24714 26.4101 7.05235 12 11.1915285039 1.7754376992 18.4498810099
1495 1 5.2467 24.7384 8.7589 12 10.9168172767 1.7479536515 17.0680225118
1496 1 3.296 26.5594 8.75325 12 11.1142725291 1.7525985276 18.8376556141
1497 1 7.14059 24.7108 7.03196 12 11.0967705496 1.7676040274 16.9498968147
1498 1 8.74294 26.5261 6.94128 12 11.1927692788 1.7653304787 16.3170282337
1499 1 8.72137 24.7987 8.81683 12 11.1517766801 1.7572801658 14.5891052685
1500 1 6.91724 26.6051 8.76751 12 11.0193954558 1.7859990098 16.1431282187
1501 1 10.5434 24.7078 7.0394 12 11.2771539949 1.776557098 14.9647782555
1502 1 12.3107 26.4297 6.99126 12 11.227824127 1.7716160098 14.4951342949
1503 1 12.3079 24.6613 8.7146 12 10.8908983502 1.7716160098 12.6524753179
1504 1 10.5064 26.6021 8.72154 12 11.1254731018 1.7716160098 13.9302701661
1505 1 14.0909 24.6946 7.02398 12 11.0046431513 1.7607673202 13.5319401524
1506 1 15.8289 26.5608 6.98407 12 11.0267417688 1.7611522045 13.4984845746
1507 1 15.8211 24.8091 8.75337 12 11.0270048407 1.7629553638 11.4545933265
1508 1 14.0981 26.4335 8.76664 12 10.917747629 1.7705295474 12.2509957358
1509 1 17.7279 24.7852 7.03848 12 11.2737142577 1.7612104127 12.7856148916
1510 1 19.4537 26.55 7.09823 12 11.0708885741 1.7565665701 12.8952685542
1511 1 19.4963 24.6426 8.69352 12 11.2231403682 1.7682120305 10.9642809503
1512 1 17.6553 26.5139 8.79217 12 11.0663414433 1.7728919064 11.413310486
1513 1 21.205 24.7338 6.93282 12 10.9266155462 1.7572703927 12.6013906057
1514 1 22.9936 26.5184 7.06036 12 10.8935580936 1.7572703927 12.7345939835
1515 1 22.9048 24.6284 8.70793 12 11.193599723 1.7636999115 10.760977585
1516 1 21.2029 26.4972 8.71347 12 10.96351958 1.756297392 11.188269081
1517 1 24.7189 24.7865 7.03974 12 10.8052043918 1.757219369 12.4031261505
1518 1 26.5375 26.5779 7.00999 12 10.7711408856 1.773498727 12.8950921205
1519 1 26.4921 24.7823 8.68811 12 10.8785579808 1.7739641179 10.9656911758
1520 1 24.7953 26.4478 8.73754 12 10.877117978 1.7595522307 11.0926683208
1521 1 28.3263 24.718 6.96835 12 11.1304098683 1.7739641179 12.9284041961
1522 1 29.9738 26.4838 7.06349 12 11.163131833 1.7763392429 13.3994093115
1523 1 30.1002 24.7465 8.91886 12 11.2622335475 1.7737463247 11.3926203258
1524 1 28.3038 26.5515 8.78998 12 11.0782788778 1.7739641179 11.3640462891
1525 1 31.748 24.7735 7.02578 12 11.0977941987 1.7768359237 13.6273892072
1526 1 33.5218 26.5563 7.07069 12 11.0170740892 1.7763392429 14.5153077249
1527 1 33.437 24.7411 8.78451 12 10.9460883794 1.7612063102 12.6266990425
1528 1 31.7549 26.5934 8.8809 12 11.034316673 1.7762895013 12.2622329075
1529 1 35.3023 24.7591 7.09204 12 10.8693342898 1.7574860501 14.9921864018
1530 1 37.1388 26.481 7.16015 12 10.9356549166 1.7419075671 16.2013629661
1531 1 37.0497 24.8086 8.94125 12 10.8053415322 1.7508201396 14.4939169373
1532 1 35.3012 26.536 8.80042 12 11.0161527985 1.7469872908 13.8757177958
1533 1 38.8566 24.7536 7.19359 12 10.8275799275 1.7316280457 16.977239088
1534 1 40.6425 26.4815 7.00992 12 10.9364234867 1.7692547832 18.5523670012
1535 1 40.6395 24.7225 8.89464 12 11.0815242581 1.7676207168 16.9172882145
1536 1 38.8359 26.4861 8.79546 12 11.0037835486 1.7709537069 16.0609045788
1537 1 42.3128 28.2808 7.10139 12 11.3682212101 1.7680260942 19.9795940857
1538 1 1.67207 30.1019 7.05447 12 11.0062888434 1.7663358366 21.7230179373
1539 1 1.67442 28.3411 8.82075 12 10.9213300769 1.7680260942 20.0475559976
1540 1 42.4047 30.0888 8.86425 12 10.8941925592 1.763254244 19.3784066964
1541 1 3.41257 28.3381 6.96376 12 11.4319054343 1.7754376992 20.2449536862
1542 1 5.26798 30.1811 6.94984 12 11.2488461329 1.7746587994 19.541691856
1543 1 5.27937 28.362 8.78866 12 11.2732843647 1.785393594 17.7486207902
1544 1 3.4918 30.0261 8.78723 12 10.9408789683 1.7648327347 19.6092689813
1545 1 6.96722 28.3408 6.92554 12 11.1626943399 1.7856446441 17.8587866318
1546 1 8.79508 30.1662 6.95209 12 11.0017466214 1.769327799 17.4176903109
1547 1 8.86759 28.3661 8.71424 12 11.1241193418 1.7859990098 15.4084540604
1548 1 7.10358 30.1659 8.6289 12 11.2972623687 1.7859990098 17.244617399
1549 1 10.4965 28.3137 6.92388 12 11.1650927784 1.7811356102 15.8875962653
1550 1 12.4026 29.9894 7.09813 12 11.1360827963 1.7558239814 15.5845685487
1551 1 12.2922 28.2392 8.74485 12 11.1154229776 1.7704304918 13.5557286097
1552 1 10.5643 30.0958 8.77975 12 10.9097349807 1.7438109756 15.1242624114
1553 1 13.9966 28.1873 7.01731 12 11.1036236869 1.7705258726 14.4074627988
1554 1 15.8956 29.9609 6.97298 12 11.1842316021 1.757481541 14.5886240985
1555 1 15.9233 28.2404 8.76179 12 10.9522651529 1.7747596485 12.3225841799
1556 1 14.1792 29.9866 8.75034 12 11.1252748792 1.7550260402 13.6102265652
1557 1 17.623 28.2047 7.08991 12 11.4105173768 1.7984968009 13.5148643059
1558 1 19.3832 30.0359 7.12088 12 11.0709773971 1.757481541 14.0874481251
1559 1 19.4656 28.3848 8.92534 12 11.2141640971 1.7747596485 11.7487551356
1560 1 17.5968 30.104 8.99554 12 11.1170838816 1.7747596485 12.5865865442
1561 1 21.0731 28.2615 6.992 12 10.9461864806 1.7571711583 13.3319422351
1562 1 22.8885 30.0591 6.85721 12 11.1938350305 1.7780402586 13.8513254407
1563 1 22.9603 28.2005 8.64645 12 11.2579500938 1.7649599648 11.5656086855
1564 1 21.2056 30.1136 8.84258 12 11.4520634927 1.7649599648 12.2501839087
1565 1 24.7584 28.2473 6.98439 12 10.6816353735 1.7565269014 13.2008069713
1566 1 26.4001 30.1279 7.01176 12 10.3862480748 1.7329984386 13.7374691713
1567 1 26.4692 28.2421 8.77245 12 10.896414637 1.7597970087 11.5490650822
1568 1 24.7117 30.0216 8.7096 12 11.0649427637 1.7649599648 11.9997259134
1569 1 28.2127 28.4021 7.11239 12 10.8435802227 1.75937092 13.3900529813
1570 1 29.9281 30.0417 7.03925 12 10.8948186783 1.7584895548 14.3769217651
1571 1 30.0091 28.2675 8.88182 12 11.2009363674 1.7584895548 12.1414724921
1572 1 28.2023 30.1488 8.8241 12 10.9136437492 1.7780300089 12.3990802663
1573 1 31.7166 28.3695 7.10914 12 11.106755988 1.7763392429 14.3400465802
1574 1 33.5745 30.0906 7.12305 12 11.0431496004 1.7654600357 15.6576630382
1575 1 33.5106 28.2695 8.81295 12 10.7590771835 1.7469872908 13.5371420723
1576 1 31.8394 30.0457 8.83139 12 10.9567113418 1.7675879573 13.51287951
1577 1 35.2976 28.2817 7.04172 12 11.0939072931 1.7674194343 15.8012194926
1578 1 37.1478 30.1193 7.09277 12 11.0225613275 1.7674194343 17.3722958544
1579 1 37.0642 28.357 8.79531 12 11.1763896305 1.7709537069 15.4234540391
1580 1 35.3187 30.028 8.82088 12 11.0190783211 1.7710609505 15.1038247184
1581 1 38.8731 28.2977 7.09792 12 10.7965312087 1.7694503896 17.745767547
1582 1 40.5597 30.0776 7.16451 12 11.0745614221 1.7899857207 19.362816394
1583 1 40.5957 28.3537 8.84132 12 11.1342424408 1.7709537069 17.6580146526
1584 1 38.8753 30.0217 8.79452 12 10.8023005339 1.7708873607 17.1635222464
1585 1 42.2614 31.7503 6.94939 12 11.0060367768 1.756045493 21.2073044033
1586 1 1.63194 33.5796 7.03702 12 11.278180578 1.7760239548 23.0424989868
1587 1 1.6965 31.7906 8.76635 12 11.0451516541 1.7648327347 21.2657008368
1588 1 42.3236 33.5414 8.84888 12 11.143109171 1.756045493 20.7476637095
1589 1 3.49838 31.8317 6.95964 12 11.0644164546 1.7673754839 21.364362313
1590 1 5.30683 33.7137 7.087 12 11.0361826203 1.7690561622 20.9775581005
1591 1 5.22467 31.8431 8.74753 12 10.8728068066 1.7648327347 19.1381438969
1592 1 3.50926 33.5589 8.78401 12 11.0485177557 1.7703763957 21.1113162422
1593 1 7.02517 31.9227 6.98021 12 11.2510211443 1.769327799 19.152031738
1594 1 8.9333 33.693 6.95003 12 11.322355996 1.769327799 19.0613730606
1595 1 8.93021 31.8563 8.81859 12 10.9699918427 1.769327799 16.8249537703
1596 1 7.11005 33.4756 8.86495 12 11.1733438704 1.7370889365 18.7055542914
1597 1 10.5915 31.8169 6.98033 12 10.7701032828 1.7681669355 17.2773545748
1598 1 12.3846 33.5037 7.08479 12 10.8466910519 1.7651651023 17.3823869763
1599 1 12.3595 31.8117 8.69117 12 10.8023812865 1.7416359747 15.2843216453
1600 1 10.6695 33.5523 8.72625 12 10.640272512 1.7380238929 16.9953466597
1601 1 14.1551 31.73 6.92279 12 10.9240665237 1.7615591604 15.9307229283
1602 1 15.9033 33.5756 7.01736 12 11.0350910171 1.7587949801 16.4091796845
1603 1 15.853 31.7611 8.81126 12 11.0374397119 1.7587949801 13.9609575139
1604 1 14.1715 33.4117 8.74503 12 10.9950192633 1.7453728273 15.4809037096
1605 1 17.7421 31.7488 7.09957 12 11.1770693593 1.7587949801 15.0274875629
1606 1 19.3748 33.5974 6.94248 12 11.6079959088 1.7556214554 15.908971784
1607 1 19.3948 31.8047 8.88196 12 11.4041456425 1.7518218187 13.3584214506
1608 1 17.5509 33.5371 8.86375 12 11.3522760841 1.7622988316 14.6268110504
1609 1 21.1567 31.7324 6.98132 12 11.4025856777 1.7788980049 14.6142242428
1610 1 22.9193 33.6272 7.00458 12 11.1650600577 1.7788980049 15.2019372312
1611 1 22.9943 31.8541 8.80487 12 11.2138827997 1.7788980049 12.7768457184
1612 1 21.2091 33.5158 8.9431 12 11.5072863256 1.761477604 13.8573803296
1613 1 24.7052 31.7844 6.91155 12 10.7640677216 1.7788980049 14.3261261176
1614 1 26.4298 33.5253 7.06664 12 10.9975398042 1.7557275512 15.0728504961
1615 1 26.3908 31.6988 8.74058 12 10.5596092529 1.7557275512 12.7391792722
1616 1 24.6945 33.4585 8.77173 12 11.0222329633 1.7557270501 13.500483093
1617 1 28.2143 31.8637 7.09213 12 10.6370039621 1.7522542188 14.6031356531
1618 1 29.8593 33.5406 7.10064 12 10.993050405 1.7839522643 15.7991624191
1619 1 30.0034 31.8189 8.82433 12 10.9445933958 1.7689104762 13.640296281
1620 1 28.2027 33.5516 8.77896 12 10.9596954437 1.7557275512 13.971529095
1621 1 31.7617 31.7434 7.08718 12 11.0199682863 1.7662584665 15.6365684861
1622 1 33.5539 33.4321 7.05133 12 11.1509303512 1.7768144766 17.2075934495
1623 1 33.5546 31.8692 8.87251 12 10.7597039183 1.7704920711 15.0911777242
1624 1 31.7876 33.5759 8.80192 12 11.2521720657 1.7675879573 15.2353469271
1625 1 35.2632 31.8062 6.9324 12 11.0481540345 1.7710609505 17.3105201006
1626 1 37.0725 33.5195 7.08377 12 11.1505222774 1.7611282389 18.9194602666
1627 1 37.1411 31.7383 8.85466 12 10.9528060473 1.7710609505 16.827988729
1628 1 35.3492 33.5634 8.76903 12 10.9897408598 1.7710609505 16.9021027442
1629 1 38.8586 31.9476 7.1606 12 10.9508864632 1.7298279407 19.0604342923
1630 1 40.5703 33.5523 7.02019 12 11.1770620635 1.7732920312 20.8349160029
1631 1 40.6527 31.8285 8.83522 12 10.871768961 1.7667216907 18.9526228234
1632 1 38.8556 33.6453 8.83753 12 10.8701129756 1.7645771285 18.6625637621
1633 1 42.3982 35.3574 7.01076 12 11.1461824863 1.7731955287 22.7572342538
1634 1 1.73465 37.0632 6.97882 12 11.0349345513 1.763586571 24.7302469621
1635 1 1.78959 35.294 8.7142 12 11.1370408859 1.7640293555 22.9183194795
1636 1 0.11985 37.0996 8.72247 12 11.2736360295 1.7602989246 22.7409599011
1637 1 3.63791 35.4027 6.99852 12 11.0380938773 1.7703763957 22.9494310688
1638 1 5.41176 37.1446 6.93641 12 11.1898269262 1.7598353679 22.90732034
1639 1 5.31963 35.4096 8.87983 12 10.9673875283 1.7642110075 20.8458784542
1640 1 3.55179 37.0809 8.76986 12 11.6151445937 1.7838242737 22.9191377974
1641 1 7.06283 35.359 7.14115 12 11.1282885874 1.7389331069 20.8441011543
1642 1 8.86383 37.1553 7.08311 12 11.2993227308 1.7550959915 21.028955566
1643 1 8.79166 35.3156 8.82776 12 11.1120592872 1.7421635216 18.8937043758
1644 1 7.0941 37.2003 8.83022 12 10.8947868967 1.7387127243 20.8540634738
1645 1 10.6469 35.3507 7.1229 12 11.1933813152 1.7770011228 19.1638788502
1646 1 12.3027 37.0766 7.09811 12 11.0583615514 1.7890838836 19.507298461
1647 1 12.3782 35.3231 8.80513 12 10.8667069856 1.7628706051 17.2400402506
1648 1 10.6098 37.1848 8.84006 12 10.5202935413 1.7345902062 19.0197748868
1649 1 14.1688 35.269 7.04764 12 11.2234241718 1.7890838836 17.8639974315
1650 1 15.8788 37.1783 7.05284 12 11.0938977796 1.7890033904 18.5954601224
1651 1 15.8414 35.3912 8.81547 12 11.0526266279 1.7622988316 16.1824200518
1652 1 14.1322 37.1388 8.84367 12 10.8882559939 1.7890838836 17.6715114784
1653 1 17.6185 35.3694 7.01549 12 11.0471839785 1.7622988316 17.1493274892
1654 1 19.3948 37.1061 6.99561 12 11.1056774541 1.759435023 17.9516739964
1655 1 19.363 35.2901 8.77899 12 11.5661848211 1.7641627904 15.4695254072
1656 1 17.6278 37.0765 8.71103 12 10.9222775331 1.7770327276 16.9737316457
1657 1 21.1563 35.2115 6.95172 12 11.3024771232 1.7608743827 16.398888175
1658 1 22.8744 36.9984 6.93739 12 10.7224643606 1.7442766251 17.2051356205
1659 1 22.8774 35.3187 8.72283 12 11.079776538 1.7641627904 14.7750970741
1660 1 21.244 37.1584 8.703 12 11.3962216619 1.7641627904 16.2918007823
1661 1 24.6448 35.344 7.03684 12 11.0462994785 1.7551172301 16.0017126853
1662 1 26.4847 37.1871 7.00791 12 10.9839940721 1.7565772627 17.2523445888
1663 1 26.4072 35.4648 8.7341 12 10.9012833383 1.753291737 14.8264171673
1664 1 24.6219 37.1524 8.64002 12 10.8741731425 1.753291737 15.9445989151
1665 1 28.1593 35.32 7.07124 12 11.1071669663 1.7857988201 16.312818509
1666 1 29.9357 37.2156 7.07944 12 11.3325948334 1.7857988201 17.8912574224
1667 1 30.0163 35.3894 8.84683 12 11.297772586 1.7857988201 15.5122933916
1668 1 28.1953 37.0952 8.8315 12 10.972551591 1.7511531572 16.1328912622
1669 1 31.7954 35.328 7.138 12 11.3956279038 1.7834234521 17.3874522765
1670 1 33.5925 37.1393 7.01575 12 10.8624000412 1.7692121145 19.2465936082
1671 1 33.5584 35.421 8.8383 12 11.1848122533 1.7768144766 16.9827717003
1672 1 31.8793 37.1898 8.83357 12 11.128487673 1.7463344863 17.3413418749
1673 1 35.3877 35.3054 7.08528 12 11.2284875356 1.7768144766 19.0162718625
1674 1 37.1163 37.1531 7.00459 12 11.3465756609 1.7737139125 20.8889900419
1675 1 37.0738 35.3324 8.85339 12 10.9831319574 1.7649214826 18.6243646691
1676 1 35.3086 37.1458 8.77298 12 11.0495171469 1.7647499298 18.8135408552
1677 1 38.7642 35.3556 7.05039 12 11.513165168 1.7732920312 20.6978628753
1678 1 40.5948 37.0924 7.06987 12 11.2806484549 1.7732920312 22.5748932379
1679 1 40.6277 35.3567 8.77769 12 11.1755977701 1.7712763851 20.5909398243
1680 1 38.8451 37.1696 8.74309 12 10.9545386249 1.7649214826 20.6607870955
1681 1 42.3918 38.9076 6.95204 12 11.2570091245 1.763586571 24.6744747114
1682 1 1.65351 40.686 6.95153 12 11.2039030478 1.7606459457 26.7151887906
1683 1 1.74581 39.0267 8.85183 12 11.4046205762 1.7775152033 24.7919594365
1684 1 42.3461 40.5679 8.81353 12 11.14101185 1.7742256418 24.6551992627
1685 1 3.45957 38.9273 7.00621 12 11.4758826103 1.7775152033 25.0000578353
1686 1 5.21888 40.5782 7.18774 12 11.1228379243 1.7378071444 24.8177217261
1687 1 5.2894 38.8621 8.86611 12 11.1637404751 1.7775152033 22.8292088454
1688 1 3.48897 40.6717 8.89497 12 10.8634956481 1.7759953526 24.9757900736
1689 1 7.00256 38.9755 7.05097 12 11.1369704611 1.7872161276 23.0003715904
1690 1 8.74649 40.6812 6.93557 12 11.1381239214 1.7869133797 23.2340628288
1691 1 8.9076 38.8978 8.71012 12 10.9575081964 1.7551574179 20.9399239978
1692 1 7.07598 40.6052 8.94504 12 11.1612454146 1.7558160616 22.814455117
1693 1 10.6084 38.8751 6.97928 12 11.1744364568 1.7898842475 21.2910482047
1694 1 12.4646 40.6304 6.98027 12 11.1749223761 1.7898842475 21.7452937254
1695 1 12.3199 38.8306 8.76752 12 10.7731886439 1.7570221672 19.4021614235
1696 1 10.5538 40.6884 8.8945 12 11.1511681495 1.7898842475 21.2540969302
1697 1 14.1212 38.8434 6.97655 12 10.8670842326 1.7890838836 20.107464012
1698 1 15.7887 40.5977 6.94022 12 10.9980150328 1.7482818333 20.955144823
1699 1 15.8534 38.886 8.78224 12 10.9316973634 1.7775113007 18.4690354037
1700 1 14.1869 40.5724 8.66294 12 10.6877265673 1.7242247249 20.1100593844
1701 1 17.6631 38.901 6.95543 12 11.0642100268 1.7773895632 19.4623523201
1702 1 19.4329 40.6838 7.04653 12 11.2657833502 1.7709199992 20.3115208667
1703 1 19.4057 38.8337 8.69536 12 11.393803161 1.786104961 17.9056797154
1704 1 17.6225 40.6793 8.76416 12 11.0926281951 1.7775113007 19.5444661449
1705 1 21.3484 38.8066 7.02622 12 10.9523428444 1.7497634412 18.5743390283
1706 1 23.0404 40.6401 6.93022 12 11.0847490011 1.7650042495 19.7278867216
1707 1 22.948 38.9153 8.79538 12 10.8472398475 1.7477600691 17.2219392227
1708 1 21.1643 40.6769 8.73681 12 11.1305173065 1.7497634412 18.8762776856
1709 1 24.7605 38.8768 7.00797 12 11.0774158016 1.7566708693 18.3167773045
1710 1 26.5215 40.7954 7.03044 12 11.0240015871 1.7568841779 19.777734294
1711 1 26.5084 38.9647 8.7566 12 11.0744882554 1.7568841779 17.2734136005
1712 1 24.688 40.6492 8.80513 12 10.9038644623 1.7620712124 18.4641661943
1713 1 28.3041 39.0579 6.94336 12 10.9909605756 1.7568841779 18.8230393919
1714 1 30.0306 40.7189 7.05775 12 11.6411798283 1.8073649425 20.3154271069
1715 1 29.97 38.8518 8.7783 12 11.266683385 1.7684194497 17.8578447543
1716 1 28.1667 40.7003 8.78518 12 10.8973374779 1.7685782714 18.8236325838
1717 1 31.8136 38.8044 6.95444 12 11.3490654595 1.7727490902 19.6084259153
1718 1 33.5603 40.6855 7.07802 12 11.156672385 1.771803806 21.4192502745
1719 1 33.5348 38.9626 8.86772 12 11.2866307756 1.740819543 19.1048430289
1720 1 31.7359 40.634 8.83312 12 11.5083751124 1.7884174564 19.6769436479
1721 1 35.2181 38.8196 7.04055 12 11.0217149437 1.787208312 20.9045424231
1722 1 36.9187 40.6475 7.05408 12 11.2879103266 1.7733602362 22.8030830214
1723 1 37.0084 38.8562 8.86089 12 11.0493291517 1.7649214826 20.6483475956
1724 1 35.3723 40.7006 8.85973 12 11.0923302271 1.7689541082 21.0537835015
1725 1 38.9802 38.8601 7.07964 12 11.2521335782 1.7634877151 22.7573207972
1726 1 40.6979 40.6432 6.93737 12 11.1516037559 1.7605824718 24.825981514
1727 1 40.6166 38.8761 8.78911 12 10.8109254043 1.7602989246 22.6267270023
1728 1 38.8027 40.5579 8.75347 12 11.0171115517 1.7306393741 22.7390762788
1729 1 42.3636 42.3877 10.5939 12 11.1453743108 1.7711537179 24.4504865278
1730 1 1.6597 1.82481 10.6012 12 11.2866487178 1.7593016142 24.366144512
1731 1 1.7575 0.00169701 12.3401 12 11.0690896672 1.7543218233 24.6860481659
1732 1 42.3694 1.84701 12.3591 12 11.1208538056 1.7529591398 22.3718604993
1733 1 3.50342 42.352 10.512 12 10.7817404939 1.7389709689 24.626562927
1734 1 5.37298 1.78099 10.4988 12 11.0546848698 1.7631605764 22.3997892623
1735 1 5.22888 0.0231357 12.188 12 10.7320574693 1.7409636837 22.7597428473
1736 1 3.4567 1.71096 12.3039 12 10.9075029149 1.7399892231 22.617931783
1737 1 6.99751 -0.0103086 10.5698 12 10.846580316 1.750103171 22.667960477
1738 1 8.78617 1.76713 10.7125 12 11.0891985036 1.7634168623 20.4388198823
1739 1 8.87341 -0.027006 12.381 12 11.1849664232 1.7564700246 20.8723103006
1740 1 7.03567 1.70648 12.3727 12 11.0013629079 1.7545338156 20.5579244328
1741 1 10.6005 42.3786 10.4983 12 11.2513482103 1.7607817448 20.984755882
1742 1 12.369 1.73899 10.6465 12 11.0840175766 1.7840034809 18.8289205693
1743 1 12.3319 42.4094 12.2963 12 11.6086776673 1.7682685793 19.3596083636
1744 1 10.5111 1.72114 12.3642 12 11.0070657202 1.7620906965 18.7947317752
1745 1 14.0565 0.0285471 10.4318 12 10.978814219 1.7676423344 19.6575853617
1746 1 15.892 1.70893 10.5444 12 10.6626227878 1.7460494336 17.7654190238
1747 1 15.8645 0.0234957 12.2391 12 11.0497401021 1.7682685793 18.0988785411
1748 1 14.1861 1.77091 12.287 12 11.0138152215 1.7682685793 17.2750813083
1749 1 17.5935 0.0826196 10.5425 12 10.6116130601 1.7423631928 18.5762756645
1750 1 19.4054 1.57027 10.4791 12 10.7890903524 1.7643408218 17.2001576855
1751 1 19.5195 0.0053915 12.3041 12 10.7560407539 1.7524076249 17.3563279227
1752 1 17.7748 1.7356 12.3005 12 10.936646144 1.7565580652 16.2126591222
1753 1 21.1122 42.36 10.5483 12 10.7903602334 1.7616129357 18.3498479989
1754 1 22.9433 1.69715 10.7091 12 10.9736783646 1.7741375303 16.7848371134
1755 1 22.9167 -0.0366568 12.2849 12 10.8038710729 1.7620065936 17.3737656342
1756 1 21.1802 1.63318 12.356 12 10.7462350773 1.7532895262 15.8969368458
1757 1 24.735 42.349 10.6111 12 10.8719325563 1.7751261022 18.3573001095
1758 1 26.502 1.702 10.5354 12 11.1985447537 1.7837133719 17.1447893243
1759 1 26.4718 0.118058 12.3143 12 10.601386501 1.7547899703 17.2924526951
1760 1 24.6305 1.67636 12.3648 12 10.8586192029 1.7751261022 15.8952249296
1761 1 28.2973 0.0310387 10.5982 12 10.6498025132 1.753499595 18.6301566299
1762 1 29.9565 1.71743 10.6031 12 10.8815728032 1.746655084 17.6759948777
1763 1 29.9722 42.4263 12.4299 12 10.8824464462 1.7727367643 18.0016515012
1764 1 28.2509 1.75274 12.4573 12 11.1326614218 1.7641334497 16.1668383136
1765 1 31.7872 -0.00308265 10.6702 12 11.1881333326 1.7819084322 19.4543099053
1766 1 33.5214 1.82021 10.6063 12 10.9463976145 1.7721971272 18.6625799359
1767 1 33.6227 -8.86529e-04 12.4024 12 10.75665525 1.7742487993 19.1731765256
1768 1 31.7645 1.68136 12.3859 12 10.8753210824 1.7542218877 17.2112136862
1769 1 35.3261 42.4107 10.6323 12 11.1875655392 1.7721971272 20.7718841629
1770 1 37.0566 1.83548 10.6779 12 10.8563532827 1.7692653157 20.2426395925
1771 1 37.0946 -0.0119264 12.4044 12 11.0124833588 1.7566516589 20.7145244894
1772 1 35.3625 1.67657 12.3272 12 11.0075670763 1.7691595861 18.6833676496
1773 1 38.7615 -0.00262507 10.6707 12 11.3040364282 1.7644745848 22.4138228951
1774 1 40.6551 1.66192 10.5307 12 11.2207587602 1.7747702162 22.429474416
1775 1 40.713 42.3289 12.3189 12 11.1798139097 1.7913182126 22.7131234682
1776 1 38.9055 1.79785 12.3712 12 10.9977769993 1.7454327939 20.4108275031
1777 1 42.272 3.49392 10.5316 12 10.8176219371 1.7314405952 22.3229096664
1778 1 1.78665 5.19417 10.569 12 10.9923573438 1.7599256497 22.5521558887
1779 1 1.80045 3.57185 12.3468 12 10.6233352229 1.7325814663 22.5704853686
1780 1 0.0131542 5.17282 12.2458 12 11.0545548232 1.7517483495 20.6177293029
1781 1 3.51594 3.56 10.7777 12 11.1603060148 1.7841093035 22.2822365186
1782 1 5.26753 5.33983 10.5829 12 11.288491154 1.7639396144 20.2940432208
1783 1 5.35391 3.44499 12.4099 12 11.2423475683 1.7639396144 20.34860809
1784 1 3.57973 5.33518 12.4435 12 10.9869807757 1.7546027541 20.3476096729
1785 1 7.10054 3.47562 10.5759 12 10.9207218055 1.7636384357 20.3394927587
1786 1 8.91172 5.28713 10.6124 12 11.0399905563 1.7634168623 18.1990587594
1787 1 8.85767 3.55693 12.3804 12 11.0735757533 1.7627445609 18.3388110478
1788 1 7.0741 5.22492 12.3178 12 11.3055758854 1.7580239327 18.3374959919
1789 1 10.6443 3.55395 10.5232 12 11.1018444255 1.7634168623 18.3841410466
1790 1 12.3552 5.32973 10.6527 12 11.1606543578 1.7766756688 16.34724721
1791 1 12.236 3.51323 12.3177 12 11.2468513671 1.7699344393 16.6889327511
1792 1 10.6067 5.33259 12.505 12 10.8997903306 1.7421527622 16.1619189729
1793 1 14.0967 3.42719 10.509 12 11.090483161 1.7766756688 17.0504908095
1794 1 15.9139 5.25706 10.5593 12 11.0904495633 1.7765068242 15.196125326
1795 1 15.8673 3.44718 12.3112 12 10.9384461719 1.7460494336 15.419072555
1796 1 14.243 5.2363 12.3843 12 11.3073333027 1.7766756688 14.5736691623
1797 1 17.6897 3.44024 10.7009 12 11.2207606613 1.751121947 15.9680569186
1798 1 19.5114 5.2985 10.487 12 11.1174635096 1.7691500959 14.4566349021
1799 1 19.4533 3.43834 12.446 12 11.2389616126 1.7691500959 14.5160265367
1800 1 17.6466 5.27629 12.3906 12 11.4900335213 1.7691500959 13.5487820145
1801 1 21.1139 3.41625 10.566 12 11.3583119418 1.7649702867 15.6192403272
1802 1 22.9551 5.27726 10.6282 12 10.9028274315 1.7639567829 14.1034491488
1803 1 22.8762 3.48745 12.3389 12 11.0382308243 1.7649702867 14.3812928772
1804 1 21.1679 5.32333 12.383 12 11.1490766709 1.7691500959 12.9913597584
1805 1 24.6476 3.48202 10.5559 12 11.0997322724 1.7820642508 15.5588866394
1806 1 26.4351 5.26892 10.5482 12 11.2596529306 1.7898118813 14.4116032643
1807 1 26.4133 3.51169 12.3865 12 11.6219024624 1.7837133719 14.5759011225
1808 1 24.6934 5.33071 12.2914 12 10.8796151646 1.7524958128 13.0484534586
1809 1 28.2999 3.50301 10.5244 12 11.1260920296 1.7837133719 16.0609607561
1810 1 29.98 5.22944 10.6247 12 10.9730614909 1.7640376432 15.0755178849
1811 1 30.0717 3.45848 12.3038 12 10.9639637685 1.7631445849 15.3573496584
1812 1 28.2523 5.26726 12.3645 12 11.3050410452 1.7641334497 13.5575774816
1813 1 31.7557 3.47426 10.6284 12 11.0121742645 1.7569488707 16.8154015963
1814 1 33.5464 5.31854 10.6128 12 11.3297700385 1.7773257933 16.2627444837
1815 1 33.5152 3.47969 12.3756 12 11.1666081676 1.774511792 16.4858718624
1816 1 31.7138 5.25958 12.3144 12 11.2173254333 1.7902306791 14.5008040055
1817 1 35.2882 3.49978 10.6442 12 10.8766684045 1.771946691 18.2387375063
1818 1 37.1667 5.42004 10.6237 12 11.0191946773 1.7770934248 18.0986989651
1819 1 37.2321 3.53383 12.3219 12 10.8508204397 1.7514282686 18.3675302735
1820 1 35.3854 5.10267 12.3848 12 11.3087317605 1.7987988025 16.2900894247
1821 1 38.8599 3.54983 10.5477 12 10.9976583636 1.747795429 20.2311667507
1822 1 40.591 5.28963 10.4729 12 11.0403914929 1.7510950421 20.3447303185
1823 1 40.6699 3.56054 12.259 12 10.8305859854 1.752832528 20.3504262664
1824 1 38.8788 5.26301 12.391 12 11.0483586061 1.763016332 18.2218712421
1825 1 0.0599373 7.00812 10.5369 12 11.1195949437 1.7597827564 20.6238588027
1826 1 1.82686 8.84138 10.5863 12 11.1873676899 1.7582299048 20.7216570507
1827 1 1.7563 7.02492 12.3207 12 11.1488127634 1.7599256497 20.6756511711
1828 1 42.4052 8.75369 12.3346 12 11.0643367042 1.7463699742 18.790747203
1829 1 3.5917 7.06004 10.6049 12 10.9281283728 1.7599256497 20.3661155648
1830 1 5.15798 8.81289 10.6702 12 10.8516441614 1.7504059599 18.3996514851
1831 1 5.2709 7.16023 12.3921 12 10.9025623477 1.7592850793 18.2775769333
1832 1 3.53771 8.77845 12.4297 12 10.7866648198 1.7497472748 18.5284015329
1833 1 7.168 7.06493 10.6384 12 11.2043506385 1.7592850793 18.1367009225
1834 1 8.96568 8.85578 10.5998 12 10.7660235917 1.73331052 16.134771049
1835 1 8.88877 7.03819 12.4511 12 11.2631008242 1.7576255547 16.1408164655
1836 1 7.16007 8.85436 12.3936 12 11.0202300776 1.7592850793 16.1361003108
1837 1 10.6037 7.12197 10.6195 12 10.9825773837 1.740797195 16.2008749849
1838 1 12.379 8.81041 10.6077 12 11.169223608 1.7632392258 14.4027849013
1839 1 12.4048 6.99162 12.3773 12 10.9214004194 1.754872814 14.2238873541
1840 1 10.7066 8.78838 12.4221 12 11.1031980062 1.7357503454 14.0890723119
1841 1 14.1709 7.07708 10.6157 12 11.1068815538 1.7758752071 14.5399039199
1842 1 15.9022 8.89924 10.5923 12 10.9471487519 1.7632392258 12.8775805359
1843 1 15.9059 7.14137 12.3435 12 11.1105302821 1.7657778548 12.7061888313
1844 1 14.1344 8.83771 12.4213 12 11.0607536461 1.7632392258 12.2701826683
1845 1 17.5759 6.99493 10.5778 12 10.958267345 1.7675383175 13.5391727222
1846 1 19.3557 8.84471 10.5776 12 11.1977170829 1.7836917231 11.9394779682
1847 1 19.4318 7.04532 12.3307 12 11.3452869 1.7836917231 11.9697845292
1848 1 17.6548 8.78456 12.2821 12 11.1457481364 1.7834183964 11.1464471088
1849 1 21.1446 7.17423 10.5621 12 10.9301567532 1.7660759631 12.9100960082
1850 1 23.0429 8.92395 10.5429 12 10.9332373911 1.7522367769 11.8367672389
1851 1 22.8844 7.09766 12.2469 12 10.5953770137 1.7522367769 11.6727700254
1852 1 21.2412 8.78043 12.3852 12 11.0935630394 1.7836917231 10.4801140338
1853 1 24.578 7.11054 10.5487 12 10.9809976211 1.7898118813 12.9462458984
1854 1 26.45 8.8585 10.6212 12 10.919576477 1.7890447912 11.8520612631
1855 1 26.4544 6.96489 12.3702 12 10.9971204987 1.7888765434 11.9657058363
1856 1 24.7525 8.82394 12.3065 12 10.7250825998 1.7522367769 10.4992051187
1857 1 28.1503 7.17891 10.5927 12 11.053719118 1.7898118813 13.2995756562
1858 1 29.9874 8.93865 10.4794 12 10.9728890865 1.7629844904 12.8544431707
1859 1 29.9148 7.17279 12.1684 12 11.2321748827 1.7505911048 12.6821658176
1860 1 28.1574 8.9135 12.3937 12 10.7284372911 1.738715219 10.8888439134
1861 1 31.7832 7.0487 10.7087 12 11.0170818004 1.7629844904 14.4094393277
1862 1 33.555 8.83283 10.633 12 10.9670641455 1.7611801917 14.2969807933
1863 1 33.4973 7.01907 12.4813 12 11.3488006328 1.7987988025 14.0210212317
1864 1 31.6846 8.87461 12.3808 12 11.1298715011 1.7627926913 12.1350888527
1865 1 35.2762 7.12426 10.6344 12 11.3721941272 1.7987988025 16.068597459
1866 1 37.1285 8.81015 10.6849 12 11.0438811681 1.778249962 16.2324908149
1867 1 37.0959 7.11483 12.4544 12 11.1604688998 1.7983048321 16.0773967993
1868 1 35.318 8.73735 12.5043 12 11.0381715361 1.7972892791 14.0836906291
1869 1 38.8764 7.04574 10.6582 12 10.8068653139 1.7611202578 18.229366773
1870 1 40.7204 8.76686 10.6246 12 10.8023033514 1.7563239762 18.4862956976
1871 1 40.7139 7.05591 12.3315 12 11.0806369571 1.7595526304 18.4349454637
1872 1 39.0518 8.77233 12.3486 12 10.9145771868 1.763016332 16.439693057
1873 1 0.0235591 10.5616 10.6234 12 11.0965927711 1.7625974669 18.9273877045
1874 1 1.80427 12.4368 10.6347 12 11.2872424624 1.7784418993 19.4400486236
1875 1 1.65698 10.6022 12.3213 12 11.0476301407 1.7305867557 19.1669569584
1876 1 42.3607 12.4229 12.3296 12 10.9571832208 1.7413259728 17.2874825865
1877 1 3.52529 10.7033 10.6359 12 11.0541531818 1.7534747664 18.7245852832
1878 1 5.42703 12.3962 10.6046 12 11.1327418872 1.7665046375 16.7539342146
1879 1 5.31209 10.5479 12.3413 12 11.0493535735 1.7221151372 16.5445721533
1880 1 3.55521 12.4075 12.3632 12 11.1432332477 1.775121992 17.1136097422
1881 1 7.11182 10.5927 10.6569 12 10.8075167562 1.7573767256 16.290705785
1882 1 8.83792 12.3159 10.6595 12 10.8805646867 1.774118058 14.5037601635
1883 1 8.89148 10.459 12.3463 12 10.6733826081 1.7280499152 14.2161019846
1884 1 7.15373 12.2766 12.3872 12 10.8084946945 1.7420367419 14.493955553
1885 1 10.6104 10.563 10.5568 12 10.7662684993 1.7740371716 14.4193130139
1886 1 12.3801 12.4661 10.5767 12 11.0519777504 1.774118058 12.6349826864
1887 1 12.3607 10.6751 12.3565 12 11.0785012196 1.7571688119 12.2303301437
1888 1 10.5734 12.198 12.3924 12 11.1713671632 1.774118058 12.3465848634
1889 1 14.2323 10.6339 10.6565 12 11.2310717065 1.7632392258 12.5435620014
1890 1 15.8903 12.3712 10.656 12 11.0743002666 1.7704698394 10.995862195
1891 1 15.9833 10.6001 12.4203 12 11.04817659 1.7703921401 10.5524319963
1892 1 14.1583 12.4222 12.4443 12 11.0711439533 1.7666199835 10.388135646
1893 1 17.7558 10.6968 10.5915 12 10.9854714063 1.7630045388 11.2564617235
1894 1 19.4726 12.3502 10.6428 12 10.8176225317 1.7743867107 10.0533757799
1895 1 19.5016 10.6135 12.3874 12 10.9101755603 1.783655866 9.4337532573
1896 1 17.7745 12.467 12.2033 12 10.8701936379 1.7704698394 9.079577138
1897 1 21.1518 10.6598 10.6557 12 11.1733525215 1.7724969448 10.6738685432
1898 1 22.9528 12.3381 10.5793 12 11.0936947467 1.7733735226 10.0778612966
1899 1 22.961 10.5931 12.4132 12 10.8255790552 1.7522367769 9.3517877318
1900 1 21.2665 12.2788 12.4226 12 10.6139462347 1.7574502944 8.3308215451
1901 1 24.7523 10.5828 10.5232 12 10.7442354547 1.727851713 10.8304827514
1902 1 26.5396 12.2675 10.5747 12 10.8958789559 1.7791619006 10.1412627494
1903 1 26.4601 10.5584 12.3737 12 10.6557996497 1.7782447401 9.4516174299
1904 1 24.6783 12.2765 12.2981 12 10.9588784752 1.7791619006 8.4490675123
1905 1 28.2359 10.6337 10.6441 12 10.8128395938 1.7362957678 11.2148227764
1906 1 30.0892 12.356 10.5888 12 10.8374937685 1.7707744817 11.1988058171
1907 1 29.9096 10.5816 12.3653 12 10.7038779686 1.7481833187 10.5278510431
1908 1 28.2474 12.2803 12.3468 12 10.789516531 1.7790505593 9.0526462903
1909 1 31.8752 10.5649 10.5497 12 10.9064506091 1.7629844904 12.7953626398
1910 1 33.5872 12.3725 10.6217 12 10.9622718495 1.7515397506 12.7804646009
1911 1 33.5479 10.6304 12.3735 12 10.8968136253 1.7772520485 12.2142801089
1912 1 31.79 12.3201 12.2978 12 10.7003991493 1.7507271952 10.6512258942
1913 1 35.2662 10.5088 10.6951 12 11.228471835 1.7465539551 14.3693624376
1914 1 37.0721 12.2859 10.6806 12 11.4108565543 1.7465685655 14.5819825226
1915 1 37.183 10.461 12.3808 12 11.2835848267 1.7461839284 14.3528754467
1916 1 35.3035 12.3444 12.4721 12 11.0997870161 1.7465685655 12.2783136721
1917 1 38.897 10.4921 10.6161 12 11.0359510534 1.7948982701 16.4937570266
1918 1 40.6376 12.264 10.4782 12 11.1076155017 1.7626262651 17.0672429765
1919 1 40.6622 10.5952 12.4426 12 11.0983281654 1.7563239762 16.6079825429
1920 1 38.9394 12.3706 12.3501 12 11.3113508434 1.7581567397 14.683720183
1921 1 -0.0459945 14.1446 10.5925 12 11.3135655265 1.7626262651 17.811527985
1922 1 1.77485 15.8641 10.5218 12 11.1893962854 1.7589830697 18.711263231
1923 1 1.6984 14.2473 12.3646 12 11.1528796503 1.7364657425 18.066305711
1924 1 42.2388 15.8952 12.367 12 10.9439885265 1.740560486 16.2446024903
1925 1 3.56187 14.2358 10.5721 12 11.1776927071 1.7592955087 17.6686662621
1926 1 5.42251 15.9157 10.5292 12 11.1435259862 1.7608320142 15.9804471998
1927 1 5.39542 14.1253 12.2761 12 11.0544831135 1.74322914 15.2787471029
1928 1 3.51923 16.0096 12.3119 12 11.1200862022 1.7608320142 16.2528517651
1929 1 7.18716 14.1054 10.6598 12 10.8170872499 1.7567468073 14.9798171067
1930 1 8.86626 15.8404 10.6434 12 10.8666831533 1.7306224721 13.5131816134
1931 1 8.87045 14.0749 12.4144 12 11.0681034862 1.7420367419 12.6553060089
1932 1 7.09198 15.8579 12.3675 12 10.9329831707 1.7833052419 13.5524015763
1933 1 10.5941 14.2194 10.5783 12 11.1770828727 1.774118058 12.9248727378
1934 1 12.3041 16.0139 10.6466 12 11.1938730911 1.7677367056 11.3999424636
1935 1 12.2915 14.159 12.3235 12 11.4573358417 1.7878281564 10.685483893
1936 1 10.5155 15.9438 12.4787 12 11.0750553594 1.7915463467 11.0714197258
1937 1 14.1272 14.1526 10.677 12 11.1374557187 1.7577688161 11.0514773845
1938 1 15.9659 15.8683 10.5534 12 10.9003107343 1.7534663055 9.8967215596
1939 1 16.044 14.1664 12.4187 12 11.0753359563 1.7704698394 8.7291716693
1940 1 14.1122 15.8969 12.3536 12 11.1832551664 1.7707174918 9.1490051168
1941 1 17.7379 14.2103 10.5762 12 10.8084747882 1.7742367012 9.7898276544
1942 1 19.4875 15.8903 10.5333 12 10.8994238827 1.7743867107 9.1621335885
1943 1 19.5224 14.1633 12.4671 12 10.8982964625 1.7743867107 7.7332132366
1944 1 17.7598 15.9536 12.3375 12 10.9253386223 1.7442902656 7.6625380116
1945 1 21.285 14.1482 10.5639 12 11.1768350735 1.7743867107 9.3922064663
1946 1 23.0154 15.8746 10.636 12 11.0010472177 1.7720354293 8.827975693
1947 1 23.0247 14.1019 12.3274 12 11.0287580749 1.7718902308 7.7643979157
1948 1 21.175 15.8592 12.4369 12 10.9542229287 1.7720354293 7.1891127898
1949 1 24.8095 13.9255 10.5641 12 11.1532868692 1.7554937543 9.4638985262
1950 1 26.4945 15.943 10.5799 12 11.2702865431 1.778202299 9.2111639015
1951 1 26.5058 14.1589 12.3533 12 11.3709459753 1.7791619006 7.8591770048
1952 1 24.7258 15.8224 12.3663 12 11.2870701883 1.7720906128 7.2818121912
1953 1 28.3133 14.0739 10.6466 12 11.0400794062 1.7717639998 9.912052545
1954 1 29.979 15.9208 10.5663 12 11.1435785378 1.7717639998 9.9854655972
1955 1 30.0425 14.025 12.36 12 10.7334062029 1.7715851999 9.0539388975
1956 1 28.4187 15.9033 12.353 12 11.3604078327 1.7799634967 7.8397450363
1957 1 31.8511 14.0691 10.538 12 10.8736432238 1.7717639998 11.3289683766
1958 1 33.4997 15.8523 10.461 12 11.1610599541 1.7784613267 11.5837061166
1959 1 33.5574 14.0688 12.3493 12 10.8120943983 1.7784613267 10.7578027428
1960 1 31.7634 15.7425 12.2764 12 11.0710992519 1.7782663604 9.3122348083
1961 1 35.2949 14.1484 10.6113 12 11.1801982503 1.7646712414 12.9841536143
1962 1 37.2553 15.9861 10.6014 12 10.916011358 1.7593132827 13.6833072205
1963 1 37.0523 14.1874 12.3961 12 11.3811212731 1.7595212283 12.7312637329
1964 1 35.3345 15.9654 12.2844 12 11.2979165414 1.7784613267 11.2211455334
1965 1 38.8841 14.1571 10.5843 12 11.0131547305 1.7626262651 15.2227586378
1966 1 40.5891 15.9816 10.736 12 10.8770092871 1.7601371106 16.0135297064
1967 1 40.5836 14.0673 12.3699 12 10.8092133142 1.7625221416 15.3830729752
1968 1 38.8478 15.8786 12.4425 12 10.8030309312 1.7596448236 13.6242776622
1969 1 42.3656 17.673 10.5626 12 10.8768054764 1.762367036 17.1983665201
1970 1 1.65558 19.3767 10.5271 12 11.1870094319 1.7788379252 18.4140091525
1971 1 1.73487 17.605 12.3106 12 11.2342900094 1.7788379252 17.4329541446
1972 1 42.3075 19.3939 12.3775 12 11.1025670938 1.7788379252 15.8764727648
1973 1 3.53702 17.7881 10.5047 12 11.1523572435 1.7608320142 17.1261955812
1974 1 5.27902 19.3253 10.5897 12 10.9396083216 1.733307628 15.716681464
1975 1 5.30476 17.5585 12.3658 12 11.0380004104 1.7833975687 14.6065697327
1976 1 3.4333 19.4112 12.2448 12 11.013857237 1.7787527589 16.0045110529
1977 1 7.11126 17.6785 10.5367 12 11.0034249581 1.7833975687 14.5869461608
1978 1 8.71532 19.5036 10.7402 12 10.923905104 1.76792605 13.1525010007
1979 1 8.86868 17.6666 12.3247 12 11.0860128051 1.7919950751 12.0901072713
1980 1 7.11969 19.4231 12.4661 12 10.9903243964 1.7833975687 13.087506901
1981 1 10.5644 17.6585 10.5275 12 11.1292154533 1.7919950751 12.1712869779
1982 1 12.3792 19.3465 10.6566 12 10.9342439669 1.762607865 10.8200771298
1983 1 12.4479 17.7189 12.4188 12 11.0436601601 1.7919950751 9.5345262315
1984 1 10.6848 19.5338 12.303 12 11.2416246795 1.7919950751 10.656967782
1985 1 14.1671 17.607 10.6419 12 10.7788122154 1.7536414816 10.098298486
1986 1 15.7768 19.4632 10.5732 12 11.0187857373 1.7702696503 9.4031217662
1987 1 15.9181 17.589 12.2981 12 11.2159476756 1.7696777848 7.93950377
1988 1 14.1114 19.4825 12.3232 12 11.0801533982 1.7863325602 8.478457981
1989 1 17.6872 17.6751 10.5583 12 10.9822985003 1.753658996 9.1211726579
1990 1 19.3817 19.5157 10.5642 12 11.0387969031 1.7753016417 8.6282741116
1991 1 19.5122 17.6016 12.2104 12 11.0696151058 1.8051001762 7.1688662798
1992 1 17.6876 19.4101 12.3125 12 10.988123595 1.7696777848 7.2607379115
1993 1 21.3253 17.5727 10.5514 12 11.093470386 1.753046708 8.6944102455
1994 1 22.9341 19.4952 10.5237 12 10.9082606012 1.7436148297 8.6693509883
1995 1 23.0146 17.6686 12.3202 12 11.2197807631 1.7720354293 6.9579729579
1996 1 21.1288 19.372 12.3437 12 11.058810168 1.7531401268 6.7758261974
1997 1 24.7315 17.6659 10.5315 12 10.9563830381 1.7523603058 8.7690967897
1998 1 26.4998 19.4967 10.4719 12 10.9716354617 1.7691057014 8.8714238164
1999 1 26.4641 17.7418 12.2582 12 11.5896436678 1.7836979883 7.2432330577
2000 1 24.7205 19.4828 12.1927 12 11.0674277791 1.7745316692 6.9981524084
2001 1 28.2338 17.696 10.5425 12 11.1297469855 1.7799389195 9.2830523998
2002 1 30.1076 19.4693 10.5962 12 11.0558079505 1.7511042828 9.5758777222
2003 1 30.0988 17.7575 12.2565 12 11.1587843447 1.7774349397 8.1354842156
2004 1 28.2557 19.4534 12.2752 12 11.3351429139 1.7826817603 7.5051459603
2005 1 31.8423 17.7498 10.6213 12 11.0783796448 1.7851089585 10.2548623168
2006 1 33.616 19.42 10.5411 12 10.9498513199 1.7421057982 11.0137807798
2007 1 33.514 17.6208 12.2931 12 11.2351943076 1.7784613267 9.6756086516
2008 1 31.9457 19.5116 12.3159 12 11.0042450342 1.7396992455 8.6396326372
2009 1 35.2999 17.7696 10.5898 12 10.9862262464 1.7490712358 12.0612425576
2010 1 36.9601 19.4668 10.5804 12 10.8013250693 1.74449543 13.0358592471
2011 1 37.016 17.7123 12.4057 12 10.8901129395 1.7596448236 11.9900510468
2012 1 35.3275 19.458 12.418 12 11.132656094 1.7610201322 10.5815319396
2013 1 38.7437 17.7433 10.6519 12 10.7832446223 1.7430281167 14.4146946776
2014 1 40.5473 19.4523 10.6922 12 11.0868680396 1.7651117419 15.5337262951
2015 1 40.4966 17.6742 12.3076 12 10.5927787457 1.7441575681 14.6639850798
2016 1 38.7443 19.3958 12.3897 12 10.7595337683 1.7431131764 13.0847696843
2017 1 -0.0190983 21.2799 10.7399 12 10.9892920144 1.7651117419 16.8449811998
2018 1 1.71728 22.7953 10.5822 12 11.1097134167 1.7749143378 18.2584033515
2019 1 1.5795 21.1492 12.4932 12 10.7328292706 1.7788379252 17.1579774516
2020 1 42.3446 22.9184 12.4112 12 10.6704206897 1.76019493 15.7068496774
2021 1 3.41664 21.1742 10.5493 12 11.0481487549 1.7713278389 17.1229419729
2022 1 5.26432 22.9286 10.5319 12 11.3174272544 1.7920600212 15.7848646029
2023 1 5.19818 21.0572 12.2255 12 11.0176331633 1.7452900261 14.6827965344
2024 1 3.48479 22.9154 12.3782 12 11.2630568631 1.7714291711 16.1385906496
2025 1 7.02816 21.1185 10.7179 12 11.1247893503 1.7923274811 14.2879801206
2026 1 8.8422 23.1163 10.6101 12 11.4836148771 1.7923274811 13.0878460294
2027 1 8.82098 21.3562 12.3102 12 10.9610328171 1.7631785784 11.8916974338
2028 1 6.9726 23.0373 12.4254 12 11.289039265 1.7923274811 13.2867348733
2029 1 10.5001 21.2579 10.5735 12 11.3389379911 1.7676961147 12.1067643426
2030 1 12.4194 22.9842 10.5465 12 10.9394051089 1.7509122562 10.9034335448
2031 1 12.3551 21.3068 12.3614 12 10.9833964569 1.7590756449 9.5785609482
2032 1 10.6626 23.1211 12.2674 12 11.1616375481 1.7623548037 10.6290968179
2033 1 14.009 21.2458 10.5849 12 10.9031327675 1.772877306 10.1844756303
2034 1 15.9372 23.0619 10.4868 12 11.2016623071 1.772877306 9.5649799734
2035 1 15.9006 21.2114 12.39 12 11.2558416634 1.772877306 7.738156722
2036 1 14.1813 23.0193 12.3899 12 10.9733795221 1.7596840452 8.4277451685
2037 1 17.5457 21.1525 10.5503 12 11.0451851903 1.772877306 8.99822528
2038 1 19.4142 22.9982 10.5455 12 11.2673925555 1.7682120305 8.8888277758
2039 1 19.4265 21.2316 12.2228 12 10.8476888068 1.7554149287 7.0608860702
2040 1 17.7456 22.9955 12.3124 12 11.2695036192 1.7554149287 7.3524020754
2041 1 21.2473 21.1828 10.6198 12 10.868386661 1.7568748232 8.5934683619
2042 1 22.971 22.9591 10.6178 12 11.0961912238 1.7770488193 8.6951951351
2043 1 22.8748 21.1479 12.3236 12 10.7024678226 1.7436148297 6.8477627394
2044 1 21.2001 22.9469 12.2297 12 10.8565364545 1.7767881434 7.1567454402
2045 1 24.7415 21.1884 10.5202 12 10.9376674811 1.7770488193 8.7606895262
2046 1 26.5202 23.0296 10.4671 12 10.9188311553 1.7770488193 9.0433068674
2047 1 26.422 21.2939 12.2522 12 11.0119432175 1.7745316692 7.1733820669
2048 1 24.6662 22.9559 12.2937 12 10.8322669132 1.7769465348 7.0260292915
2049 1 28.332 21.2635 10.6116 12 11.174438878 1.7692378898 9.0529162034
2050 1 30.0747 22.9596 10.7123 12 11.2484358771 1.7602953632 9.5003481064
2051 1 30.0765 21.2257 12.3671 12 11.0977393328 1.7537855281 7.938651818
2052 1 28.1681 23.0492 12.3917 12 10.8894181949 1.7602953632 7.4322297391
2053 1 31.9063 21.2207 10.5892 12 10.937666653 1.7503396308 10.3084842123
2054 1 33.5404 22.9312 10.5564 12 10.7925532 1.7644807439 11.0310815564
2055 1 33.5854 21.2899 12.4075 12 10.9392036283 1.7579018759 9.5329145823
2056 1 31.9106 22.9521 12.3581 12 10.7372998204 1.7421593318 8.6553795725
2057 1 35.313 21.2139 10.6406 12 11.0528279476 1.7651124535 11.9543369219
2058 1 37.0989 22.9917 10.6011 12 10.8473691922 1.7651124535 13.1383367429
2059 1 37.0931 21.212 12.3698 12 10.751467012 1.7548304761 11.7440989079
2060 1 35.2826 23.0138 12.3477 12 11.0632739601 1.7651124535 10.6349675075
2061 1 38.6772 21.2176 10.6205 12 10.9083182814 1.742783454 14.1019586251
2062 1 40.5843 22.9538 10.553 12 11.0025654319 1.7527725759 15.5620756486
2063 1 40.5383 21.268 12.3454 12 10.9387502622 1.7381770513 14.3726188065
2064 1 38.7654 22.9181 12.3454 12 10.6813330538 1.7383514159 13.0089176068
2065 1 0.105361 24.6956 10.5479 12 11.2714723764 1.7680360945 17.1013820465
2066 1 1.69162 26.566 10.5282 12 10.7729827731 1.7649693747 18.600893231
2067 1 1.79573 24.6832 12.376 12 11.1606720397 1.7687470754 17.371515844
2068 1 -0.0164384 26.2929 12.383 12 11.3217161877 1.7680360945 16.1172416504
2069 1 3.43736 24.8016 10.5053 12 11.2003351137 1.7714291711 17.4607671343
2070 1 5.2086 26.5848 10.4777 12 10.926463806 1.7525365502 16.3315642756
2071 1 5.20088 24.8229 12.2972 12 10.9585798284 1.7600047252 15.0352310325
2072 1 3.49721 26.4621 12.2593 12 10.7574156914 1.7640188612 16.8144642376
2073 1 6.89389 24.7809 10.4575 12 11.1578802581 1.7912618865 14.7309500193
2074 1 8.7662 26.5572 10.4503 12 10.7616555607 1.7581627149 13.7046714393
2075 1 8.83391 24.8772 12.2512 12 11.3294212924 1.7633750566 12.1284185062
2076 1 7.06103 26.5418 12.2212 12 10.978040282 1.7605544836 13.8710208406
2077 1 10.6786 24.9278 10.5483 12 11.0187084388 1.7572801658 12.0484275475
2078 1 12.3541 26.5772 10.526 12 11.0598205478 1.7716160098 11.5013850712
2079 1 12.3809 24.8551 12.3519 12 10.9503166514 1.7509122562 9.6018210606
2080 1 10.5628 26.557 12.3174 12 10.9241469812 1.7383894154 11.2184215788
2081 1 14.1 24.7267 10.6368 12 11.1513555506 1.7630645047 10.1782614781
2082 1 15.8359 26.5152 10.5077 12 10.9565473813 1.7679733845 10.1949931045
2083 1 15.9109 24.7016 12.3639 12 10.9491544074 1.7679733845 7.9638558034
2084 1 14.1537 26.5481 12.3535 12 10.8722510285 1.7673213581 9.1573680175
2085 1 17.6017 24.8198 10.5322 12 11.4603954179 1.7682120305 9.4126974846
2086 1 19.5582 26.5208 10.4917 12 11.5923814131 1.7682120305 9.6188172258
2087 1 19.5276 24.8053 12.333 12 11.1276968947 1.772089355 7.4280657985
2088 1 17.7308 26.5612 12.3744 12 11.063621034 1.7679733845 8.0332352166
2089 1 21.1788 24.7174 10.5602 12 11.1282256136 1.7767984274 9.0082345052
2090 1 22.9613 26.466 10.4594 12 11.4145994014 1.7636999115 9.400862548
2091 1 23.1486 24.7937 12.3151 12 11.0286262916 1.7767984274 7.2345725079
2092 1 21.4096 26.4898 12.3301 12 11.2183974827 1.7767984274 7.7088235761
2093 1 24.876 24.7781 10.5806 12 11.1580980695 1.7768694504 8.9243025775
2094 1 26.461 26.644 10.5051 12 10.9470994735 1.7561215216 9.4954500118
2095 1 26.475 24.7418 12.3491 12 10.9780370974 1.7505381579 7.358868464
2096 1 24.832 26.535 12.347 12 10.8912651067 1.7561215216 7.6088950068
2097 1 28.1785 24.7758 10.5431 12 11.23908305 1.7731490303 9.4139610617
2098 1 29.8961 26.3775 10.7815 12 10.9829059977 1.7416515501 9.8733860018
2099 1 30.0426 24.6659 12.4667 12 10.7518400869 1.7528702876 7.97341388
2100 1 28.2609 26.539 12.4516 12 11.0873765181 1.7528702876 7.8747361344
2101 1 31.7874 24.8485 10.6503 12 10.9120965944 1.7422210314 10.2771752776
2102 1 33.5113 26.5245 10.5464 12 10.8135495315 1.7642232765 11.5246462555
2103 1 33.4887 24.7495 12.3399 12 10.8580289929 1.7628200928 9.6539383864
2104 1 31.7428 26.6071 12.4281 12 10.832536418 1.7649924054 9.1841962878
2105 1 35.244 24.7381 10.4844 12 11.0059780798 1.7651118811 12.1657696051
2106 1 37.1277 26.5551 10.6279 12 10.8917160924 1.7542587941 13.6383180778
2107 1 37.0242 24.7909 12.3043 12 11.2349884002 1.7676250848 12.0273193748
2108 1 35.258 26.4444 12.2475 12 11.261387845 1.7724488384 11.2339377381
2109 1 38.8796 24.7325 10.6002 12 10.9828019277 1.7467900448 14.4925533008
2110 1 40.5658 26.4968 10.6611 12 11.2200722361 1.7700302111 15.8657125357
2111 1 40.6731 24.6376 12.3427 12 11.0557355001 1.7464458956 14.5158402593
2112 1 38.7841 26.5759 12.3558 12 11.0463664679 1.7846248748 13.496763542
2113 1 42.3985 28.2151 10.6507 12 11.2671293521 1.7680360945 17.6105583885
2114 1 1.77679 30.0638 10.5481 12 11.3290157744 1.7623530608 19.6149306042
2115 1 1.80119 28.2297 12.3326 12 11.4907176757 1.7640188612 18.0770350599
2116 1 42.3629 30.0566 12.3139 12 10.9717273517 1.7479544861 17.2572847944
2117 1 3.52414 28.3042 10.4487 12 11.0412986967 1.7623530608 18.1282855186
2118 1 5.29447 30.067 10.5169 12 11.2990407113 1.7698802735 17.3307741737
2119 1 5.24679 28.1968 12.3219 12 11.1945855996 1.7672869445 15.7646549496
2120 1 3.67135 30.1946 12.3939 12 11.4595683658 1.7720159707 17.746720162
2121 1 7.11199 28.2647 10.5172 12 10.9868058537 1.7859990098 15.3318707012
2122 1 8.84307 30.0135 10.5429 12 10.9880274336 1.7693916982 14.8553500549
2123 1 8.80332 28.1541 12.3009 12 10.816304458 1.7664559609 13.0182105638
2124 1 7.04567 29.9043 12.3059 12 11.0898170994 1.7667379283 15.0363331142
2125 1 10.5194 28.2949 10.6087 12 10.9457150288 1.7317190113 13.0485405042
2126 1 12.3911 29.9962 10.5353 12 11.273579029 1.7299194508 12.9356038065
2127 1 12.4047 28.3107 12.3202 12 11.069515706 1.7343003126 10.8005022822
2128 1 10.6465 30.0158 12.3142 12 10.8499342447 1.75063249 12.6768382494
2129 1 14.1617 28.1599 10.5169 12 10.9040410222 1.7550260402 11.3341442215
2130 1 15.7692 29.9269 10.6192 12 10.9423470518 1.7275635826 11.5462335239
2131 1 15.9404 28.2292 12.3987 12 10.7837691407 1.7679733845 9.2116087707
2132 1 14.1742 30.0063 12.3699 12 10.9545512238 1.7548707964 10.8974698522
2133 1 17.6807 28.1935 10.6299 12 11.036307475 1.7747596485 10.2561157036
2134 1 19.3288 29.9575 10.6574 12 11.1653399444 1.7570825026 10.9548754067
2135 1 19.4706 28.1811 12.4296 12 11.3326018108 1.757122269 8.5332887381
2136 1 17.626 30.0408 12.3696 12 10.9750665962 1.7415325763 9.7967182656
2137 1 21.5058 28.3622 10.5483 12 11.6327416854 1.757122269 9.9776818264
2138 1 23.0659 30.1886 10.5731 12 11.1590467304 1.7597449951 10.4671271093
2139 1 23.1735 28.3409 12.4411 12 11.0001448074 1.7508732566 8.0179488024
2140 1 21.1965 30.0483 12.3572 12 11.2351422501 1.7610151805 9.2119820253
2141 1 24.749 28.3219 10.5794 12 11.2420121755 1.7597970087 9.7136309881
2142 1 26.4721 30.0271 10.541 12 10.9866696257 1.7785076952 10.4344063952
2143 1 26.5281 28.2587 12.3551 12 11.0378977579 1.7492189104 8.1600022532
2144 1 24.8368 30.1109 12.3709 12 11.1031963164 1.744780594 8.6846238873
2145 1 28.3309 28.2361 10.597 12 11.2586402426 1.7787300594 10.12764232
2146 1 30.0408 30.1383 10.5451 12 11.1192375527 1.7787300594 11.4753312025
2147 1 30.0309 28.3614 12.4334 12 10.9821689669 1.7493723777 9.1474603501
2148 1 28.2292 30.0322 12.4105 12 11.3100764268 1.7787300594 9.2717253309
2149 1 31.7487 28.2257 10.6936 12 11.0825288776 1.7671494734 11.2369513565
2150 1 33.5591 30.0647 10.517 12 11.0826579163 1.7671494734 13.0242843819
2151 1 33.4362 28.3763 12.3219 12 10.8993391889 1.7724488384 10.8424718363
2152 1 31.7161 30.1036 12.4135 12 10.8639037917 1.7671494734 10.7795299846
2153 1 35.2177 28.2834 10.5433 12 11.0042406685 1.7719264078 13.0487901583
2154 1 37.0962 30.094 10.626 12 11.350792696 1.7641291485 14.8464756576
2155 1 37.0255 28.27 12.2994 12 10.9380007186 1.7707666855 12.9750273391
2156 1 35.3082 29.9828 12.3219 12 11.0205579561 1.7724488384 12.5874707167
2157 1 38.8378 28.216 10.6756 12 10.8994377729 1.7709537069 15.2100700976
2158 1 40.6115 30.0693 10.5837 12 11.0742254233 1.7662838634 17.0788664861
2159 1 40.6075 28.2624 12.2734 12 10.9824198481 1.764491454 15.3325237998
2160 1 38.8762 29.9325 12.4769 12 11.1227209375 1.7641291485 14.6899119808
2161 1 42.4177 31.7285 10.6103 12 10.8422974093 1.7667216907 18.9729805018
2162 1 1.65699 33.5219 10.4414 12 10.9757944933 1.7592368956 21.0629161671
2163 1 1.78932 31.899 12.3428 12 11.3778817139 1.7773229855 19.4318539701
2164 1 42.3673 33.5029 12.2284 12 11.1849661378 1.7839193049 18.9109396608
2165 1 3.56382 31.8351 10.4881 12 11.0184210888 1.7647715822 19.3944186767
2166 1 5.29859 33.5612 10.4645 12 10.843155167 1.7507779859 19.0032853379
2167 1 5.36374 31.8615 12.3286 12 10.8435331182 1.7667379283 17.1744454417
2168 1 3.62267 33.5717 12.2691 12 10.8142125032 1.7363426036 19.2889068284
2169 1 7.11325 31.7936 10.5246 12 11.1747745166 1.7698802735 16.8520280415
2170 1 9.07502 33.4908 10.6426 12 11.0192343054 1.7421635216 16.546169814
2171 1 8.91042 31.7287 12.2634 12 10.9081515261 1.7666438813 14.7034443747
2172 1 7.13742 33.513 12.2969 12 11.0145396767 1.7641878488 16.7708557251
2173 1 10.7084 31.7339 10.5039 12 10.757405819 1.7517646939 14.7346679603
2174 1 12.4041 33.5622 10.5255 12 11.0763322948 1.7296693996 15.0385246285
2175 1 12.4081 31.7181 12.3478 12 10.9471370577 1.7548827435 12.7509049621
2176 1 10.7344 33.571 12.2655 12 10.8387262075 1.7792503004 14.6890245887
2177 1 14.1566 31.8269 10.5632 12 11.1022795917 1.7548707964 13.2325004847
2178 1 15.7833 33.6773 10.6142 12 11.1156661543 1.7440673707 13.8165575179
2179 1 15.9208 31.8084 12.3054 12 10.8978148456 1.7548707964 11.4203401255
2180 1 14.1096 33.5888 12.375 12 11.1495336136 1.7548494526 12.9843248818
2181 1 17.5485 31.7769 10.6722 12 10.9492559181 1.7320183951 12.1682806724
2182 1 19.3898 33.5591 10.6246 12 11.0136392226 1.7518282424 12.9652718142
2183 1 19.3461 31.8506 12.329 12 11.0391196064 1.7481906853 10.5960575088
2184 1 17.5997 33.7287 12.3038 12 10.942943402 1.7518282424 12.1471679161
2185 1 21.1947 31.777 10.7394 12 11.171663545 1.7418250814 11.4712181438
2186 1 23.0158 33.5577 10.6689 12 11.0493735075 1.7417895116 12.1592342667
2187 1 22.9953 31.8185 12.4119 12 11.1674706856 1.7501891953 9.7490777292
2188 1 21.1835 33.6425 12.3984 12 10.9143927324 1.75743212 11.3737143613
2189 1 24.8174 31.8156 10.5176 12 10.8366321364 1.7376946889 11.1434004716
2190 1 26.4776 33.6846 10.5607 12 11.1295471697 1.7557275512 12.3118908013
2191 1 26.5476 31.8447 12.3839 12 10.9541986732 1.7234404862 9.7831002018
2192 1 24.813 33.5371 12.3159 12 10.8359539854 1.7381156484 10.7880307239
2193 1 28.1478 31.7867 10.5641 12 11.1833718509 1.7787300594 11.5884216991
2194 1 29.8897 33.7043 10.5217 12 11.350711538 1.7689104762 13.2606477686
2195 1 29.9786 31.9252 12.3544 12 11.2136389492 1.7703537767 10.9932375411
2196 1 28.2089 33.6362 12.3491 12 11.2968173188 1.7444869574 11.3635693199
2197 1 31.6696 31.761 10.658 12 11.0459789666 1.7688791791 12.8771991941
2198 1 33.5685 33.527 10.4754 12 10.8646116726 1.7648370601 14.8268054859
2199 1 33.4468 31.8808 12.326 12 11.2993939974 1.7787449817 12.6055699073
2200 1 31.711 33.6794 12.3206 12 11.2113221362 1.7665101967 12.7520276014
2201 1 35.3292 31.8706 10.5467 12 11.0056604448 1.7684941013 14.7640496284
2202 1 37.0721 33.5761 10.6057 12 11.2317817272 1.7579806119 16.4892140411
2203 1 37.0258 31.8344 12.4637 12 11.0595252061 1.7597954362 14.3582340793
2204 1 35.1123 33.5643 12.279 12 11.220169675 1.7668648079 14.4084765099
2205 1 38.8463 31.9064 10.5985 12 11.2298920132 1.7656866791 16.6873496276
2206 1 40.5542 33.6167 10.6142 12 10.8595126342 1.7667216907 18.5676735142
2207 1 40.5334 31.7784 12.3627 12 10.9001812689 1.7667216907 16.7106934397
2208 1 38.9048 33.565 12.4192 12 10.731409955 1.7447619931 16.4632002959
2209 1 42.358 35.393 10.459 12 11.052054965 1.7592368956 20.7489565762
2210 1 1.69397 37.0948 10.6247 12 11.330008606 1.7838242737 22.7941901236
2211 1 1.7465 35.1314 12.3281 12 11.1326298211 1.7579783382 21.0224358146
2212 1 -0.0263854 36.961 12.3433 12 10.8902752393 1.7400675373 20.7657814045
2213 1 3.41959 35.277 10.6356 12 11.1022730362 1.7838242737 21.0681846429
2214 1 5.26475 37.0219 10.5499 12 10.9967638116 1.7836606409 20.8684029524
2215 1 5.29104 35.2899 12.2777 12 11.0200608287 1.7718325314 18.9865614926
2216 1 3.51611 37.1112 12.3345 12 11.1411175275 1.7838242737 21.22528346
2217 1 7.04013 35.3123 10.5595 12 11.08771327 1.762193329 18.7947031167
2218 1 8.90804 37.089 10.4971 12 10.9692058314 1.7599049521 18.7697668312
2219 1 8.81626 35.3067 12.3039 12 11.2180111271 1.7798643792 16.756687205
2220 1 7.08877 37.0348 12.3166 12 11.3217821781 1.7950435018 18.8363764636
2221 1 10.6121 35.3542 10.4311 12 10.93522706 1.7798643792 16.9157198945
2222 1 12.2959 37.1489 10.5638 12 10.8101305153 1.7437835791 17.1365356063
2223 1 12.3684 35.3776 12.3166 12 10.944780094 1.7798643792 14.8585980248
2224 1 10.6511 37.1659 12.3048 12 11.2652536474 1.7798643792 16.8565071946
2225 1 13.9926 35.4456 10.5918 12 11.0749916345 1.7453728273 15.4083346925
2226 1 15.9494 37.0846 10.5085 12 11.1822048481 1.769772912 16.003323713
2227 1 15.8265 35.422 12.3979 12 11.0639828568 1.7643619229 13.5858246618
2228 1 14.1288 37.156 12.3894 12 11.1705288436 1.7611740372 15.3214279184
2229 1 17.6585 35.3007 10.5702 12 10.8586472263 1.7621823892 14.4359049911
2230 1 19.4047 37.1075 10.4901 12 11.1186845958 1.7815975607 15.4616779868
2231 1 19.4521 35.4279 12.1913 12 10.9216529379 1.7518282424 13.1090302776
2232 1 17.7381 37.1543 12.3396 12 11.0601324154 1.7788721149 14.5532951495
2233 1 21.2678 35.2997 10.6206 12 11.1004401755 1.7641627904 13.6912542375
2234 1 23.1115 37.1328 10.5446 12 10.956085306 1.7446836884 14.7273190666
2235 1 23.0439 35.3522 12.3445 12 10.9444632731 1.7435095555 12.2362782855
2236 1 21.2992 37.1327 12.0422 12 11.1158219404 1.7574771806 14.1076583293
2237 1 24.6795 35.3204 10.4797 12 11.0042404408 1.7368719127 13.3479700313
2238 1 26.332 37.1549 10.5296 12 10.8289798017 1.753291737 14.7407442526
2239 1 26.3049 35.4376 12.3117 12 11.0297139459 1.7444869574 12.2940637901
2240 1 24.603 37.2233 12.4198 12 10.6991981121 1.756378338 13.5722484955
2241 1 28.0807 35.4826 10.4789 12 11.0204050531 1.7428731831 13.8607476947
2242 1 30.12 37.1596 10.6063 12 11.0659650703 1.7420493946 15.5554142814
2243 1 29.9879 35.3866 12.315 12 11.0792958557 1.7537772014 13.1935859725
2244 1 28.1759 37.1039 12.2432 12 11.0241629775 1.7444869574 13.9905556959
2245 1 31.8308 35.397 10.5704 12 10.9899279586 1.7632974434 15.0283712764
2246 1 33.5756 37.1576 10.6587 12 10.9488386418 1.7372563304 16.8120400318
2247 1 33.537 35.3258 12.2756 12 11.0079440592 1.7668648079 14.6477588456
2248 1 31.8422 37.1242 12.3831 12 10.6218971207 1.7704278149 15.0406677151
2249 1 35.3431 35.3885 10.571 12 11.0959590933 1.7668138471 16.6656621209
2250 1 37.0864 37.122 10.5867 12 10.95203126 1.7630802326 18.6181185436
2251 1 37.0682 35.3688 12.386 12 10.8467244439 1.7668648079 16.4983587418
2252 1 35.4745 37.0997 12.3949 12 10.607384648 1.7666479452 16.7486791977
2253 1 38.8185 35.3833 10.6318 12 11.0257766616 1.7645771285 18.4527550524
2254 1 40.6124 37.1129 10.5663 12 10.8980664666 1.7602989246 20.5648353982
2255 1 40.6426 35.3324 12.2341 12 10.9579252151 1.7630172345 18.6772352042
2256 1 38.8716 37.0747 12.361 12 11.1748075529 1.7710785516 18.6298376843
2257 1 42.3683 38.7301 10.6047 12 11.0745483949 1.7742256418 22.6106230872
2258 1 1.67345 40.7091 10.5879 12 10.7505479869 1.77390795 24.9711034725
2259 1 1.66553 38.9631 12.3157 12 11.0424647598 1.7628758526 23.1445353793
2260 1 0.00135622 40.6505 12.3518 12 11.1435930281 1.791266715 23.1752522287
2261 1 3.4448 38.8882 10.6115 12 11.1315076208 1.7834473992 23.1056037396
2262 1 5.26243 40.6679 10.6144 12 10.8783022883 1.7416260125 23.0266257287
2263 1 5.2171 38.8315 12.3358 12 11.1043126425 1.7940977623 21.1240996663
2264 1 3.45927 40.6467 12.2919 12 10.9757114522 1.7409636837 23.4092111472
2265 1 7.10853 38.7647 10.5358 12 11.2577506139 1.7940836314 20.7774792238
2266 1 8.81588 40.7228 10.6404 12 11.1237346663 1.7501315947 21.085334212
2267 1 8.85712 38.8195 12.3786 12 11.3118280408 1.7940884272 18.8768664516
2268 1 6.98764 40.6211 12.3208 12 11.1464825079 1.7940977623 21.1899327174
2269 1 10.5557 38.9354 10.546 12 10.9440953781 1.7374791743 19.0822852597
2270 1 12.4592 40.5608 10.3837 12 11.0774807405 1.7375616888 19.568118524
2271 1 12.4485 39.0169 12.3773 12 11.2606840347 1.7437835791 17.3148594283
2272 1 10.5772 40.5642 12.4049 12 11.4086012453 1.773132761 19.2552049763
2273 1 14.0575 38.8395 10.5297 12 10.8869654816 1.769772912 17.7061438092
2274 1 15.7902 40.6892 10.5392 12 10.9379558136 1.7687841374 18.6855004078
2275 1 15.9006 38.9376 12.3175 12 11.2420734078 1.7786833711 16.2457028334
2276 1 14.1728 40.6873 12.2219 12 10.9845714276 1.7682629431 18.1225705501
2277 1 17.6054 38.8693 10.5383 12 11.3147924887 1.786104961 17.027389295
2278 1 19.381 40.7467 10.5218 12 11.2766730123 1.786104961 18.2029919814
2279 1 19.4774 38.7904 12.2525 12 11.1422158901 1.786104961 15.6379368389
2280 1 17.6273 40.7055 12.2287 12 11.2509158981 1.7788721149 17.4749732117
2281 1 21.2489 38.9629 10.5074 12 11.0950771837 1.7856401336 16.46311949
2282 1 22.9795 40.6167 10.5244 12 11.0333275084 1.7619464094 17.540149802
2283 1 22.9706 38.9158 12.3229 12 11.0209073824 1.756378338 15.1600828724
2284 1 21.1433 40.6105 12.3573 12 10.8964827474 1.7551604769 16.7835112444
2285 1 24.8106 38.8861 10.4982 12 10.9113781042 1.756378338 16.0376739079
2286 1 26.447 40.6891 10.5509 12 10.8176900948 1.7401683484 17.5730112294
2287 1 26.487 38.8164 12.3929 12 10.9853536491 1.7563201353 15.0295810623
2288 1 24.8639 40.7146 12.3616 12 11.0680678078 1.756378338 16.6083770063
2289 1 28.2338 38.7926 10.5751 12 11.1543780153 1.735070014 16.2869400038
2290 1 29.9494 40.617 10.589 12 11.2241673608 1.7698359506 18.1509356383
2291 1 30.0534 38.8784 12.3519 12 10.9863413758 1.7729280845 15.8307886628
2292 1 28.1964 40.6913 12.2222 12 11.2004876678 1.7729280845 16.9961764137
2293 1 31.7763 38.9144 10.6422 12 10.9520080852 1.7714385014 17.3410953946
2294 1 33.5124 40.7125 10.6651 12 11.1371963227 1.7742849225 19.284736075
2295 1 33.6094 38.8837 12.312 12 11.1848427369 1.7742849225 17.0995250955
2296 1 31.7272 40.748 12.343 12 10.9877747553 1.7736657142 17.8239266254
2297 1 35.3647 38.8515 10.6873 12 11.0812186139 1.7689541082 18.7612820985
2298 1 37.1307 40.6324 10.5937 12 11.1288916343 1.7666437396 20.928078615
2299 1 37.0784 38.8354 12.481 12 11.0861848207 1.7705819515 18.7691676752
2300 1 35.3656 40.6675 12.3903 12 11.1303789163 1.777713492 19.2071607225
2301 1 38.8951 38.8845 10.5057 12 11.0705526024 1.7710785516 20.7757110427
2302 1 40.5767 40.5881 10.4565 12 11.206079734 1.7913182126 22.8743423108
2303 1 40.698 38.7499 12.3027 12 11.2875747158 1.7913182126 20.8425226422
2304 1 38.8738 40.6108 12.3639 12 11.389816001 1.7913182126 21.0744183557
2305 1 0.0509747 0.0190371 14.1097 12 11.0744994038 1.7529591398 22.8613345558
2306 1 1.85162 1.79291 13.9871 12 11.0093437099 1.7539945555 22.8678349692
2307 1 1.74094 0.0795291 15.8364 12 11.0778888256 1.7543218233 23.2922144787
2308 1 42.408 1.84343 15.8323 12 11.0949414621 1.7568142182 20.9336059613
2309 1 3.63956 -0.0188061 14.0842 13 10.921449392 1.7543218233 22.859515031
2310 1 5.22934 1.70541 14.1652 12 10.7773697967 1.7443797274 20.6945222132
2311 1 5.2926 -0.0182402 15.8499 12 10.9534893795 1.7788224201 21.2281779604
2312 1 3.51842 1.72663 15.9631 12 10.799298787 1.7432292535 21.0516682133
2313 1 6.79748 42.3029 14.0119 13 10.9553337594 1.7564700246 21.2278834604
2314 1 8.83151 1.741 14.0855 12 11.1347408279 1.7565954181 18.7941920946
2315 1 8.79414 42.391 15.8437 12 10.9190096423 1.7564700246 19.4211911557
2316 1 7.08034 1.68219 15.7711 12 11.0090850822 1.7499522486 18.9936471593
2317 1 10.5965 -0.0233955 14.185 12 10.9462744859 1.773132761 19.1817757277
2318 1 12.326 1.75373 14.0434 12 11.3616659572 1.7699344393 17.1239644237
2319 1 12.3787 42.3544 15.8411 12 10.9534084787 1.7665676289 17.7245281373
2320 1 10.6688 1.64392 15.8251 12 11.0744198086 1.7664623646 17.1778719634
2321 1 14.208 -0.0290098 14.1038 12 11.2597237456 1.7682685793 17.7740693368
2322 1 15.9059 1.77307 14.0896 12 11.322098085 1.7653444968 15.7501020827
2323 1 15.9612 42.2411 15.8989 12 10.9258680379 1.7548598017 16.6151891109
2324 1 14.1822 1.66868 15.815 12 11.151868713 1.7671601425 15.5951193358
2325 1 17.7053 42.2767 14.1109 12 11.2833132846 1.757664303 16.8924637321
2326 1 19.401 1.64362 14.1976 12 10.9425686574 1.7587009141 14.9997626197
2327 1 19.4073 42.3028 15.9191 12 11.02663143 1.7501468975 15.8660764782
2328 1 17.7535 1.62596 15.9147 12 11.1354259618 1.7727875716 14.5456291905
2329 1 21.2019 42.3869 14.1282 12 10.7740275663 1.7512718775 16.4211206079
2330 1 22.8982 1.62759 14.0439 12 10.8961010146 1.7517979944 15.0597101351
2331 1 23.0088 0.0181316 15.8428 12 10.9156011487 1.741242529 15.670394877
2332 1 21.1962 1.68937 15.8673 12 11.1236434317 1.7762977058 14.0927968455
2333 1 24.7935 42.387 14.0937 12 10.5943112882 1.7357573754 16.4310697207
2334 1 26.3557 1.626 14.1621 12 11.0193617297 1.7698299802 15.0168393929
2335 1 26.4001 42.4063 15.8946 12 10.9555603746 1.7693514484 15.6909550578
2336 1 24.6857 1.77201 15.9037 12 11.0492014477 1.778899831 13.9702055018
2337 1 28.3068 -0.0101541 14.1892 12 11.1433722181 1.7697248975 16.6968477756
2338 1 30.0216 1.63349 14.1465 12 10.8895987301 1.7700904004 15.8040489949
2339 1 30.1441 42.3199 15.9535 12 10.9748402277 1.7701787386 16.480899826
2340 1 28.287 1.73793 15.9498 12 11.1853974317 1.7701787386 14.3872096339
2341 1 31.8208 42.3071 14.12 12 10.8218975579 1.7601036498 17.8102288508
2342 1 33.5365 1.65209 14.08 12 11.0290075515 1.7556703118 17.0204671153
2343 1 33.501 0.0393172 15.9452 12 11.0276665176 1.742163362 17.3814990677
2344 1 31.8208 1.74867 15.8874 12 10.9628576208 1.7701787386 15.4075743716
2345 1 35.3255 42.3452 14.0674 12 10.9911681071 1.7780460423 19.1159460577
2346 1 37.1258 1.74083 14.1011 12 11.1313704807 1.7525599157 18.6725911311
2347 1 37.1662 42.4247 15.889 12 10.8450956822 1.7753279517 19.1776266735
2348 1 35.4287 1.67289 15.822 12 10.924824296 1.7556703118 17.0316268376
2349 1 39.0358 -0.0373828 14.0588 12 11.275658882 1.7753279517 20.9641393892
2350 1 40.6867 1.79522 14.0611 12 10.9763226314 1.7502880088 20.5875857946
2351 1 40.7656 42.4309 15.8452 12 11.0004948305 1.7750645177 21.197135216
2352 1 38.8991 1.76018 15.7937 12 11.0938537374 1.7753279517 18.855743595
2353 1 0.0355236 3.56092 14.1326 12 10.959925378 1.7460524877 20.5916810437
2354 1 1.76679 5.30158 14.1161 12 10.7243078303 1.7325710257 20.7881110791
2355 1 1.77107 3.53412 15.8451 12 10.9017117728 1.735009709 21.1683825669
2356 1 -0.00969064 5.29059 16.0005 12 10.9403399515 1.7481871704 18.804837909
2357 1 3.49932 3.52924 14.0895 12 10.8327250256 1.7325814663 20.6612244856
2358 1 5.37993 5.2753 14.1824 12 10.8057153693 1.7546027541 18.3463555493
2359 1 5.2503 3.4649 15.8304 12 10.8119630583 1.7447396472 18.8171195543
2360 1 3.52978 5.16607 15.8595 12 10.7009928215 1.7747847677 18.9416553105
2361 1 7.08112 3.47287 14.1565 12 10.8911549161 1.7565954181 18.4399849995
2362 1 8.78498 5.26008 14.2099 12 10.7589992565 1.7563845506 16.3014003345
2363 1 8.8342 3.47802 15.9147 12 10.9744113475 1.7648560853 16.673730258
2364 1 7.06854 5.2976 15.8647 12 10.5144450148 1.7421431355 16.4564358955
2365 1 10.5898 3.61019 14.1804 12 11.1604805936 1.7699344393 16.5160966127
2366 1 12.4674 5.34145 14.1039 12 10.9828517804 1.7726560417 14.3634418342
2367 1 12.4336 3.52561 15.9278 12 11.1444877985 1.7726560417 14.8509650815
2368 1 10.6342 5.17291 16.0369 12 10.8955219617 1.7712737841 14.474672213
2369 1 14.1244 3.501 14.1178 12 10.9894664293 1.7699344393 15.0172863673
2370 1 15.9259 5.22257 14.1611 12 11.1964197046 1.7657778548 13.0067042961
2371 1 15.9162 3.46181 15.8486 12 10.8841887609 1.7697175455 13.5337271249
2372 1 14.2394 5.15126 15.8901 12 10.7937182877 1.7726560417 12.8198183828
2373 1 17.702 3.43439 14.0787 12 11.1085245841 1.7727875716 13.8823995715
2374 1 19.4582 5.22054 14.1115 12 11.2164612209 1.7641074517 12.1029180631
2375 1 19.5499 3.43889 15.9601 12 10.9953038118 1.7727875716 12.581848799
2376 1 17.811 5.19516 15.8486 12 11.2046101486 1.7720504994 11.5049604102
2377 1 21.2281 3.45515 14.1717 12 10.9907256036 1.7583936299 13.3654606095
2378 1 22.8845 5.31045 14.0253 12 10.9260624049 1.7308349946 11.9228613726
2379 1 22.9244 3.49514 15.8649 12 11.4166180238 1.7783793224 12.5744241955
2380 1 21.2218 5.19704 16.0097 12 10.9261465511 1.736663914 10.9094743911
2381 1 24.6592 3.57015 14.0577 12 11.2604188519 1.7754792704 13.3765815422
2382 1 26.534 5.23856 14.0606 12 11.1726974309 1.7797027415 12.2119734272
2383 1 26.4917 3.50612 15.7753 12 11.4183576672 1.778899831 12.6039030773
2384 1 24.6602 5.32025 15.8176 12 11.5423133827 1.778899831 10.9425401819
2385 1 28.3306 3.42616 14.2027 12 11.1926418144 1.7601383191 13.8627049204
2386 1 29.9692 5.22995 14.1502 12 11.3889758957 1.7902306791 12.9126959444
2387 1 30.13 3.46711 15.8947 12 10.9701807281 1.7678201866 13.4831262722
2388 1 28.331 5.2189 15.9431 12 11.0431229727 1.7513065977 11.4893698805
2389 1 31.7654 3.47453 14.1371 12 11.1441233552 1.7901929339 14.9005421046
2390 1 33.5473 5.26145 14.1737 12 11.1204282301 1.7902306791 14.3043916906
2391 1 33.6599 3.40286 15.8446 12 11.0537877068 1.763089283 14.8846205837
2392 1 31.9017 5.26758 15.9231 12 11.1885121294 1.7894355898 12.6719904697
2393 1 35.3402 3.55268 14.174 12 11.1346755559 1.7556703118 16.434967748
2394 1 37.1231 5.30441 14.156 12 10.8496685663 1.7574007694 16.2070900053
2395 1 37.1477 3.5635 15.7812 12 10.8781337685 1.739475956 16.6002315941
2396 1 35.3416 5.26394 15.9888 12 10.7715365381 1.7317495746 14.3515296751
2397 1 38.9509 3.52864 14.0016 12 10.8298365259 1.7510979466 18.4579417127
2398 1 40.7712 5.27878 14.1541 12 11.0322453615 1.752832528 18.4454218287
2399 1 40.6579 3.49879 15.9111 12 10.9634786961 1.7499227385 18.6690292191
2400 1 38.9151 5.17123 15.9251 12 10.9057660295 1.7510979466 16.468360824
2401 1 42.3872 6.91269 14.1546 12 11.0740619969 1.7502355143 18.7491326092
2402 1 1.67932 8.78391 14.0116 12 11.2656181053 1.7497472748 19.0492438989
2403 1 1.87421 6.96579 15.7597 12 10.8691954541 1.7408612017 19.1036224252
2404 1 0.0373479 8.70794 15.9471 12 11.5147913559 1.785706959 17.1342722143
2405 1 3.5334 7.04663 14.1272 12 10.6122315109 1.7465524417 18.5633452109
2406 1 5.25669 8.67514 14.1388 12 10.8379222815 1.74700019 16.5038939123
2407 1 5.26363 6.87285 15.8792 12 10.7404778209 1.7153944005 16.7117147134
2408 1 3.49674 8.80126 15.9169 12 10.9489787241 1.7497472748 16.8400365975
2409 1 7.04563 6.96537 14.1459 12 10.770226414 1.7592850793 16.3380335527
2410 1 8.80398 8.80493 14.1994 12 11.0802662161 1.7357503454 14.1707204562
2411 1 8.87764 6.98264 15.8342 12 10.8522624569 1.7586854119 14.302277021
2412 1 6.88535 8.71023 15.8371 12 11.0006516056 1.7565084957 14.56716154
2413 1 10.6727 6.96499 14.2667 12 11.0876214945 1.7357503454 14.143028895
2414 1 12.3447 8.86414 14.1062 12 11.0695895636 1.7594385997 12.1345050933
2415 1 12.4772 7.06818 15.95 12 10.9918859237 1.7726560417 12.2292473581
2416 1 10.6473 8.83931 15.8724 12 11.148012113 1.8094357638 12.1360361114
2417 1 14.0917 7.0424 14.1699 12 11.0055538386 1.7657778548 12.3367938136
2418 1 15.8864 8.78405 14.0706 12 10.8810640749 1.768432993 10.4639122725
2419 1 15.9315 7.00694 15.8657 12 11.2250568593 1.7657778548 10.7336434419
2420 1 14.2296 8.86491 15.8379 12 11.112137497 1.7386246213 10.1309348067
2421 1 17.7284 7.08154 14.2061 12 11.3811928132 1.7697792602 11.049221086
2422 1 19.4948 8.88139 14.1408 12 11.3353962991 1.7836917231 9.4332739254
2423 1 19.4945 7.10421 15.9345 12 11.2532008777 1.7792534122 9.5237725789
2424 1 17.6069 8.86078 15.8885 12 11.1843391562 1.7792534122 8.7309003165
2425 1 21.2175 7.05031 14.2021 12 10.9104241715 1.7526284177 10.4966069446
2426 1 23.0262 8.63361 14.0802 12 10.878548854 1.7560112204 9.2895683816
2427 1 22.871 6.96081 15.9251 12 11.0036834037 1.7448245456 9.5064551631
2428 1 21.2695 8.80567 15.8898 12 11.1779418261 1.7779149155 8.0674615216
2429 1 24.6166 7.00961 13.999 12 11.0642537165 1.7797027415 10.6722371197
2430 1 26.4648 8.78774 14.1227 12 11.0031349231 1.7797027415 9.4774756011
2431 1 26.5943 6.9782 15.9219 12 11.3757839593 1.7797027415 9.7186775493
2432 1 24.7438 8.71681 15.965 12 11.4591068613 1.7428883936 8.1336894151
2433 1 28.2545 7.07112 14.0195 12 11.0523800802 1.776206044 11.1471749084
2434 1 30.0104 8.81598 14.0984 12 11.1033966159 1.7689450869 10.3148450649
2435 1 29.9423 6.9734 15.9066 12 11.128155572 1.7689450869 10.6090856017
2436 1 28.1988 8.70268 15.8559 12 10.9571171802 1.7689450869 8.7647925085
2437 1 31.7267 7.05675 14.1636 12 11.3902237905 1.7902306791 12.1653040631
2438 1 33.5975 8.79237 14.0858 12 11.2542097703 1.7772520485 12.0907738142
2439 1 33.5224 7.11868 15.8287 12 11.1051782607 1.7877411777 12.1801328646
2440 1 31.7614 8.87211 15.8686 12 11.3345149198 1.7686373853 10.022682536
2441 1 35.4113 6.8386 14.2127 12 11.0690765111 1.7987988025 14.2420244448
2442 1 37.2409 8.73102 14.1898 12 11.0688085733 1.7455237748 14.2884924777
2443 1 37.1954 6.97976 16.0011 12 10.8192573236 1.7335034427 14.2369305855
2444 1 35.4378 8.73983 15.8999 12 11.277238681 1.7704180876 12.2063376738
2445 1 38.9985 7.01519 14.225 12 11.1182514621 1.763016332 16.2989489509
2446 1 40.6777 8.75634 14.2178 12 11.2382410063 1.7590412818 16.5975842979
2447 1 40.6385 6.98527 15.9891 12 11.0190385303 1.7589692488 16.5756390478
2448 1 38.8415 8.74926 15.9847 12 10.9984983154 1.7751033259 14.3885578851
2449 1 -0.0531813 10.6803 14.1009 12 11.2736969316 1.7840646626 17.050286172
2450 1 1.79946 12.3721 14.0155 12 11.2165387505 1.7795451496 17.5749479547
2451 1 1.79174 10.5667 15.7384 12 11.3086290904 1.785706959 17.432455458
2452 1 -0.0253281 12.3781 15.8547 12 11.4323659255 1.7847875508 15.5734909025
2453 1 3.50574 10.6374 14.0338 12 11.0927295272 1.7706005136 16.8505504294
2454 1 5.35336 12.3199 14.0027 12 11.0748609632 1.775121992 14.8561924366
2455 1 5.19328 10.6323 15.7453 12 11.0569648883 1.7366490234 14.7401287306
2456 1 3.5272 12.4273 15.9028 12 11.2087356673 1.7795451496 15.2402600113
2457 1 7.12398 10.4693 14.0912 12 11.0920022479 1.7300940685 14.3687387827
2458 1 8.75215 12.4448 14.2356 12 11.0471946441 1.7208791927 12.2389513346
2459 1 8.87069 10.6291 15.9322 12 11.2517021494 1.7481880901 12.161301839
2460 1 6.96557 12.3615 15.8263 12 11.0474961998 1.7627389924 12.6313150212
2461 1 10.5122 10.6533 14.1353 12 11.0681608056 1.7594385997 12.1149399748
2462 1 12.3507 12.374 14.1675 12 11.2659266827 1.7878281564 10.1066992747
2463 1 12.3961 10.4676 15.9783 12 11.1535922547 1.7735984069 10.1024016525
2464 1 10.6311 12.3326 15.9774 12 11.1422478819 1.7735984069 10.0737148217
2465 1 14.095 10.6598 14.0608 12 11.0044357954 1.7575598614 10.1895296614
2466 1 15.9043 12.372 14.1882 12 10.9420747775 1.7704698394 8.3283364953
2467 1 15.92 10.6154 15.8547 12 10.8509899666 1.7541233338 8.121682985
2468 1 14.1729 12.3327 15.9269 12 11.0122589453 1.7735984069 8.0232683624
2469 1 17.5894 10.6076 14.1124 12 11.2174043156 1.7697792602 8.7127671624
2470 1 19.4643 12.3731 14.0279 12 10.7643759004 1.7675228761 7.1326662085
2471 1 19.438 10.6551 15.827 12 11.1412339795 1.7792534122 7.0479860643
2472 1 17.6653 12.4282 15.8592 12 10.9525289317 1.7631486793 6.3481592494
2473 1 21.2406 10.6546 14.1029 12 10.8123334765 1.7560112204 7.9465759128
2474 1 22.9901 12.3628 14.0568 12 10.80393478 1.7676478976 7.0389545469
2475 1 23.0503 10.5615 15.8765 12 11.094727242 1.7676478976 6.655579843
2476 1 21.2184 12.1967 15.9245 12 10.9601592929 1.7679117035 5.5686632434
2477 1 24.692 10.4079 14.1205 12 11.0835405983 1.7593425975 8.0921388984
2478 1 26.4057 12.3764 14.1267 12 11.3964580182 1.7791619006 6.9986584564
2479 1 26.5839 10.4754 16.0015 12 11.0915594524 1.7593425975 7.0356396259
2480 1 24.7385 12.1714 15.9261 12 11.3034833992 1.7852108669 5.5726952674
2481 1 28.1874 10.6209 14.1216 12 10.9555308572 1.7593425975 8.576621181
2482 1 30.0474 12.3021 13.9826 12 10.6940325394 1.7522977708 8.5399800848
2483 1 30.0325 10.6358 15.88 12 11.1517491097 1.7678354647 7.9987402518
2484 1 28.1952 12.3116 15.8731 12 11.0381442829 1.7519134946 6.2973250387
2485 1 31.7413 10.5927 14.0825 12 10.8909432228 1.7756593396 10.073822122
2486 1 33.4916 12.3696 14.1239 12 10.9230821233 1.7765318092 10.1391343886
2487 1 33.4699 10.6364 15.9213 12 11.5685025684 1.7772520485 9.9514569108
2488 1 31.6912 12.4108 15.8132 12 10.9337526077 1.7475225991 7.9910197224
2489 1 35.3634 10.5257 14.1001 12 11.2125638315 1.7772520485 12.2095291648
2490 1 37.1476 12.2802 14.1126 12 11.1841217187 1.7461839284 12.440344179
2491 1 37.1241 10.5063 15.8684 12 11.0050380286 1.7751033259 12.3721579253
2492 1 35.3887 12.3674 15.7352 12 11.2947995613 1.7724379962 10.3144925417
2493 1 38.9636 10.5553 14.1901 12 11.0565968409 1.7751033259 14.510121731
2494 1 40.6034 12.4301 14.111 12 10.7016724993 1.758058453 14.9878260301
2495 1 40.6784 10.5606 15.9404 12 11.3417587804 1.785706959 14.9025984923
2496 1 38.9052 12.3203 15.8403 12 11.035483846 1.7738486121 12.8479938004
2497 1 42.3715 14.0927 14.0301 12 11.0675895915 1.770532132 15.9173009767
2498 1 1.64266 15.9653 14.0759 12 11.0266678834 1.7564996352 16.8092630126
2499 1 1.80755 14.1295 15.8168 12 11.430593097 1.7793600664 16.2733711992
2500 1 42.3158 15.9092 15.8049 12 11.2354043903 1.7758453256 14.5053979327
2501 1 3.5748 14.3133 14.0224 12 11.3905257873 1.775121992 15.6349735147
2502 1 5.37901 15.9576 14.0827 12 10.7369625736 1.7475322011 13.7797377141
2503 1 5.25541 14.2161 15.8375 12 11.0947755246 1.7527199451 13.320620643
2504 1 3.5325 15.9629 15.8163 12 10.9503527287 1.7471685398 14.409184754
2505 1 6.99598 14.1012 14.1404 12 10.857287351 1.7467293174 12.9699636316
2506 1 8.86683 15.8756 14.1649 12 11.0976343572 1.76290077 11.0780986492
2507 1 8.7638 14.187 15.9378 12 10.7841994055 1.76290077 10.5695115412
2508 1 7.02628 15.9345 15.8989 12 10.7756190108 1.7627570691 11.4572524473
2509 1 10.6017 14.0701 14.2612 12 11.2814426613 1.7869115089 10.2788295046
2510 1 12.351 15.945 14.1782 12 11.3552192155 1.7878281564 8.6554229429
2511 1 12.4544 14.1244 15.956 12 11.1456048817 1.7866734722 7.9860048262
2512 1 10.5622 15.9139 15.9206 12 11.184431737 1.76290077 8.7127039468
2513 1 14.2015 14.1463 14.1305 12 11.2997931371 1.7878281564 8.3315136146
2514 1 16.0341 15.8414 14.1607 12 10.9686104817 1.7707174918 6.752836429
2515 1 15.9704 14.1586 15.8841 12 10.8105990755 1.7578930178 6.1850019234
2516 1 14.1382 15.9488 15.8936 12 10.8317905512 1.7706816555 6.3162258409
2517 1 17.7487 14.1294 14.0712 12 10.815511177 1.7675228761 6.7609533312
2518 1 19.4986 15.9003 14.2429 12 11.1645745627 1.8050576572 5.5539293825
2519 1 19.5491 14.0183 15.8533 12 11.0610216788 1.7724187215 4.7881691663
2520 1 17.6852 15.941 15.8567 12 11.0355987628 1.7744602277 4.5381584626
2521 1 21.2154 14.1062 14.1693 12 10.6877911462 1.7556588564 5.96946383
2522 1 22.8927 15.8785 14.1776 12 10.9240318188 1.7720354293 5.397393869
2523 1 22.9758 14.0945 15.8106 12 11.0659721623 1.7852108669 4.6884105854
2524 1 21.2975 15.8361 15.9216 12 10.7824812924 1.781013753 3.7948413723
2525 1 24.6868 14.0706 14.179 12 11.061411027 1.7849574163 5.9870117777
2526 1 26.4978 15.8252 14.1177 12 11.4482647972 1.7822972907 5.7828356812
2527 1 26.5256 14.1287 15.9362 12 11.1397601024 1.7852108669 4.6664357988
2528 1 24.8688 15.8563 15.8897 12 11.1763364856 1.7793616452 3.8457923829
2529 1 28.2469 14.1197 14.1602 12 11.1798284722 1.7799688587 6.8105777414
2530 1 30.076 15.8642 14.0721 12 10.9093599493 1.7799651035 7.008680982
2531 1 29.9553 14.0872 15.7767 12 10.9189921571 1.7474263594 6.35246364
2532 1 28.3597 15.8639 16.0458 12 11.180865125 1.7799688587 4.6150903356
2533 1 31.7413 14.1144 14.067 12 10.5486783451 1.746934762 8.5126252248
2534 1 33.4713 15.7972 14.08 12 11.2174948212 1.7766132828 8.7918290921
2535 1 33.4498 14.0727 15.8603 12 11.1621969586 1.7612658803 8.1336897943
2536 1 31.6592 15.9035 15.8546 12 10.7598428245 1.7475225991 6.3882663749
2537 1 35.2908 14.1785 14.0522 12 11.056113264 1.7487270631 10.4455154246
2538 1 37.0908 15.931 14.1598 12 11.095691931 1.7596448236 11.2035019523
2539 1 37.0423 14.0624 15.843 12 11.1241337884 1.7504956994 10.7313607903
2540 1 35.2518 15.8432 15.9757 12 11.0775360735 1.7487270631 8.7118376933
2541 1 38.8747 14.2006 14.1894 12 10.9199479292 1.7576992978 12.9962997708
2542 1 40.5688 15.9414 14.1495 12 10.7619941039 1.7526286076 13.8925433241
2543 1 40.5969 14.0767 15.919 12 10.9588218868 1.7693326413 13.5383256259
2544 1 38.9451 15.9282 15.8977 12 10.8842287281 1.745683885 11.6502262731
2545 1 42.3494 17.6484 14.0348 12 10.9783022855 1.7758453256 15.0828337009
2546 1 1.66498 19.4169 14.1464 12 11.1832124704 1.7765254958 16.4294513005
2547 1 1.81267 17.6231 15.8129 12 10.9002415732 1.7758453256 15.6719209301
2548 1 0.0029899 19.449 15.9193 12 11.241827828 1.7758453256 14.1347854334
2549 1 3.54666 17.7421 14.0968 12 11.0707825965 1.7487426658 14.9371724871
2550 1 5.22713 19.5057 14.0297 12 11.0732451946 1.7858603031 13.4970204643
2551 1 5.39105 17.6946 15.929 12 10.9664050427 1.7858786413 12.4356604378
2552 1 3.47079 19.3896 15.8427 12 11.0607692766 1.7858786413 14.0545622725
2553 1 7.03728 17.6582 14.1184 12 11.0486617161 1.7832175979 12.1561239721
2554 1 8.91236 19.5158 14.124 12 11.1458394082 1.7496015296 10.6451886248
2555 1 8.77424 17.7113 15.9815 12 11.1806359645 1.76290077 9.6484391022
2556 1 7.04449 19.4782 15.7447 12 11.1814016547 1.7857654656 11.0198862607
2557 1 10.5235 17.7022 14.1174 12 11.1896659771 1.7915691759 9.6609108659
2558 1 12.3899 19.4975 14.1905 12 11.1285741354 1.7863325602 8.1213449211
2559 1 12.3421 17.7551 15.8629 12 10.993118666 1.7475401501 7.1436994079
2560 1 10.528 19.33 16.0333 12 11.0845589673 1.7521341983 8.1699270819
2561 1 14.1349 17.6817 14.1238 12 11.1428909786 1.786290747 7.2067358094
2562 1 15.9596 19.4165 14.1023 12 11.1959763658 1.7863325602 6.0341217932
2563 1 15.892 17.6405 15.8163 12 11.0937551589 1.7747925077 4.9155150596
2564 1 14.1016 19.4064 15.9333 12 11.1016150962 1.7859428037 5.6909593292
2565 1 17.6977 17.6949 14.0464 12 11.1519696988 1.8051001762 5.7590249618
2566 1 19.4 19.4993 14.0059 12 11.0205364933 1.8051001762 5.2324009883
2567 1 19.4568 17.8121 15.8675 12 11.4005011954 1.8046020081 3.5887198324
2568 1 17.6125 19.5148 15.884 12 11.1789457015 1.7747925077 3.7939419918
2569 1 21.3066 17.673 14.0676 12 11.2354254895 1.8051001762 5.204586778
2570 1 23.069 19.5063 14.0289 12 11.2204620409 1.7435118306 5.17516596
2571 1 23.0053 17.6816 15.8063 12 11.0797484855 1.781013753 3.4779333619
2572 1 21.2006 19.5537 15.8033 12 11.1319920035 1.7765584039 3.3176538357
2573 1 24.7622 17.5911 14.1649 12 11.4646058521 1.7836979883 5.2031067594
2574 1 26.4415 19.4902 14.147 12 11.6310959181 1.783994979 5.2525271576
2575 1 26.6378 17.735 15.8665 12 11.4051856828 1.7818044337 3.7526214914
2576 1 24.6822 19.4201 15.9621 12 11.2451007115 1.7682028942 3.2286795504
2577 1 28.3194 17.6679 14.104 12 11.6678479275 1.783994979 5.864525286
2578 1 30.0634 19.4472 14.091 12 11.1196898186 1.7833876232 6.2325671602
2579 1 30.0995 17.7152 15.8218 12 10.9182852336 1.7399225423 4.9766470881
2580 1 28.3226 19.4865 15.9049 12 11.2283869697 1.783994979 3.9958934634
2581 1 31.7804 17.6241 14.0749 12 11.117128797 1.7410826185 7.2738377924
2582 1 33.4938 19.3438 14.2753 12 11.1945882241 1.7593067549 7.9821962028
2583 1 33.435 17.5493 16.0306 12 11.1060659877 1.7459581089 6.9980635467
2584 1 31.7009 19.4696 15.8892 12 10.8418291167 1.7397767778 5.5764635015
2585 1 35.242 17.601 14.1961 12 11.5609168026 1.7611683964 9.5244788151
2586 1 37.0916 19.4422 14.1633 12 10.9360801714 1.7647719573 10.6862925147
2587 1 37.1053 17.6381 15.9421 12 11.1029208872 1.7647719573 9.780228671
2588 1 35.2076 19.4483 15.9501 12 11.0912229113 1.7647719573 8.1124687502
2589 1 38.8056 17.6684 14.1727 12 10.7335003077 1.7562866469 12.1850586561
2590 1 40.5549 19.3673 14.0949 12 11.0431346566 1.7735366959 13.4550578991
2591 1 40.6432 17.7213 15.8761 12 11.0647566476 1.7732323256 12.6780677762
2592 1 38.845 19.4108 15.9378 12 11.2037691354 1.7624469473 11.001272373
2593 1 42.3365 21.2246 14.135 12 11.0021517944 1.7735366959 14.8677628684
2594 1 1.63548 22.8737 14.0955 12 10.9730897094 1.7719121425 16.2990761679
2595 1 1.80153 21.2751 16.0422 12 11.2422573905 1.765151737 15.6038711382
2596 1 42.2706 22.965 15.9088 12 10.9760980397 1.765151737 13.876100145
2597 1 3.42054 21.1692 14.0353 12 11.0099612683 1.7462326487 15.0886054408
2598 1 5.28895 22.989 13.9775 12 11.1459220903 1.7552236649 13.7937013284
2599 1 5.18569 21.2539 15.7261 12 11.4079119638 1.7858786413 12.733404692
2600 1 3.44629 22.986 15.8265 12 11.1158631393 1.7718131145 14.5278848666
2601 1 7.08217 21.274 14.0936 12 11.0805140536 1.7552236649 12.0646334363
2602 1 8.81506 22.9688 14.125 12 11.3223779006 1.7633750566 10.7979442956
2603 1 8.79527 21.1672 15.875 12 11.101089456 1.7521341983 9.6300880485
2604 1 7.04116 23.0761 15.9429 12 11.066567141 1.7751251579 11.3546105584
2605 1 10.6005 21.22 14.0712 12 11.1382419144 1.7551607798 9.3892651002
2606 1 12.3037 23.0152 14.0367 12 11.0086670572 1.752207421 8.2169176045
2607 1 12.2898 21.2119 15.7991 12 11.1298889773 1.7626109244 6.9734429237
2608 1 10.5764 23.0138 15.901 12 10.9917352717 1.7566078646 8.3602383597
2609 1 14.1717 21.2596 14.0989 12 11.0282817068 1.7863325602 7.1366783943
2610 1 15.8436 22.9753 14.1261 12 10.9871265812 1.7514362138 6.1516553686
2611 1 15.8087 21.1923 15.863 12 11.2004017112 1.7626109244 4.7832394456
2612 1 14.0179 23.0099 15.886 12 11.069146423 1.7626109244 5.6970647331
2613 1 17.7178 21.1862 14.0528 12 11.1791590393 1.7576401554 5.5531314907
2614 1 19.4873 23.0865 14.0315 12 11.0143811246 1.7744932107 5.4581931781
2615 1 19.461 21.1599 15.8468 12 10.8962439306 1.7744932107 3.4470959981
2616 1 17.7012 23.0213 15.7497 12 11.4529385149 1.7741320581 4.0398253565
2617 1 21.1524 21.2466 14.0847 12 10.9672682087 1.7410505771 5.150777915
2618 1 22.9502 22.9164 14.0629 12 10.9891374921 1.7420497411 5.2641770232
2619 1 22.9919 21.1588 15.9246 12 10.9225223724 1.7687601132 3.2552699169
2620 1 21.2679 22.9203 15.8207 12 10.8593352588 1.7744932107 3.5799797533
2621 1 24.7169 21.2518 14.039 12 11.096352202 1.7687601132 5.2591127201
2622 1 26.4555 22.9061 14.0961 12 10.8514501324 1.7388237036 5.4521440685
2623 1 26.5175 21.162 15.9575 12 11.6414134875 1.7903173227 3.4868040584
2624 1 24.6753 22.9731 15.9634 12 11.3584458299 1.7687601132 3.3708575749
2625 1 28.2209 21.2291 14.0021 12 11.2537399824 1.783994979 5.7485640629
2626 1 30.0456 23.0078 14.0939 12 10.9548077261 1.7525609056 6.2917479436
2627 1 30.0071 21.3055 15.8676 12 11.2441433018 1.7541371466 4.80385831
2628 1 28.1409 23.0127 15.7681 12 11.3541883547 1.7584528788 4.1389504995
2629 1 31.7792 21.1655 14.1894 12 11.1558160406 1.7579018759 7.0723938357
2630 1 33.4705 23.1645 14.0761 12 10.8928512475 1.7579018759 8.157002021
2631 1 33.566 21.2547 15.9106 12 11.039816064 1.7579018759 6.7462245534
2632 1 31.8202 23.0322 16.0046 12 11.1178426856 1.7434951916 5.6161004018
2633 1 35.2625 21.119 14.1495 12 10.9894493911 1.7611683964 9.1935921695
2634 1 37.0091 22.9365 14.0712 12 11.0133321785 1.7649637754 10.5487795697
2635 1 37.0038 21.1922 15.7266 12 11.1404163972 1.7639781751 9.5420554782
2636 1 35.2505 22.9917 15.8449 12 10.9314289489 1.7587213161 8.0551880676
2637 1 38.8923 21.1728 14.1215 12 10.8120402964 1.7553411849 12.0032973361
2638 1 40.5388 22.909 14.1105 12 10.5121963325 1.7263902665 13.2513579684
2639 1 40.5899 21.1351 15.8734 12 11.0421423487 1.7603870712 12.5303056078
2640 1 38.9019 22.9485 15.8905 12 11.0395896692 1.7629018986 10.9062048272
2641 1 42.2987 24.6366 14.1199 12 10.9231121094 1.7719121425 14.8118294158
2642 1 1.80605 26.4009 14.161 12 11.2536811996 1.7719121425 16.7545943366
2643 1 1.69112 24.5429 16.0019 12 11.1624731962 1.7719121425 15.6304541962
2644 1 -0.014288 26.4569 15.7925 12 11.4569566004 1.7833555655 14.4726824507
2645 1 3.52356 24.722 14.0559 12 10.8181671587 1.7698077352 15.6017250952
2646 1 5.2298 26.4407 14.0014 12 10.7608318874 1.7669124792 14.5438716187
2647 1 5.17018 24.7103 15.898 12 11.2076374241 1.7945729672 13.3742502893
2648 1 3.4691 26.3718 15.8707 12 11.1219115793 1.764366661 15.2785227045
2649 1 7.0309 24.7773 14.0724 12 11.2349946866 1.7756668468 12.582792596
2650 1 8.79864 26.4759 14.1448 12 11.1766964763 1.7703539018 11.4422224512
2651 1 8.77598 24.7496 15.8854 12 11.1092054295 1.7744746896 10.2405858821
2652 1 6.8836 26.6279 15.7666 12 11.0647943551 1.7756668468 12.4690311545
2653 1 10.5637 24.7728 14.1554 12 10.9177983008 1.7585692171 9.6083156631
2654 1 12.3246 26.4189 14.15 12 10.9392616102 1.7824049223 8.7845115827
2655 1 12.3173 24.682 15.8322 12 10.764767047 1.7808972888 7.2343932323
2656 1 10.6251 26.503 15.8709 12 10.9243550737 1.782546282 9.1492732359
2657 1 14.2158 24.8326 14.079 12 10.8700690388 1.752207421 7.1786946885
2658 1 15.8634 26.5454 14.0659 12 10.6983678722 1.7661327275 7.0993201486
2659 1 15.8719 24.7082 15.9411 12 11.3305530185 1.7675698883 4.7886404338
2660 1 14.1845 26.474 15.8506 12 11.1312147449 1.782546282 6.5555536524
2661 1 17.6189 24.7755 14.0235 12 11.16393271 1.7647815404 6.0242108633
2662 1 19.5767 26.4566 14.1258 12 10.8439429673 1.7378527489 6.218920564
2663 1 19.4419 24.7056 15.8747 12 11.0922670852 1.7744932107 3.9633000804
2664 1 17.6823 26.5479 15.8159 12 11.1344419681 1.7675698883 5.0608454571
2665 1 21.2653 24.6463 14.0985 12 10.9141703353 1.7767984274 5.5226695037
2666 1 22.9905 26.4771 14.0685 12 10.8835495716 1.7453977693 5.8848233145
2667 1 22.9254 24.6695 15.9344 12 11.2315113105 1.7594877648 3.676545505
2668 1 21.1543 26.4282 15.8492 12 10.8891635737 1.743797961 4.537562588
2669 1 24.7457 24.6494 14.1337 12 11.0836092975 1.7574921352 5.4270290549
2670 1 26.4786 26.5115 14.1732 12 10.8081253969 1.7462013249 5.9154189798
2671 1 26.437 24.7405 15.9341 12 11.2179196709 1.7594877648 3.8279513383
2672 1 24.7428 26.509 15.809 12 11.1900748609 1.779829899 4.2128877147
2673 1 28.2099 24.7319 14.0805 12 10.6436767986 1.7501763496 5.9795869088
2674 1 30.0554 26.5084 14.1061 12 10.7172579337 1.7413193229 7.0596121843
2675 1 29.8509 24.6793 15.8448 12 10.867098531 1.7246708158 4.8528000131
2676 1 28.1805 26.4436 15.8434 12 11.1324330973 1.7623265169 4.8225227721
2677 1 31.666 24.8177 14.1426 12 10.7031548562 1.7427814352 7.1908617564
2678 1 33.5989 26.5236 14.1562 12 11.2804669594 1.7649924054 8.8792898988
2679 1 33.4712 24.7303 15.9033 12 10.6710039895 1.7770698663 7.0952905106
2680 1 31.6277 26.4259 15.8895 12 10.985350843 1.7632462007 6.4525696383
2681 1 35.2242 24.724 14.1162 12 10.9265567845 1.7663850746 9.5148317327
2682 1 37.0612 26.6129 14.0991 12 11.5734196236 1.7845309638 11.1599861239
2683 1 37.0268 24.705 15.8294 12 11.1508606927 1.7790330316 9.5429127727
2684 1 35.2154 26.4893 15.8898 12 11.0922360522 1.7829609295 8.7112517326
2685 1 38.8513 24.5679 14.0661 12 11.3129099113 1.7846248748 12.0220355341
2686 1 40.6167 26.3934 14.1226 12 11.3019675227 1.7846248748 13.7173418652
2687 1 40.558 24.7445 15.8956 12 10.7921965519 1.7506296891 12.4555337624
2688 1 38.8125 26.4663 15.9064 12 10.8751381138 1.7846248748 11.3427385482
2689 1 0.0540373 28.276 13.9914 12 11.437302872 1.764491454 15.8473009591
2690 1 1.78536 29.9774 13.9784 12 11.4761541259 1.7773229855 17.8750065027
2691 1 1.79326 28.2892 15.892 12 11.3269959518 1.764366661 16.5417998126
2692 1 0.0430521 29.9589 15.803 12 11.2344275482 1.7645864353 15.7104250618
2693 1 3.56224 28.1129 14.1735 12 11.293515573 1.7720159707 16.4157037572
2694 1 5.40163 29.9924 14.0638 12 11.1408057513 1.7969975364 15.5502405805
2695 1 5.30686 28.2259 15.8753 12 11.3344927103 1.7990140262 14.2552228194
2696 1 3.57122 30.0356 15.8996 12 11.6057057019 1.7997796696 16.3423459687
2697 1 7.09068 28.2615 14.0885 12 10.8382480576 1.7684734894 13.4785427597
2698 1 8.9064 29.9992 13.9705 12 11.155830646 1.7703539018 12.8996817119
2699 1 8.72111 28.3194 15.9356 12 11.0928712704 1.7703539018 11.3915681449
2700 1 7.16291 29.9994 15.8547 12 11.2488129625 1.7997796696 13.3630047588
2701 1 10.6969 28.2361 14.1517 12 11.1113490863 1.7703539018 10.6831458511
2702 1 12.3113 29.9937 14.1621 12 10.8402021604 1.7580861975 10.6228091787
2703 1 12.2783 28.3376 15.8687 12 10.9600828042 1.782546282 8.7472531308
2704 1 10.54 30.1013 15.8547 12 11.360008032 1.7931613868 10.8349192572
2705 1 14.0765 28.2843 14.1239 12 11.0093261703 1.7656632811 8.7282676967
2706 1 15.8824 29.9981 14.0967 12 10.6681760957 1.7454251205 9.0510286125
2707 1 15.8605 28.2951 15.7743 12 10.9757234749 1.7656632811 6.8795191353
2708 1 14.0845 30.1418 15.9179 12 11.0120179459 1.7656632811 8.6659193425
2709 1 17.6679 28.2443 14.1255 12 10.6832971276 1.7415325763 7.3525168268
2710 1 19.4009 30.1084 14.078 12 11.4090116827 1.7590860126 8.1684009224
2711 1 19.454 28.2237 15.7333 12 11.0782574909 1.7536341622 5.7481514029
2712 1 17.5489 30.0181 15.8115 12 11.0214065261 1.7418936783 7.2215599659
2713 1 21.2456 28.2855 14.0337 12 10.9595686939 1.7584675151 6.8973592372
2714 1 23.0191 29.9965 14.1387 12 11.2705606006 1.7610151805 7.3298418032
2715 1 22.9113 28.1516 15.8566 12 11.019084722 1.7455346815 4.9714709102
2716 1 21.1672 30.0446 15.8704 12 11.2904163706 1.7610151805 6.5008777407
2717 1 24.7284 28.187 14.1565 12 10.6130083829 1.7462013249 6.2543011018
2718 1 26.3668 30.0194 14.2668 12 10.8449124239 1.7461162228 7.1996512399
2719 1 26.4417 28.3259 15.9618 12 10.8488480989 1.7453924794 4.9650612528
2720 1 24.6308 29.9788 15.9786 12 10.8286893711 1.7396395597 5.6836279534
2721 1 28.213 28.3656 14.1859 12 11.028517676 1.74728929 7.050294383
2722 1 30.0111 30.0714 14.1777 12 10.7840354339 1.7682409887 8.7075852335
2723 1 30.0861 28.2044 15.8039 12 11.1082843654 1.7573842739 6.6173724466
2724 1 28.2683 29.9844 15.9474 12 10.9930300872 1.7694495891 6.6258497192
2725 1 31.8514 28.375 14.1304 12 10.8489074405 1.7461067639 8.7581010957
2726 1 33.6168 30.0058 14.0818 12 10.8203544918 1.7787449817 10.4728489815
2727 1 33.6086 28.3923 15.8637 12 10.9178985624 1.7531811273 8.474314832
2728 1 31.7301 30.0911 15.894 12 10.8758087385 1.7560327315 8.3703008643
2729 1 35.2741 28.2857 14.1068 12 11.0536127096 1.7724488384 10.6432288349
2730 1 37.1352 30.0479 14.0792 12 11.0839279635 1.7411517655 12.6108053809
2731 1 37.0607 28.3378 15.8618 12 11.2463738557 1.7790074259 10.7815950922
2732 1 35.3382 30.0985 15.9418 12 10.6893191974 1.7385773548 10.3891010641
2733 1 38.9869 28.248 14.2069 12 10.9952023977 1.7772413164 13.0204119026
2734 1 40.7016 30.0249 14.0779 12 10.9890692075 1.7610053424 15.1017348278
2735 1 40.6278 28.2244 15.8396 12 10.9566466376 1.7631679695 13.4575036316
2736 1 38.8575 30.0031 15.9421 12 11.1099351779 1.7473418741 12.8645740263
2737 1 -0.0278398 31.7274 14.0803 12 11.1668348696 1.7839193049 17.1917921501
2738 1 1.83327 33.5488 14.0836 12 11.1485113258 1.7839193049 19.5287508865
2739 1 1.77716 31.7916 15.8726 12 11.1879380844 1.7773229855 17.9277133666
2740 1 -0.0307191 33.4858 15.8598 12 11.2764899847 1.7955370717 17.3999439236
2741 1 3.73452 31.7751 14.1045 12 11.196387958 1.7773229855 17.6018250607
2742 1 5.42788 33.5763 14.0033 12 11.009254831 1.7603446147 17.1736306488
2743 1 5.42724 31.8676 15.8961 12 11.6041082446 1.7997796696 15.5865790552
2744 1 3.49231 33.4307 15.9276 12 11.0098398526 1.764105995 17.9074138107
2745 1 7.17448 31.7355 14.0516 12 11.0695617394 1.7667379283 14.9393841204
2746 1 8.88578 33.5787 13.9882 12 10.8203209819 1.7498493007 14.8179301083
2747 1 8.79788 31.8259 15.851 12 11.1623415079 1.7329230485 12.9968117506
2748 1 7.21079 33.5532 15.807 12 10.9703446085 1.7341835507 15.1408042476
2749 1 10.6297 31.8551 14.004 12 10.8460442676 1.7580861975 12.7366267877
2750 1 12.3175 33.5474 14.0574 12 10.6941288551 1.7570991929 12.7007789455
2751 1 12.3725 31.8025 15.9213 12 10.7475539128 1.7580861975 10.6015534021
2752 1 10.6058 33.503 15.7276 12 10.8774807487 1.731572039 12.8341125221
2753 1 14.1329 31.77 14.0713 12 10.9056450004 1.7580861975 10.7580307186
2754 1 15.8728 33.55 14.0958 12 11.0144283065 1.7605202576 11.1456171135
2755 1 15.85 31.7044 15.8812 12 10.6642133856 1.7605202576 8.7410134399
2756 1 13.9888 33.4646 15.778 12 11.0143056065 1.7605202576 10.8036075875
2757 1 17.5429 31.8575 14.1388 12 11.1289584577 1.7483798698 9.6014124864
2758 1 19.3995 33.5774 14.1188 12 11.1569660654 1.7564169918 10.511940299
2759 1 19.4909 31.991 15.9132 12 11.1544916001 1.7410374954 8.1802856749
2760 1 17.5531 33.4968 15.9356 12 10.7807073351 1.7578147003 9.5232519404
2761 1 21.13 31.8931 14.0356 12 11.3438997408 1.7610222661 9.0742344382
2762 1 23.0264 33.6539 14.06 12 11.301684511 1.7860651368 9.87241639
2763 1 22.9421 31.7938 15.8823 12 11.6412487668 1.7864472699 7.3452890537
2764 1 21.2128 33.6764 15.9629 12 11.306244132 1.7855841875 9.0980369883
2765 1 24.8238 31.891 14.2059 12 11.1417620999 1.7425412789 8.2878152914
2766 1 26.5005 33.6915 14.0876 12 11.1335713675 1.7790962265 9.8789605628
2767 1 26.4996 31.6686 15.9165 12 11.1333507891 1.7831464575 7.2210670039
2768 1 24.8203 33.6017 15.9144 12 11.3205819972 1.7864472699 8.6591315628
2769 1 28.1742 31.7566 14.1529 12 11.2472029023 1.7713741564 8.9017650355
2770 1 29.9903 33.6588 14.0612 12 11.1112092848 1.7703537767 10.8941963363
2771 1 30.0783 31.8301 15.8888 12 11.1561730169 1.7713741564 8.5748146427
2772 1 28.3509 33.6645 15.7067 12 11.6129639546 1.7831464575 9.4036617488
2773 1 31.7083 31.8259 14.1465 12 11.009032946 1.775573543 10.4792215573
2774 1 33.461 33.5571 14.1914 12 11.4537760632 1.7787419085 12.4027278507
2775 1 33.4757 31.7304 15.8731 12 11.1831713355 1.786904553 10.3273066146
2776 1 31.731 33.6252 15.9695 12 11.1936301344 1.7468672335 10.5831496774
2777 1 35.3474 31.6947 14.0587 12 11.1087517483 1.7787449817 12.3405024256
2778 1 37.0611 33.5646 14.0304 12 10.9090024479 1.7611780654 14.4779262055
2779 1 37.0724 31.7938 15.9158 12 11.2075815075 1.7428310719 12.5264813914
2780 1 35.3054 33.5445 15.783 12 11.4634198645 1.7728559796 12.6216626303
2781 1 38.8629 31.8728 14.0806 12 10.8453011689 1.7558002925 14.6814882351
2782 1 40.6777 33.5582 14.1259 12 10.9371946655 1.7827903721 16.8409217349
2783 1 40.6796 31.8028 15.8268 12 10.9701517452 1.7645653721 15.2171753809
2784 1 38.8931 33.4774 15.7744 12 10.9195750641 1.7519750908 14.8500509156
2785 1 -0.0057166 35.291 14.0242 12 11.1802383005 1.7952706857 19.1213671301
2786 1 1.80059 37.1094 14.0289 12 11.1597100913 1.7588340479 21.487960683
2787 1 1.6615 35.3169 15.8133 12 11.1739971212 1.7955370717 19.7009340771
2788 1 0.0707172 37.0992 15.8165 12 10.9334215881 1.7954653496 19.6626138028
2789 1 3.56748 35.2056 14.0998 12 11.2387373717 1.7603446147 19.3956006379
2790 1 5.30426 37.0884 14.0921 12 11.2535120507 1.7946798844 19.2421353657
2791 1 5.30755 35.1957 15.8893 12 11.2681680612 1.7603446147 17.436587926
2792 1 3.52242 36.95 15.8033 12 11.2443920018 1.7688342482 19.7799194474
2793 1 7.1465 35.3563 14.0845 12 10.9780077215 1.7942993119 16.9727719438
2794 1 8.90636 37.0751 14.1236 12 11.1843745845 1.7950435018 16.8697396276
2795 1 8.91254 35.1976 15.816 12 10.8840979443 1.7557409016 14.9395091975
2796 1 7.05803 36.9541 15.8897 12 11.2092704111 1.7950435018 17.214363812
2797 1 10.6749 35.3449 14.093 12 10.9011676547 1.7770948686 14.7116808736
2798 1 12.3772 37.0788 14.0592 12 11.0746034368 1.771278459 15.0329141987
2799 1 12.3567 35.2535 15.8817 12 10.8731400629 1.771278459 12.8486616786
2800 1 10.5898 37.0656 15.8963 12 11.133823638 1.771278459 15.129056541
2801 1 14.168 35.4016 14.1967 12 10.9949563733 1.7511230736 12.9747984597
2802 1 15.8951 37.0661 14.1925 12 11.0690598218 1.7639505877 13.7054902437
2803 1 15.9873 35.2585 15.8891 12 11.129901872 1.7594290803 11.3284608018
2804 1 14.129 37.0819 15.878 12 10.9209008092 1.7718094224 13.4515549019
2805 1 17.6767 35.3418 14.0263 12 11.0236252851 1.7500278187 12.105351649
2806 1 19.376 37.1176 14.0795 12 11.0765482709 1.7574771806 13.2808953837
2807 1 19.2714 35.2252 15.909 12 11.1201246638 1.7468155536 10.7345958461
2808 1 17.7521 37.1375 15.8539 12 10.8635233217 1.7429901309 12.5621430393
2809 1 21.1452 35.3915 14.0652 12 11.4970135207 1.7610222661 11.5659231291
2810 1 22.8954 37.1685 14.1227 12 11.0435026116 1.7568710286 12.7586331904
2811 1 23.0045 35.3626 15.818 12 11.2288397452 1.7864472699 10.3543677076
2812 1 21.1189 37.0432 15.8944 12 11.072910242 1.7413703755 11.9727127186
2813 1 24.7427 35.4107 14.098 12 10.9316409448 1.763219763 11.1365841446
2814 1 26.5447 37.129 14.1443 12 10.7505640995 1.7346335688 12.7273790452
2815 1 26.5521 35.5005 15.9254 12 10.9593340801 1.7752984413 10.5087124577
2816 1 24.7471 37.1553 15.9091 12 10.9598263277 1.762649712 11.9071077502
2817 1 28.265 35.4488 14.1362 12 10.9802738311 1.7574479429 11.6605041785
2818 1 30.1037 37.1638 14.0422 12 10.9618217623 1.7574479429 13.5724664465
2819 1 30.0996 35.4654 15.9225 12 11.0074598279 1.7574479429 11.2822445451
2820 1 28.3191 37.166 15.8282 12 10.9520877227 1.7528592445 12.3043774437
2821 1 31.8024 35.4984 14.0792 12 10.9597284618 1.766279171 12.908379298
2822 1 33.5612 37.1139 14.0494 12 11.0667965096 1.7724877394 14.9277642096
2823 1 33.5121 35.337 15.9052 12 11.2965401214 1.7728559796 12.8060791713
2824 1 31.8629 37.1367 15.9112 12 10.8159766099 1.7683979189 13.3556057095
2825 1 35.3198 35.4315 14.108 12 11.2847512991 1.7728559796 14.6965575178
2826 1 37.0718 37.0943 14.1445 12 10.6875035878 1.7560155918 16.8186674272
2827 1 37.1445 35.2272 15.9322 12 10.91979659 1.7700398408 14.8030649397
2828 1 35.5133 37.1152 15.9411 12 11.0189803244 1.7724877394 15.1723313347
2829 1 38.7284 35.2404 14.1075 12 10.8510018229 1.7630172345 16.5261003915
2830 1 40.677 37.0539 14.1125 12 11.2982086763 1.7731564752 18.949406149
2831 1 40.5168 35.2819 15.8067 12 11.131406865 1.7955370717 17.0967663414
2832 1 38.8593 37.0695 15.7999 12 11.0755654635 1.7650216875 17.1835818975
2833 1 0.0630573 38.815 14.1372 12 11.2003180449 1.7731564752 21.310172258
2834 1 1.79521 40.6961 14.1415 12 11.1798995902 1.7628758526 23.7242952207
2835 1 1.77967 38.8646 15.8921 12 11.0983143217 1.7627410363 21.9903776641
2836 1 0.0240428 40.6925 15.8279 12 10.906780664 1.7616726701 21.9939050468
2837 1 3.57567 38.7688 14.0678 12 11.1897942607 1.7628758526 21.4365527907
2838 1 5.2365 40.6406 14.0533 12 10.8434168094 1.7788224201 21.5265393766
2839 1 5.2886 38.8718 15.9032 12 11.0688158083 1.7788224201 19.6200049014
2840 1 3.47577 40.7047 15.8703 12 11.2961995691 1.7788224201 22.0602204829
2841 1 6.963 38.9473 14.1185 12 11.2416291381 1.7950435018 19.3077229239
2842 1 8.7335 40.6693 14.1209 12 11.0749562031 1.773132761 19.5061508894
2843 1 8.75058 38.8546 15.8045 12 11.0795274973 1.7553633906 17.4932276995
2844 1 7.08284 40.6345 15.8475 12 10.6986730996 1.7785240055 19.7272157802
2845 1 10.5463 38.8788 14.2045 12 11.0478859086 1.773132761 17.1835935552
2846 1 12.3741 40.6992 14.1685 12 10.9851682356 1.772186781 17.8175388803
2847 1 12.3873 38.8547 15.7179 12 11.236869561 1.7725637016 15.682285061
2848 1 10.5337 40.6227 15.9684 12 11.0853909509 1.773048933 17.8767987868
2849 1 14.1628 38.9936 14.1013 12 10.9727664857 1.7711864971 15.8117833761
2850 1 15.9256 40.616 14.0317 12 10.911891646 1.7542588833 16.7619555973
2851 1 15.9195 38.7719 15.9074 12 11.0184416005 1.7725637016 14.3424678629
2852 1 14.1704 40.6483 15.8227 12 10.9866797979 1.7725637016 16.5128321297
2853 1 17.6451 38.8763 14.1309 12 10.9786213818 1.7788721149 14.9259049845
2854 1 19.374 40.5608 14.0201 12 11.0575738735 1.7551633394 16.1447593237
2855 1 19.4945 38.8604 15.8297 12 10.8862548821 1.7331116904 13.7649990388
2856 1 17.687 40.5361 15.8768 12 10.6641243393 1.7400134508 15.5046573875
2857 1 21.1275 38.8673 14.0326 12 11.0948435199 1.7574771806 14.4552714146
2858 1 22.9205 40.6489 14.0304 12 11.1693073715 1.7548998073 15.8768946748
2859 1 22.9446 38.7987 15.8646 12 11.2490089686 1.7597191538 13.4185859058
2860 1 21.3103 40.6859 15.8208 12 11.2214037005 1.7386281854 15.0860651951
2861 1 24.7373 38.835 14.1273 12 10.9815961026 1.7508370112 14.1444149222
2862 1 26.5594 40.7979 13.9659 12 10.9841248343 1.7690533396 16.109051209
2863 1 26.4921 38.9496 15.7868 12 11.2805710779 1.7465291039 13.7197654829
2864 1 24.7307 40.6443 15.8179 12 11.2402194112 1.7671111099 15.0588575858
2865 1 28.2893 38.9096 14.0242 12 11.0777337982 1.7697248975 14.633262979
2866 1 30.1048 40.5488 14.1771 12 10.8498655504 1.7729280845 16.3659356338
2867 1 30.0457 38.8666 15.8964 12 10.7982255984 1.7451462654 14.1956762937
2868 1 28.3869 40.6043 15.8255 12 11.007881979 1.7660315275 15.4382163169
2869 1 31.8347 38.9221 14.1815 12 10.9092528048 1.7714385014 15.517091638
2870 1 33.5511 40.6192 14.2101 12 11.2417387974 1.778023563 17.5804112411
2871 1 33.6181 38.8663 15.887 12 10.8754451948 1.772421659 15.5691592777
2872 1 31.8124 40.5964 15.9454 12 10.7225392643 1.776176383 16.2752238422
2873 1 35.3584 38.7932 14.1994 12 11.0723521682 1.7780460423 17.0358867294
2874 1 37.1398 40.5967 14.2123 12 11.1297110833 1.7780460423 19.3152053957
2875 1 37.1492 38.9947 15.9969 12 10.9248096125 1.7763474152 17.4138217837
2876 1 35.4216 40.6791 15.9544 12 10.9414125654 1.7780460423 17.8490266284
2877 1 38.9578 38.8526 14.1575 12 11.1450352062 1.7730328598 19.1174023482
2878 1 40.7003 40.596 14.0804 12 11.1577513947 1.7901363346 21.3963146614
2879 1 40.6937 38.879 15.9381 12 10.8936217384 1.7731564752 19.5533013046
2880 1 38.9475 40.621 15.8461 12 10.9061651921 1.7748412894 19.6897421465
2881 1 42.4044 0.0175429 17.5632 12 11.0863085301 1.7654813878 21.6260979856
2882 1 1.75135 1.76941 17.723 12 10.9553256995 1.7547786867 21.6508288978
2883 1 1.73152 42.2697 19.3545 12 10.8255052291 1.7654813878 22.4977577981
2884 1 42.3235 1.65693 19.4665 12 11.2408097882 1.7654813878 19.9462823296
2885 1 3.45673 42.3984 17.6201 12 11.0098696333 1.7635344241 21.8329425118
2886 1 5.21084 1.69295 17.654 12 11.0188053258 1.7625006221 19.450134562
2887 1 5.26644 42.2845 19.3696 12 11.0922635021 1.7635344241 20.4074190267
2888 1 3.4737 1.71854 19.3451 12 10.8610804978 1.7667169712 20.1802471556
2889 1 7.08727 0.0324103 17.6501 12 10.9561696191 1.7630876901 19.6341514479
2890 1 8.7803 1.72561 17.5689 12 11.0222032522 1.7547767188 17.4272448887
2891 1 8.83407 -0.0117078 19.43 12 10.9506397712 1.7547767188 18.2464995386
2892 1 7.01768 1.70671 19.3522 12 10.9102273668 1.7544442503 17.9188024109
2893 1 10.5595 42.3819 17.6341 12 11.1893773941 1.7665676289 17.931904017
2894 1 12.424 1.66008 17.5138 12 11.2119706074 1.7661078372 15.654679814
2895 1 12.4183 -0.0356313 19.3688 12 11.1931355622 1.7665676289 16.562492617
2896 1 10.6429 1.6845 19.4817 12 11.0732066363 1.7547767188 15.9319970639
2897 1 14.1977 42.279 17.5851 12 10.8445729167 1.765549797 16.4649921827
2898 1 15.9839 1.59589 17.5324 12 10.9201333815 1.7334298555 14.3770381635
2899 1 15.9318 42.3115 19.2909 12 10.7961465198 1.7551416256 15.444249064
2900 1 14.2562 1.63605 19.2539 12 11.088381167 1.7582278463 14.3635486301
2901 1 17.7356 42.2452 17.662 12 10.7258457606 1.748591566 15.6133288791
2902 1 19.4204 1.67248 17.6896 12 11.3128220556 1.7762977058 13.5864091533
2903 1 19.3632 42.3399 19.5377 12 11.0774453352 1.7616685549 14.8239707801
2904 1 17.6365 1.61846 19.3811 12 11.0631859524 1.7726608475 13.4100770384
2905 1 21.2774 42.3016 17.7197 12 11.1323720675 1.775045634 15.1643806001
2906 1 22.9918 1.63018 17.671 12 11.074015434 1.7757118551 13.4712070085
2907 1 23.0501 42.3182 19.4825 12 10.903548802 1.7509843325 14.6026748637
2908 1 21.3015 1.64324 19.413 12 11.3050116716 1.7762977058 12.9636422906
2909 1 24.7658 0.0141926 17.5972 12 11.0126227833 1.7671111099 14.9748754613
2910 1 26.5494 1.7351 17.6902 12 11.2258579423 1.7698299802 13.4149906381
2911 1 26.6346 0.0136831 19.4061 12 11.203702623 1.7915018754 14.6364132171
2912 1 24.7992 1.70115 19.512 12 11.2297366738 1.7509843325 12.8522225072
2913 1 28.2847 42.3558 17.563 12 11.216116138 1.7618912238 15.4472531153
2914 1 30.1185 1.67436 17.7075 12 11.1504658129 1.7701787386 14.1780848364
2915 1 30.1105 42.3601 19.5114 12 11.1228300853 1.7689337224 15.2069902585
2916 1 28.3716 1.6696 19.4504 12 11.2382729273 1.7689106164 13.2495865988
2917 1 31.8503 42.3768 17.69 12 10.9774985198 1.7766928316 16.2115884357
2918 1 33.6548 1.79525 17.6063 12 10.9251424481 1.7628460456 15.3514800147
2919 1 33.7148 -0.00798127 19.3278 12 11.1855182979 1.7655465206 16.3650301819
2920 1 31.9049 1.54568 19.5093 12 11.1268086247 1.7689337224 14.2331201441
2921 1 35.3359 -0.0229783 17.591 12 10.7677412474 1.7486368066 17.622043449
2922 1 37.1109 1.64273 17.5682 12 10.9531206443 1.7398671616 17.2698112871
2923 1 37.1951 42.4097 19.3846 12 11.0323970883 1.7900939213 17.9735968639
2924 1 35.5009 1.70849 19.3633 12 10.8645090555 1.760022692 15.7256926472
2925 1 38.9179 42.3685 17.6055 12 10.7412579669 1.7753279517 19.5305545842
2926 1 40.5514 1.75142 17.5568 12 11.074168427 1.7584789135 19.2214054939
2927 1 40.629 42.341 19.3612 12 11.0659694837 1.7649980338 20.0250847621
2928 1 38.9045 1.69753 19.3549 12 11.1182437704 1.7277882275 17.6390066256
2929 1 -0.00199722 3.51961 17.6961 12 10.9686898291 1.7584789135 19.2825455873
2930 1 1.73336 5.23508 17.6126 12 10.7460853742 1.7747847677 19.5863828766
2931 1 1.82349 3.50267 19.2984 12 11.0033870057 1.7654120191 20.1640745438
2932 1 -0.0134018 5.25175 19.4196 12 11.0266022382 1.7597208996 17.6990669158
2933 1 3.51421 3.45785 17.58 12 10.7486383251 1.7743506759 19.4143995256
2934 1 5.35805 5.11429 17.6148 12 11.0640776704 1.7745520399 17.0449819119
2935 1 5.3733 3.43953 19.5468 12 11.0269577413 1.7667169712 17.6317716659
2936 1 3.58317 5.24457 19.4052 12 11.0266510297 1.7747847677 17.7925783832
2937 1 7.00953 3.40771 17.6297 12 11.1273997631 1.7428935994 17.1021117457
2938 1 8.82683 5.23246 17.6328 12 11.06842823 1.758412368 14.6987367589
2939 1 8.82064 3.49 19.3954 12 11.1834718266 1.7547767188 15.4744068682
2940 1 7.04707 5.20217 19.5232 12 11.0313219127 1.7434514276 15.2675188097
2941 1 10.5945 3.37684 17.6978 12 11.0270923383 1.7664623646 15.1525723905
2942 1 12.321 5.25673 17.6424 12 10.9231347735 1.7726296808 12.8514881545
2943 1 12.4282 3.42449 19.3979 12 11.1862312138 1.7499281403 13.6400821397
2944 1 10.6295 5.14751 19.3472 12 11.2094337974 1.7508283138 13.1893175312
2945 1 14.2209 3.47609 17.6307 12 10.9464795564 1.74275958 13.3293296909
2946 1 16.0235 5.26458 17.5801 12 10.8213812878 1.7572266949 11.2056096031
2947 1 15.9279 3.4616 19.2978 12 10.8593818578 1.7559452113 12.1277571404
2948 1 14.1628 5.17575 19.333 12 10.8962492535 1.7534659328 11.3627784507
2949 1 17.6451 3.48944 17.6145 12 11.1624091358 1.7727875716 12.2556311039
2950 1 19.5357 5.31344 17.632 12 11.0779691844 1.7689506582 10.2016212609
2951 1 19.4885 3.44108 19.3687 12 11.3372407373 1.7689506582 11.4403734991
2952 1 17.6405 5.30784 19.3771 12 11.0841709844 1.7689506582 9.9653124507
2953 1 21.2386 3.51842 17.703 12 11.1051226299 1.7762977058 11.7102003462
2954 1 22.9929 5.34254 17.857 12 11.1036063317 1.7457575515 10.0195015673
2955 1 23.0224 3.43555 19.4551 12 11.2067308692 1.7503718612 11.1735119505
2956 1 21.1695 5.2972 19.5082 12 11.1192584403 1.7689506582 9.4521981753
2957 1 24.7108 3.44688 17.7476 12 11.3335824724 1.778899831 11.6886062927
2958 1 26.5264 5.09263 17.6353 12 11.2478865328 1.7451947548 10.3561207169
2959 1 26.5692 3.48893 19.4587 12 11.0928551445 1.7600810552 11.2509061234
2960 1 24.7796 5.17961 19.435 12 11.1612174556 1.7622219269 9.4982780196
2961 1 28.3944 3.40845 17.6835 12 10.9823929379 1.7605388571 12.2378216394
2962 1 30.0253 5.23002 17.6482 12 10.8411659044 1.7556269409 11.1493026107
2963 1 30.1103 3.45135 19.5105 12 11.0715347304 1.7689337224 11.9349584159
2964 1 28.4467 5.20653 19.3271 12 10.9513960509 1.7600524055 10.0128478802
2965 1 31.8593 3.45204 17.7606 12 11.345437632 1.763089283 13.1820013807
2966 1 33.6178 5.24406 17.7115 12 11.045346359 1.7877411777 12.6487641204
2967 1 33.6642 3.48471 19.5329 12 11.1280832137 1.7521732534 13.3341118636
2968 1 31.9306 5.16558 19.4496 12 10.8788627206 1.7704020084 11.1584880033
2969 1 35.3643 3.43181 17.6315 12 10.9052022634 1.7398671616 14.9580534869
2970 1 37.0758 5.11607 17.6345 12 10.926604505 1.7712692301 14.6710870245
2971 1 37.0603 3.42431 19.5731 12 10.8378773992 1.7717895812 15.1912649345
2972 1 35.4218 5.16484 19.4354 12 11.0809971796 1.7721295462 13.0161416677
2973 1 38.8174 3.46625 17.6467 12 11.0313232002 1.7398671616 16.8935914846
2974 1 40.6696 5.17636 17.8151 12 10.8659371161 1.7513215479 16.9353986209
2975 1 40.7076 3.45368 19.4887 12 11.0726808676 1.7732749035 17.6136131411
2976 1 38.9608 5.13011 19.4639 12 11.401701771 1.7806994923 15.284043392
2977 1 0.0333261 7.01901 17.7245 12 11.1052449439 1.7560925737 17.2884038319
2978 1 1.84172 8.70294 17.6028 12 10.9550361861 1.7471377412 17.5855211371
2979 1 1.79637 6.92859 19.3754 12 10.8293601888 1.7532641663 18.1495555629
2980 1 -0.0191305 8.78888 19.5022 12 11.2566231445 1.7560827909 15.7176721521
2981 1 3.45624 7.02684 17.6371 12 10.9036589679 1.7747847677 17.2679368879
2982 1 5.22907 8.84429 17.6013 12 10.9559904499 1.755325706 14.8934170542
2983 1 5.2792 6.95423 19.2751 12 11.0886742655 1.7458851621 15.5018192717
2984 1 3.4357 8.7715 19.3889 12 10.9102115192 1.7458851621 15.8027919887
2985 1 7.0429 6.95795 17.5424 12 10.9645658231 1.7586854119 14.7504667868
2986 1 8.78309 8.76675 17.5639 12 11.5268029438 1.8094357638 12.4664606401
2987 1 8.8066 6.96379 19.3491 12 11.3237371287 1.7885036768 12.9148995092
2988 1 6.96772 8.62831 19.343 12 11.1810309806 1.7884825189 13.2004894542
2989 1 10.5992 7.05993 17.6022 12 11.2269861021 1.8083243034 12.4027539172
2990 1 12.4531 8.79628 17.6851 12 11.03544974 1.808818844 10.173729989
2991 1 12.3706 7.05934 19.466 12 11.2134490814 1.7517911825 10.7332837863
2992 1 10.6141 8.7358 19.4828 12 11.4668001066 1.8094357638 10.4773422123
2993 1 14.0667 6.93936 17.601 12 10.9958330832 1.7403193424 10.7588636136
2994 1 15.853 8.80782 17.682 12 11.2117602398 1.7514292006 8.4796808654
2995 1 15.8256 7.01017 19.303 12 10.8252742472 1.7409105595 9.1086830888
2996 1 14.0617 8.75987 19.4409 12 11.16531952 1.7799379712 8.5722161999
2997 1 17.7106 7.06072 17.6787 12 11.0316699177 1.7566580676 9.136068976
2998 1 19.3288 8.89923 17.7165 12 11.2065103017 1.7792534122 7.1202349788
2999 1 19.3352 7.14481 19.4573 12 11.0772371017 1.7680620324 7.9179099615
3000 1 17.5071 8.76861 19.4567 12 10.9584339766 1.7426250598 6.966744804
3001 1 21.2153 7.04785 17.7258 12 10.985058986 1.7551546662 8.4562019297
3002 1 22.9579 8.80754 17.6785 12 11.3821728384 1.7480450794 7.0428940562
3003 1 22.937 7.01547 19.502 12 11.0066449303 1.7607853439 7.8051978304
3004 1 21.1785 8.64731 19.5502 12 11.1003412601 1.7828975529 6.2595765222
3005 1 24.8539 6.8915 17.6376 12 11.1983270028 1.7622219269 8.6390718203
3006 1 26.6069 8.7136 17.6976 12 10.8583301967 1.7421053149 7.3054622469
3007 1 26.5961 6.89849 19.4031 12 11.0802579299 1.7622219269 8.0553012818
3008 1 24.9156 8.70439 19.3495 12 11.3362151697 1.7715536531 6.2274397795
3009 1 28.3836 7.03535 17.7582 12 10.8969172838 1.7451947548 9.1242763577
3010 1 29.9958 8.83134 17.6317 12 11.2056864404 1.7743114727 8.3175871206
3011 1 30.2309 6.98457 19.5538 12 11.3098609593 1.7743114727 8.8992380457
3012 1 28.3816 8.7816 19.4171 12 10.7933889508 1.7697508181 6.8835561993
3013 1 31.8016 6.87215 17.6175 12 11.2052231239 1.7868337489 10.5991092425
3014 1 33.58 8.82191 17.5606 12 11.2157474233 1.7877389709 10.1855670558
3015 1 33.5814 6.94826 19.3973 12 11.0426018171 1.7877411777 10.693594889
3016 1 31.9934 8.7499 19.2536 12 11.1254019207 1.7743114727 8.5778008595
3017 1 35.4039 7.0121 17.6104 12 11.1990063418 1.7877411777 12.3845753749
3018 1 37.2254 8.77492 17.7031 12 10.9253430438 1.7418611183 12.4016847298
3019 1 37.0512 6.96953 19.4506 12 11.292993562 1.7806994923 12.7431862774
3020 1 35.3605 8.82786 19.4431 12 10.9630050996 1.7444787409 10.3765011387
3021 1 38.9422 6.86162 17.6872 12 11.0007419311 1.780591349 14.7226855125
3022 1 40.6711 8.78875 17.732 12 11.1737484464 1.7611334192 14.9860620811
3023 1 40.6294 7.09218 19.4774 12 11.1599579902 1.7798307645 15.2416667739
3024 1 38.8362 8.68482 19.386 12 11.0324576118 1.7806994923 13.0141157523
3025 1 0.0159497 10.4966 17.7114 12 11.2631649292 1.785706959 15.5579518204
3026 1 1.78082 12.1841 17.6244 12 11.1422623002 1.7778673057 16.1508714842
3027 1 1.80087 10.5782 19.3816 12 10.8988812384 1.7641945442 16.2818782823
3028 1 42.378 12.245 19.4697 12 11.2615103322 1.7641945442 14.2066723719
3029 1 3.49208 10.5623 17.5356 12 10.6550638115 1.7470311087 15.3631146139
3030 1 5.29425 12.3035 17.6437 12 11.1779629086 1.7627389924 13.0869245011
3031 1 5.30061 10.4156 19.3808 12 11.2685047125 1.7395271504 13.4072409898
3032 1 3.50513 12.2276 19.2382 12 11.0066184852 1.7624928642 14.1376814566
3033 1 7.03799 10.4669 17.4873 12 11.3893341735 1.7627389924 12.6975961926
3034 1 8.79261 12.5142 17.635 12 11.1142140423 1.7669716419 10.2942738776
3035 1 8.74299 10.53 19.3606 12 11.6552722126 1.7885036768 10.7390172216
3036 1 7.05958 12.2984 19.4196 12 11.0965621109 1.7669716419 11.0055636581
3037 1 10.6871 10.6952 17.6922 12 11.4689424128 1.8094357638 10.0444282584
3038 1 12.4687 12.404 17.7407 12 10.926700519 1.7735984069 7.9362733773
3039 1 12.4255 10.5748 19.4457 12 11.0672406764 1.7635323436 8.1309653251
3040 1 10.5895 12.4092 19.3981 12 11.2541722312 1.7669716419 8.2930090425
3041 1 14.1407 10.6428 17.6818 12 10.9735469897 1.7541968274 8.0451478982
3042 1 15.9621 12.39 17.5849 12 11.0584163026 1.7894379828 6.0026696091
3043 1 15.9275 10.6405 19.3989 12 11.3736124214 1.7894379828 6.2856056974
3044 1 14.0869 12.3863 19.4262 12 11.1374653726 1.7894379828 6.052057608
3045 1 17.638 10.6351 17.6166 12 11.0726297416 1.7545146658 6.3931378477
3046 1 19.4284 12.328 17.6797 12 11.267177268 1.7727638175 4.6319462054
3047 1 19.4001 10.5472 19.4968 12 11.1224399036 1.7828975529 4.8706569726
3048 1 17.7047 12.3814 19.4334 12 11.1318065084 1.7885240167 4.1207318706
3049 1 21.1141 10.4514 17.6822 12 11.1947515205 1.7828975529 5.6679286893
3050 1 22.8544 12.2471 17.7536 12 11.2606339503 1.7679117035 4.1429288389
3051 1 22.9598 10.4774 19.5271 12 11.4031960955 1.7828975529 4.7216360369
3052 1 21.1051 12.2397 19.4866 12 11.2302767624 1.781714602 3.1423319599
3053 1 24.7207 10.5456 17.6962 12 11.1416261864 1.7715536531 5.6357095012
3054 1 26.5374 12.29 17.6539 12 10.9969883142 1.7839419564 4.6093584472
3055 1 26.4993 10.5555 19.4765 12 11.1206292639 1.7715536531 4.8342689488
3056 1 24.7634 12.2991 19.4802 12 10.9878412379 1.7707493161 3.1711455943
3057 1 28.3096 10.4907 17.6982 12 10.7235660152 1.7438832465 6.3618035958
3058 1 29.9437 12.2156 17.6154 12 11.0589246827 1.7640394934 5.9653483891
3059 1 30.0009 10.5178 19.3843 12 10.8109342689 1.7741065441 6.2343960421
3060 1 28.2437 12.4021 19.4317 12 10.9520055471 1.7640394934 3.9814298796
3061 1 31.835 10.634 17.7553 12 10.8859324865 1.7465734402 7.9406201247
3062 1 33.5452 12.3221 17.6883 12 11.1226235266 1.7720014938 8.06626226
3063 1 33.6227 10.618 19.4083 12 10.8688079095 1.7691667719 8.1223220827
3064 1 31.765 12.3587 19.3539 12 10.9385726855 1.7640394934 6.004328807
3065 1 35.4591 10.489 17.6216 12 11.3173702754 1.7724379962 10.3153887061
3066 1 37.1399 12.3384 17.5907 12 11.1238500009 1.7713476999 10.6617716188
3067 1 37.0538 10.6 19.4308 12 10.8405995365 1.7562272332 10.6228086125
3068 1 35.4427 12.3723 19.3344 12 10.9251021461 1.7695972403 8.5497818057
3069 1 38.921 10.6873 17.731 12 11.1602549204 1.7751033259 12.6973305614
3070 1 40.7878 12.3069 17.6774 12 11.1482495897 1.7694222651 13.4403207512
3071 1 40.6254 10.5081 19.4823 12 11.0349406268 1.7611334192 13.4484418722
3072 1 38.9127 12.2977 19.3962 12 11.2731858253 1.7578742051 11.2422138497
3073 1 42.4108 14.1583 17.6986 12 11.267409558 1.7729547518 14.2493888086
3074 1 1.72836 15.7964 17.587 12 10.7909702105 1.7565547023 15.3760231275
3075 1 1.74294 14.1014 19.4415 12 11.0814962898 1.7641945442 15.1391816527
3076 1 -0.00631821 15.7873 19.3643 12 10.8265158739 1.7555402581 13.3856798593
3077 1 3.40213 14.1197 17.588 12 11.0552047751 1.7598016647 14.150633142
3078 1 5.32941 15.8937 17.6102 12 10.7644180662 1.7502527469 12.0583653791
3079 1 5.2535 14.0721 19.329 12 11.1863345332 1.7598016647 11.9109542852
3080 1 3.47682 15.7416 19.465 12 11.0138583017 1.7596837662 13.1724885737
3081 1 6.97922 14.0873 17.6246 12 10.6044060734 1.7549807617 11.0551191822
3082 1 8.7042 15.8383 17.6926 12 10.832225117 1.7627226255 9.1473887381
3083 1 8.64903 14.1351 19.3639 12 11.0884196748 1.7771479741 8.9008127528
3084 1 6.88415 15.8411 19.4039 12 11.1141652692 1.7644609972 9.9660669831
3085 1 10.5299 14.1626 17.6988 12 11.2534038918 1.7560551604 8.2862672835
3086 1 12.4344 15.9572 17.5761 12 11.0456474416 1.7560551604 6.3011222085
3087 1 12.413 14.1663 19.4525 12 10.9904540554 1.7615363807 6.0528112986
3088 1 10.6292 15.8592 19.489 12 11.1092383148 1.7522775233 6.6232036333
3089 1 14.1725 14.1849 17.5883 12 10.8157258019 1.7547492472 5.9693932651
3090 1 15.7902 15.9903 17.6114 12 10.935789475 1.7657729538 4.1331188028
3091 1 15.941 14.2171 19.389 12 11.2345389981 1.7894379828 3.9180505533
3092 1 14.1459 15.8903 19.3374 12 11.0206384211 1.7663173096 4.0786150753
3093 1 17.6177 14.2387 17.6602 12 11.1223466581 1.7716273383 4.0798548054
3094 1 19.4888 15.8615 17.4884 12 11.2822630359 1.7727638175 2.5832648314
3095 1 19.307 14.1594 19.392 12 11.582803657 1.787419419 2.2076350525
3096 1 17.6779 15.9951 19.3971 12 11.3107568576 1.7843938002 1.9320804142
3097 1 21.322 14.0668 17.5841 12 11.1235089729 1.7727638175 3.0737464752
3098 1 23.047 15.8706 17.5786 12 11.3923984496 1.7476734197 2.3096870117
3099 1 22.945 14.0086 19.534 12 11.0248658759 1.7456401049 1.6423711981
3100 1 21.2707 15.7093 19.3145 11 11.9462786704 2.2230984598 0.6951426714
3101 1 24.6882 13.9219 17.7484 12 11.5656808317 1.7852108669 3.0465404818
3102 1 26.5106 15.8724 17.6878 12 11.3167973692 1.7845353562 2.5065248329
3103 1 26.5002 13.989 19.5015 12 10.9530619725 1.7845353562 2.15364679
3104 1 24.8419 15.782 19.4786 11 12.0162246321 2.3165873613 0.526344752
3105 1 28.2487 14.1172 17.6873 12 11.1088407758 1.7845353562 4.0536961999
3106 1 30.1255 15.8902 17.6118 12 10.8241316231 1.7225971813 4.266434545
3107 1 30.0492 14.1011 19.5183 12 10.8875107184 1.7616784497 3.9076920834
3108 1 28.3776 15.8491 19.408 12 11.2967224362 1.769694716 2.0648366113
3109 1 31.6754 14.1062 17.631 12 11.2913219264 1.7612658803 5.9768490233
3110 1 33.5208 15.8374 17.6666 12 10.9302515894 1.7612658803 6.4149161075
3111 1 33.6538 14.0371 19.3784 12 11.1085640983 1.7617573459 6.4291600784
3112 1 31.6698 15.8528 19.5008 12 11.293733814 1.7776695802 4.0611164773
3113 1 35.2498 14.0202 17.566 12 10.9670300324 1.7720014938 8.5032446358
3114 1 37.0984 15.8306 17.6241 12 11.0330489321 1.7516970077 9.3157641372
3115 1 37.1196 14.1683 19.416 12 11.3517112603 1.7577794768 8.981036726
3116 1 35.1956 15.8343 19.4099 12 10.9068217695 1.7390712605 6.8796732324
3117 1 38.8795 14.1602 17.611 12 11.2859052304 1.7694222651 11.2744541332
3118 1 40.638 15.8624 17.6626 12 10.9959904154 1.7683875024 12.2805440982
3119 1 40.6832 14.0736 19.4826 12 11.2339913333 1.7694222651 12.0812708165
3120 1 38.8727 15.8057 19.4797 12 11.2673948107 1.7649992975 10.0255856611
3121 1 0.0286012 17.5051 17.6209 12 10.9284460732 1.7750300455 13.6373987284
3122 1 1.7851 19.2771 17.5546 12 10.8854171518 1.7536725057 14.9845684221
3123 1 1.76658 17.5284 19.2651 12 10.8658426815 1.7398060381 14.6860957169
3124 1 0.108095 19.3119 19.4136 12 11.1379895139 1.779351206 13.0725243394
3125 1 3.58209 17.5424 17.6112 12 10.8677112343 1.7412192591 13.3913931232
3126 1 5.2521 19.4314 17.6284 12 11.2467960995 1.7858786413 11.695628643
3127 1 5.14845 17.6473 19.3731 12 10.8937160555 1.7644609972 11.3749233337
3128 1 3.47038 19.3088 19.4499 12 10.6595698575 1.7564556178 12.8733556151
3129 1 7.0048 17.6848 17.7392 12 10.8272426481 1.7644609972 10.1923699485
3130 1 8.6648 19.4566 17.7526 12 11.0694671523 1.7316980571 8.5715116545
3131 1 8.75596 17.5498 19.3329 12 11.1867854029 1.7642219457 8.0025610173
3132 1 6.97424 19.4725 19.4835 12 11.1939597793 1.7643826343 9.4595586455
3133 1 10.5313 17.6038 17.6687 12 11.0583447617 1.7475401501 7.2955672902
3134 1 12.3293 19.5651 17.7032 12 10.7517184587 1.7475401501 5.7050990754
3135 1 12.4063 17.6655 19.3422 12 10.6641633986 1.7522775233 4.8538823445
3136 1 10.603 19.3642 19.3577 12 11.1602177067 1.7613118239 6.1033294387
3137 1 14.0893 17.7526 17.6584 12 10.6872330053 1.7474771278 4.648289775
3138 1 15.8324 19.4781 17.7031 12 11.2289560934 1.7581653905 3.2194585867
3139 1 15.8886 17.748 19.3974 12 11.2324109079 1.7882801521 2.1552719572
3140 1 13.9872 19.5048 19.3322 12 10.689379379 1.7842378948 3.3913140077
3141 1 17.7179 17.7214 17.5941 12 11.450844708 1.7747925077 2.545680618
3142 1 19.4526 19.5536 17.6269 12 10.882738507 1.7562891133 1.6873352544
3143 1 19.5131 17.5717 19.3833 10 13.6891657097 2.848080428 0.2592773349
3144 1 17.77 19.4732 19.4233 11 12.5126784359 2.5894565049 0.6375612376
3145 1 21.1922 17.6846 17.6547 12 11.1223114964 1.781013753 1.7132202525
3146 1 22.9635 19.3539 17.6011 12 10.8148070715 1.7500548632 1.6136681406
3147 1 22.9641 17.635 19.3536 9 16.4663072302 3.5339448591 0.0621552773
3148 1 21.2133 19.3731 19.2572 8 22.7867899032 5.175932463 0.1226112231
3149 1 24.7723 17.6178 17.5963 12 11.2993712837 1.7886828868 1.8558320277
3150 1 26.6561 19.4243 17.7522 12 11.4657283633 1.7903173227 1.8164781597
3151 1 26.5281 17.6173 19.5824 10 15.123802972 3.3067148623 0.2764625566
3152 1 24.6938 19.3642 19.3275 8 22.8970028756 5.2912061715 0.1353630121
3153 1 28.3001 17.6165 17.7082 12 11.4186162012 1.7723329398 2.6228589
3154 1 30.0536 19.535 17.6422 12 11.3287382116 1.7667243393 3.1707741662
3155 1 29.9311 17.7457 19.5679 12 11.4288774057 1.7777164251 2.0674657857
3156 1 28.2458 19.5811 19.578 11 12.2507231185 2.4660042105 0.52314352
3157 1 31.7096 17.6546 17.668 12 11.0415058214 1.7777164251 4.6356402313
3158 1 33.4886 19.39 17.7286 12 10.8531256502 1.7352330403 5.6767620522
3159 1 33.5166 17.5695 19.3092 12 10.9512413539 1.7776529823 5.0411124059
3160 1 31.7922 19.4605 19.5087 12 11.2281072963 1.7777164251 3.2387509012
3161 1 35.3275 17.5712 17.6162 12 10.832791587 1.7323752059 7.4101660644
3162 1 37.0337 19.4624 17.6859 12 11.0298922875 1.7684345952 8.531509191
3163 1 37.0454 17.5932 19.387 12 11.0300391731 1.7684345952 8.0092995012
3164 1 35.2166 19.2912 19.3474 12 11.1219584684 1.7684345952 6.1350559772
3165 1 38.7165 17.5863 17.7578 12 11.1076987849 1.7565678744 10.1470506289
3166 1 40.7251 19.3475 17.6494 12 11.3417235448 1.7578492742 11.853795032
3167 1 40.6851 17.5446 19.4065 12 11.4117200924 1.7559484518 11.4256752437
3168 1 38.8205 19.3346 19.3836 12 11.062057134 1.7658991313 9.475880719
3169 1 0.00412557 21.1131 17.6795 12 10.8604031953 1.7649156455 13.462717868
3170 1 1.61965 22.8852 17.7912 12 10.7989196363 1.7718131145 14.921101855
3171 1 1.65817 21.1408 19.3916 12 10.7310085314 1.7630434585 14.4923847013
3172 1 42.3151 22.8152 19.5346 12 11.1138257649 1.7700129685 12.7615131838
3173 1 3.47501 21.0894 17.7469 12 10.9422370079 1.7718131145 13.4252730409
3174 1 5.1734 22.8968 17.6062 12 11.0927540686 1.7948400011 12.2350493004
3175 1 5.13845 21.1912 19.4182 12 10.9417100167 1.7640663745 11.3743907156
3176 1 3.44424 22.8907 19.3622 12 10.8466466362 1.7718131145 13.2060845222
3177 1 6.95393 21.2285 17.5678 12 11.179745891 1.7432751509 10.3308988482
3178 1 8.73627 22.8994 17.6037 12 11.1165113521 1.7625257752 9.1120692989
3179 1 8.83936 21.1931 19.3877 12 11.268064573 1.7827830418 7.90710108
3180 1 6.95361 22.9312 19.3491 12 11.4505719597 1.7690596735 9.9543874764
3181 1 10.5698 21.1828 17.6297 12 11.0312837282 1.7576924945 7.1927976351
3182 1 12.2821 22.977 17.5772 12 10.7958623245 1.755485426 6.0540859328
3183 1 12.3495 21.2848 19.4168 12 10.7999658393 1.7576537498 4.8131596258
3184 1 10.55 23.0475 19.4061 12 11.199104322 1.7566252797 6.7878324517
3185 1 14.0907 21.2986 17.6814 12 10.8646064768 1.7626109244 4.3682745749
3186 1 15.9226 22.8971 17.6015 12 11.3316383344 1.7724593317 3.139547816
3187 1 15.8356 21.27 19.4361 12 10.9562408546 1.7740320526 1.8961073412
3188 1 13.9942 23.0147 19.3775 12 10.9771572431 1.7740320526 3.8132000545
3189 1 17.6078 21.2299 17.6819 12 11.1403115254 1.760600892 2.3127224892
3190 1 19.4076 22.8771 17.5979 12 11.1850289975 1.7737643216 1.9367154493
3191 1 19.4392 21.2842 19.3884 9 17.1094008249 3.8000013479 0.0406288477
3192 1 17.5893 23.125 19.3877 11 11.7566453052 2.2836573213 0.7001704459
3193 1 21.1323 21.2642 17.6171 12 10.8401070471 1.7737932042 1.6346962057
3194 1 22.8262 22.882 17.7522 12 11.0875167772 1.7483423913 1.5954127546
3195 1 22.9531 20.9927 19.6578 8 46.7763347035 6.5527826211 0.4744487843
3196 1 21.258 22.9437 19.519 9 17.0169427064 3.8489487361 0.096547824
3197 1 24.5801 21.2213 17.7261 12 11.2743239788 1.7903173227 1.5735119562
3198 1 26.3382 22.9777 17.86 12 11.4047058599 1.7903173227 1.7407645649
3199 1 26.4497 21.1799 19.576 9 17.3935421769 3.757465748 0.0882306101
3200 1 24.6409 22.875 19.5751 8 24.9655967352 4.947900666 0.2132403967
3201 1 28.2468 21.2082 17.7603 12 11.2748427039 1.786119983 2.3274702733
3202 1 30.0306 22.9463 17.7075 12 11.3727845869 1.7560779252 3.1566350085
3203 1 29.9228 21.2633 19.5067 12 11.0998878563 1.7667243393 1.6306207722
3204 1 28.1109 23.0395 19.534 11 11.914687145 2.318711236 0.5426682565
3205 1 31.8144 21.1717 17.6662 12 11.056196619 1.7585934949 4.2692167704
3206 1 33.6475 22.9678 17.6605 12 10.9429143622 1.7850700066 5.6428454244
3207 1 33.5708 21.1815 19.3525 12 11.2058363823 1.7850700066 4.7888791366
3208 1 31.818 22.998 19.4103 12 11.1772527924 1.7849701784 3.1130271669
3209 1 35.3083 21.1471 17.6328 12 11.044963948 1.7599639426 7.1119721828
3210 1 37.0824 22.997 17.6075 12 11.0293597003 1.7629018986 8.4698246752
3211 1 37.1093 21.1603 19.346 12 11.2084637733 1.7677298393 7.9034620983
3212 1 35.3923 23.0969 19.3884 12 11.2499432328 1.7850700066 6.1835797731
3213 1 38.7894 21.2489 17.6241 12 11.1162821469 1.7553411849 10.1491895856
3214 1 40.7392 22.877 17.699 12 11.0479733308 1.7582736708 11.7861928223
3215 1 40.5514 20.9899 19.3764 12 11.2071919332 1.7615393792 11.0946282179
3216 1 38.8539 22.8969 19.3273 12 11.1592281488 1.740979468 9.489998953
3217 1 42.304 24.6664 17.6692 12 11.2684492783 1.7833555655 13.3749090182
3218 1 1.75902 26.4168 17.5601 12 11.2726538462 1.7833555655 15.4987519462
3219 1 1.67583 24.7839 19.4202 12 11.3240692809 1.7865244511 14.7441576078
3220 1 42.3654 26.542 19.3775 12 11.6001951882 1.7825859996 13.3448626278
3221 1 3.39212 24.6253 17.7394 12 10.855004735 1.7948400011 14.1307201365
3222 1 5.23488 26.4831 17.68 12 11.2937374885 1.7948400011 13.0087749883
3223 1 5.13972 24.7399 19.495 12 11.0925750518 1.7948400011 11.9708895513
3224 1 3.46073 26.4172 19.4698 12 11.1781093554 1.7491699087 14.0102441003
3225 1 6.99254 24.7182 17.6136 12 11.3408037505 1.7947639312 11.0606391862
3226 1 8.71335 26.5819 17.5694 12 11.2412860416 1.7602599868 10.130500679
3227 1 8.7628 24.7855 19.4037 12 11.3126202786 1.7632628407 8.7784907269
3228 1 6.93363 26.4765 19.4388 12 10.8210806702 1.7650919892 10.8716084236
3229 1 10.534 24.7951 17.6462 12 11.1171199996 1.7624966904 8.031751251
3230 1 12.3073 26.4793 17.7067 12 10.9350085675 1.782546282 6.9916979797
3231 1 12.2891 24.7207 19.4353 12 10.8030734229 1.7506968059 5.7227172985
3232 1 10.5774 26.4666 19.4521 12 11.1023058766 1.7579884959 7.7194194607
3233 1 13.9879 24.7909 17.6051 12 11.0951051284 1.7527585261 5.0029781601
3234 1 15.9335 26.5956 17.6013 12 11.2364809319 1.7504120722 4.6128853301
3235 1 15.8217 24.8111 19.3708 12 11.4417401686 1.7740320526 2.7614023516
3236 1 14.0756 26.3881 19.446 12 11.1137599115 1.7745345331 4.7812047434
3237 1 17.7131 24.8559 17.6516 12 11.2680402604 1.7675698883 2.7540142219
3238 1 19.4171 26.5946 17.6301 12 11.0970165603 1.7527846749 3.2957240361
3239 1 19.4941 24.5966 19.4522 11 12.1141201481 2.4613901138 0.6704661792
3240 1 17.6251 26.4854 19.3715 12 11.3256864004 1.7679659915 2.6136860603
3241 1 21.1576 24.7423 17.6317 12 11.1855123919 1.7483423913 2.2741758731
3242 1 22.8588 26.4573 17.7121 12 11.1359813513 1.779829899 2.5711308748
3243 1 22.9499 24.7227 19.4963 10 13.5088948742 2.8218336436 0.2165631872
3244 1 21.097 26.5227 19.4296 12 11.1176731202 1.7459601441 1.5713803998
3245 1 24.6451 24.6914 17.7826 12 11.3875937366 1.779829899 1.8912566199
3246 1 26.4145 26.5515 17.7416 12 11.4927440852 1.77971533 2.6848824775
3247 1 26.2524 24.6959 19.6895 10 15.173032984 3.1641504816 0.2029785353
3248 1 24.5628 26.611 19.4419 11 11.6944612437 2.1513285098 0.8804405684
3249 1 28.1523 24.6853 17.7275 12 11.3621170566 1.7660604197 2.5824355396
3250 1 29.9239 26.3283 17.5624 12 11.1670186031 1.7654594333 4.3380920673
3251 1 30.0194 24.6817 19.4363 12 11.0098907159 1.7549099579 2.3949664129
3252 1 28.2294 26.4171 19.4076 12 11.4336639081 1.7652549305 2.2551560331
3253 1 31.8148 24.7628 17.6523 12 10.9507226583 1.7778188194 4.8195191973
3254 1 33.5325 26.5253 17.5681 12 11.3368654886 1.7812837052 6.5625004309
3255 1 33.5673 24.7558 19.474 12 11.2240665763 1.7850285736 4.7970850908
3256 1 31.7656 26.4349 19.4752 12 11.1674865047 1.766354356 4.2573817292
3257 1 35.3664 24.7587 17.5875 12 10.9314303392 1.7827934113 7.2199134993
3258 1 37.1602 26.4362 17.6428 12 11.0297056645 1.7829609295 9.1635397312
3259 1 37.1447 24.7448 19.3461 12 10.8543013494 1.7530896476 8.0317719289
3260 1 35.3915 26.481 19.446 12 11.2203795186 1.7829609295 7.032294651
3261 1 38.8455 24.7381 17.5443 12 10.9280243961 1.7444206864 10.2189010653
3262 1 40.5607 26.5423 17.5458 12 11.0448766901 1.7820995774 12.1759632628
3263 1 40.5956 24.6738 19.4649 12 11.5206919844 1.7700129685 11.2920963631
3264 1 38.8961 26.5448 19.3752 12 11.1945343209 1.7540976346 10.1228683899
3265 1 -0.049775 28.2257 17.6327 12 11.389523646 1.7833555655 14.3301777762
3266 1 1.7597 30.1272 17.6464 12 10.9999309289 1.7578788588 16.6015470699
3267 1 1.77396 28.2436 19.4089 12 11.3306867642 1.7690234625 15.5042233976
3268 1 0.030925 30.0908 19.3998 12 11.0190342168 1.7690234625 14.5969248672
3269 1 3.45782 28.3481 17.7299 12 11.3224360716 1.7768473886 15.1194484259
3270 1 5.30717 30.0303 17.7778 12 11.4746180661 1.7997796696 14.222361357
3271 1 5.23701 28.2085 19.4346 12 10.8753369476 1.7764843855 12.9926357091
3272 1 3.45139 30.0876 19.4373 12 10.8930508564 1.746989405 15.3404491675
3273 1 7.01017 28.2342 17.7702 12 10.725194343 1.7766953141 12.0407192821
3274 1 8.73735 30.0031 17.6707 12 11.2008893427 1.7932387873 11.4137728357
3275 1 8.75201 28.2449 19.3987 12 10.9448356575 1.7573519549 10.0312391735
3276 1 7.07168 29.9778 19.4537 12 10.8426261798 1.747839201 12.2515955928
3277 1 10.6015 28.1775 17.6455 12 11.1708882751 1.7930341543 9.0810969431
3278 1 12.3207 30.0549 17.6331 12 11.1057491693 1.7932387873 8.7709069017
3279 1 12.2765 28.35 19.4256 12 11.1426720047 1.7743766575 7.1848950808
3280 1 10.56 29.969 19.4603 12 11.177489332 1.7932387873 9.3894444874
3281 1 14.0123 28.195 17.6411 12 11.4401645804 1.7745345331 6.578502017
3282 1 15.9096 29.9224 17.6902 12 11.1596697718 1.7472730728 6.4439729512
3283 1 15.8341 28.2515 19.5094 12 11.0840084181 1.7745345331 4.5221669364
3284 1 14.1117 30.0015 19.3965 12 11.0371920584 1.7731608793 6.7704204512
3285 1 17.737 28.2467 17.6441 12 11.1008778008 1.7679659915 4.7755851768
3286 1 19.3131 30.1033 17.5218 12 11.1686132592 1.7536341622 5.719480125
3287 1 19.5153 28.4244 19.3734 12 10.9299515268 1.767664069 3.2404666326
3288 1 17.5899 30.017 19.4127 12 10.8075307544 1.7679659915 4.8357659902
3289 1 21.2277 28.2933 17.6039 12 11.0182467454 1.7536341622 4.0630261601
3290 1 22.9355 30.0161 17.5988 12 10.7132035673 1.7394375763 4.9320986415
3291 1 22.8938 28.4111 19.3706 12 10.9870271846 1.7464200081 2.6256238307
3292 1 21.2185 30.1126 19.347 12 11.0501210441 1.7708684412 4.3253620438
3293 1 24.6594 28.2361 17.6999 12 10.9333627484 1.779829899 3.2346103751
3294 1 26.4977 29.992 17.7418 12 10.7453733934 1.7598140046 4.8858673387
3295 1 26.6169 28.327 19.3861 12 10.8608965375 1.7439815171 2.6930341578
3296 1 24.7867 30.0674 19.3605 12 10.8966364444 1.7577996259 4.0855160049
3297 1 28.292 28.262 17.5896 12 11.2661756802 1.7623265169 4.5291590246
3298 1 30.012 30.1023 17.783 12 11.1740527887 1.7598140046 6.3686657165
3299 1 30.0805 28.1739 19.3955 12 11.3946778392 1.768749674 4.3306400411
3300 1 28.3614 30.0188 19.5345 12 10.7850847541 1.759025066 4.6559242898
3301 1 31.7855 28.2795 17.6 12 11.568284009 1.768749674 6.2729246934
3302 1 33.551 30.0376 17.564 12 10.8977393273 1.7868193879 8.4163611417
3303 1 33.6083 28.1901 19.4889 12 11.4496829853 1.769057824 6.573839794
3304 1 31.8265 30.0469 19.4036 12 11.2382700815 1.768749674 6.633052129
3305 1 35.2906 28.3255 17.6567 12 11.1483976701 1.7829609295 8.6232049583
3306 1 37.0382 30.0171 17.7363 12 10.8324395587 1.766769222 10.7869068093
3307 1 37.1483 28.3275 19.3968 12 11.076692314 1.7691848662 9.3276716329
3308 1 35.3114 30.014 19.4167 12 11.3681143869 1.7710262896 8.9480515475
3309 1 38.7957 28.2202 17.6262 12 10.8158152596 1.7557466498 11.252026038
3310 1 40.558 29.9495 17.5162 12 11.127860437 1.7518887213 13.5158652946
3311 1 40.6443 28.3213 19.3412 12 11.172724071 1.7686604001 12.2916391595
3312 1 38.8679 30.0443 19.5473 12 11.0278374587 1.7664438092 11.527107488
3313 1 42.3153 31.7027 17.6322 12 11.1209004892 1.7645864353 15.7261151108
3314 1 1.77765 33.487 17.6318 12 11.0333708041 1.764105995 18.1732637076
3315 1 1.72021 31.8348 19.417 12 10.8472754663 1.7500918059 16.8458238114
3316 1 0.0207274 33.6521 19.3434 12 11.5347994164 1.7500918059 16.4586130964
3317 1 3.51362 31.8371 17.6439 12 10.789391326 1.7504831757 16.606135949
3318 1 5.31469 33.5213 17.7374 12 10.8974451022 1.7504831757 15.946472691
3319 1 5.22843 31.8212 19.4926 12 10.8502438951 1.7465171768 14.6699555856
3320 1 3.56115 33.5156 19.4329 12 10.7989894505 1.7586778667 16.8978835473
3321 1 7.10475 31.8038 17.7914 12 11.3855062802 1.7501343733 13.6074069983
3322 1 8.89534 33.5883 17.6808 12 10.9465677712 1.750272386 13.2145961266
3323 1 8.96827 31.7999 19.564 12 10.9515172168 1.750272386 11.5784917991
3324 1 7.13584 33.5727 19.4051 12 10.8620830207 1.7497384979 14.0237703985
3325 1 10.544 31.8865 17.7095 12 11.1221759425 1.7932387873 11.0424520672
3326 1 12.3699 33.523 17.6262 12 10.8136934098 1.7577590631 10.8915991936
3327 1 12.3308 31.8074 19.4246 12 10.8557216701 1.763964367 9.0529013751
3328 1 10.7169 33.5278 19.4073 12 10.6812881966 1.7494557422 11.2726597325
3329 1 14.1053 31.8278 17.6591 12 10.868233266 1.7633923607 8.6872418624
3330 1 15.865 33.5067 17.6057 12 11.0994422577 1.7605202576 9.1217383506
3331 1 15.8568 31.7946 19.416 12 10.9510354088 1.763964367 7.0195719045
3332 1 14.0336 33.5508 19.4333 12 11.1316575022 1.7636595675 9.2865082127
3333 1 17.5314 31.7407 17.5837 12 10.8019151181 1.7399364151 7.1873652985
3334 1 19.3804 33.5794 17.6894 12 10.7936617639 1.7396223938 8.3683903944
3335 1 19.2857 31.7398 19.2867 12 11.1628289072 1.7558583974 6.0030220597
3336 1 17.5398 33.6245 19.3953 12 11.0143951442 1.7609557801 8.0424200596
3337 1 21.1718 31.8039 17.5997 12 10.9592760626 1.7473355815 6.6811477462
3338 1 23.0768 33.7108 17.6711 12 11.3171067221 1.7864472699 8.0497241584
3339 1 23.085 31.7935 19.2717 12 11.3838269213 1.7608444994 5.6636792051
3340 1 21.2007 33.5846 19.225 12 11.5144858011 1.757314405 7.3312257984
3341 1 24.8921 31.797 17.6152 12 10.9680302347 1.7566629683 6.2992846634
3342 1 26.5394 33.6987 17.7075 12 11.2744977071 1.7831464575 8.1639579164
3343 1 26.5928 31.7926 19.373 12 11.1021514853 1.7619405445 5.7731741568
3344 1 24.7581 33.6177 19.3518 12 11.3592487659 1.7820695451 7.2507694647
3345 1 28.2988 31.8557 17.6835 12 11.4197710777 1.7783483192 6.8995770439
3346 1 30.092 33.5547 17.7084 12 11.0768346342 1.7778365975 8.9797405755
3347 1 30.0096 31.8525 19.4573 12 10.9399634788 1.7619752523 6.9326265531
3348 1 28.2748 33.6544 19.464 12 10.8479676582 1.7696994456 7.8677482513
3349 1 31.8088 31.7918 17.7899 12 10.923327074 1.786904553 8.5394651702
3350 1 33.5205 33.6132 17.6354 12 11.3683277367 1.786904553 10.8519450861
3351 1 33.5986 31.7538 19.4464 12 11.0977245924 1.7867887653 8.9035857544
3352 1 31.8585 33.6055 19.4789 12 10.9510903597 1.7670895516 9.2043866929
3353 1 35.3755 31.8096 17.5816 12 11.1300111918 1.786904553 10.7401100582
3354 1 37.1614 33.6003 17.7191 12 10.9639808119 1.7568128163 13.0863649204
3355 1 37.2784 31.853 19.388 12 10.907083132 1.766769222 11.5412535767
3356 1 35.3852 33.4127 19.4005 12 11.1266748216 1.7670895516 11.2382713672
3357 1 38.871 31.7116 17.6929 12 11.0418593515 1.7525036434 13.1076564406
3358 1 40.6464 33.5117 17.5953 12 11.1491440747 1.7519750908 15.508131337
3359 1 40.6733 31.7701 19.4216 12 11.1386140099 1.7672500489 13.9435716125
3360 1 39.0186 33.5429 19.3803 12 10.8165736975 1.7470318578 13.8881214242
3361 1 0.017163 35.3591 17.6292 12 11.2765264468 1.7955370717 17.9558588262
3362 1 1.77757 37.1527 17.5919 12 11.2526927643 1.7717048988 20.3798387115
3363 1 1.89647 35.3196 19.4801 12 11.0916723715 1.7607445963 18.88876871
3364 1 0.0422212 36.9532 19.4621 12 11.1589087108 1.7717048988 18.615328887
3365 1 3.47258 35.2346 17.6008 12 11.3015247376 1.7689446654 18.3495943782
3366 1 5.30763 37.0628 17.5701 12 11.2172064277 1.7689446654 17.9302905689
3367 1 5.40817 35.2618 19.3646 12 11.1682169485 1.7587875459 16.3437498187
3368 1 3.55598 37.0678 19.3723 12 11.2626460892 1.7689446654 18.8434235549
3369 1 7.09737 35.2075 17.5995 12 10.8337801664 1.7412584298 15.4935833271
3370 1 8.75426 37.0069 17.6262 12 11.2032941942 1.7557409016 15.5001631151
3371 1 8.97443 35.2935 19.4365 12 10.9730258312 1.765292389 13.6481697387
3372 1 7.04707 37.0068 19.3587 12 11.2770891742 1.7733731188 16.1739880164
3373 1 10.6664 35.3131 17.6808 12 10.9246046284 1.7422306785 13.117715846
3374 1 12.2631 37.12 17.6737 12 10.9498054409 1.7704766068 13.6264611612
3375 1 12.3332 35.349 19.4822 12 10.9645627697 1.7361566591 11.5715207427
3376 1 10.4749 37.0442 19.378 12 10.9730410322 1.754244827 13.9688504074
3377 1 14.0419 35.4324 17.5237 12 11.2716829271 1.7577590631 11.4875609972
3378 1 15.9454 37.041 17.6173 12 10.9339117673 1.7457646749 12.1590825101
3379 1 15.7849 35.2975 19.3677 12 11.0680883975 1.7844301198 10.1096527016
3380 1 14.1154 37.0528 19.3637 12 10.9087850006 1.7557975979 12.2406974861
3381 1 17.5882 35.4041 17.7329 12 10.9286261652 1.7468155536 10.2351954027
3382 1 19.4253 37.1677 17.6286 12 10.9794345099 1.7913305639 11.4451318187
3383 1 19.4423 35.2739 19.3804 12 11.2669387104 1.7917662374 8.9991213535
3384 1 17.6266 37.1755 19.4642 12 11.1096363371 1.7917662374 11.046218442
3385 1 21.0889 35.4572 17.5823 12 10.857582805 1.7466584486 9.7989880355
3386 1 22.9191 37.1179 17.695 12 11.0294313304 1.7597191538 10.9868579611
3387 1 22.9256 35.4335 19.4361 12 10.8978776963 1.754908308 8.628268535
3388 1 21.204 37.1009 19.4716 12 11.0616095151 1.7917662374 10.2266088942
3389 1 24.8297 35.4138 17.6218 12 10.9267923481 1.763219763 9.6516720876
3390 1 26.598 37.169 17.6454 12 10.989565904 1.7486465331 11.3441137834
3391 1 26.6828 35.4092 19.3664 12 10.943700034 1.7598849424 9.0943404483
3392 1 24.7266 37.1497 19.2942 12 10.8840372601 1.772391075 10.3528447627
3393 1 28.3985 35.3918 17.6384 12 10.9415868016 1.7783483192 10.0325161891
3394 1 30.0859 37.1135 17.7092 12 10.6791445745 1.7486465331 12.0574997212
3395 1 30.0626 35.3459 19.4126 12 10.5868936273 1.7410953063 9.9992378241
3396 1 28.3349 37.2005 19.3528 12 10.6814761482 1.747211579 11.0990792112
3397 1 31.7582 35.4364 17.7321 12 10.8405487569 1.7361134102 11.2664784764
3398 1 33.731 37.1046 17.5845 12 10.849193574 1.7724877394 13.5870387136
3399 1 33.6885 35.2993 19.3584 12 11.1113189103 1.7670895516 11.5309565039
3400 1 31.8919 37.1065 19.4242 12 10.8863739252 1.7450553096 12.2081178333
3401 1 35.455 35.3186 17.6413 12 11.0131695185 1.7728559796 13.1671115607
3402 1 37.1779 37.0293 17.7179 12 10.9486469499 1.7707891107 15.4028225783
3403 1 37.1627 35.2834 19.4387 12 11.0974725069 1.7492868697 13.7097029013
3404 1 35.3166 37.1145 19.3321 12 10.9937064461 1.749791376 13.870485871
3405 1 38.8807 35.3264 17.6406 12 10.7528296609 1.7655428263 15.4395440004
3406 1 40.6928 37.0056 17.4285 12 11.0748793092 1.7715264924 17.8756684482
3407 1 40.6301 35.4161 19.2614 12 11.0816611931 1.7505989172 16.3159179094
3408 1 38.8802 37.0479 19.4097 12 11.1527831134 1.7806550268 16.1121853762
3409 1 42.3831 38.8915 17.5298 12 11.0272781554 1.7717048988 20.2846615133
3410 1 1.65754 40.6782 17.623 12 11.059625074 1.7610304953 22.6623240463
3411 1 1.73198 38.8336 19.4086 12 11.3573110107 1.7610304953 21.1006437747
3412 1 42.3914 40.5805 19.3846 12 10.9903982601 1.7654813878 21.0094165285
3413 1 3.5719 38.8477 17.5962 12 11.2508039681 1.7660068669 20.3036566721
3414 1 5.36087 40.5364 17.6212 12 11.1651510793 1.7784707483 20.1788314178
3415 1 5.31571 38.8214 19.4343 12 11.3321677891 1.7596414221 18.6142771723
3416 1 3.5073 40.5745 19.3801 12 11.2723009301 1.7599687187 21.1043910591
3417 1 7.01805 38.8536 17.5811 12 10.8807599663 1.7553633906 17.9207235697
3418 1 8.66537 40.7262 17.5798 12 10.772918675 1.7553633906 18.3526542455
3419 1 8.76809 38.9315 19.3244 12 11.0366177881 1.7551197168 16.4483295936
3420 1 7.10315 40.5788 19.4228 12 10.944372609 1.7390413471 18.7065723853
3421 1 10.5202 38.8631 17.6067 12 11.2048172838 1.7553633906 15.8927620863
3422 1 12.307 40.5635 17.7088 12 11.1785476121 1.7665676289 16.4926464182
3423 1 12.2609 38.8526 19.3841 12 11.17125416 1.7925079123 14.5587608174
3424 1 10.4782 40.6363 19.375 12 11.270544602 1.7536719663 16.911846164
3425 1 14.0572 38.7516 17.6679 12 11.1635691637 1.7725637016 14.2778769185
3426 1 15.9195 40.536 17.6074 12 10.7707297789 1.7594052122 15.2289400593
3427 1 15.9017 38.8491 19.3166 12 11.010862966 1.7554499113 13.1106195293
3428 1 14.0451 40.5802 19.3303 12 10.9971585111 1.7594052122 15.320139067
3429 1 17.7721 38.9209 17.597 12 10.8205078967 1.7455223911 13.3205100405
3430 1 19.5242 40.63 17.6647 12 10.7706376084 1.7497925775 14.4322262378
3431 1 19.4231 38.8829 19.3979 12 10.9909675018 1.7905674188 12.1577867453
3432 1 17.673 40.5978 19.4642 12 10.8415555772 1.7768449832 14.0111038032
3433 1 21.2234 38.9189 17.6783 12 11.1027401515 1.7597191538 12.6415185628
3434 1 22.986 40.6587 17.7026 12 11.0662159333 1.7668855679 14.0514262673
3435 1 22.9862 38.8968 19.3883 12 10.8828024451 1.772391075 11.7508818987
3436 1 21.1059 40.6548 19.4805 12 10.90107147 1.7566066834 13.4866315256
3437 1 24.7405 38.9259 17.5984 12 11.0599974583 1.7711364784 12.6920030779
3438 1 26.5775 40.649 17.6124 12 11.0933444742 1.7671111099 14.4846703979
3439 1 26.5369 38.9226 19.3685 12 11.0198892591 1.7723606199 12.2024679838
3440 1 24.8166 40.689 19.3496 12 11.0343803533 1.772391075 13.5673404771
3441 1 28.3671 38.9547 17.6417 12 10.9518523693 1.7486465331 13.2896540758
3442 1 30.0934 40.5994 17.7353 12 10.9434776976 1.7772398901 15.2290337396
3443 1 30.1162 38.9854 19.4293 12 10.7375954526 1.7451184982 13.2142983449
3444 1 28.2791 40.6665 19.4932 12 10.9991451566 1.7367934341 14.0587572251
3445 1 31.8597 38.7789 17.6702 12 10.9486203062 1.7772398901 14.1811479587
3446 1 33.6411 40.5976 17.6089 12 10.9268405137 1.7772398901 16.4668692009
3447 1 33.6101 38.9082 19.3643 12 10.7631317751 1.7561216152 14.4973128064
3448 1 31.9402 40.5983 19.5254 12 11.071446707 1.7772398901 15.2993713301
3449 1 35.3854 38.8608 17.6498 12 10.8571546234 1.7764025309 15.7750970382
3450 1 37.1863 40.7801 17.6397 12 10.9457743591 1.7900939213 18.2489906951
3451 1 37.1513 38.8368 19.5419 12 11.4822785853 1.7900939213 16.2410574141
3452 1 35.3186 40.5168 19.436 12 11.23129438 1.7900939213 16.6468504971
3453 1 38.9135 38.8558 17.6109 12 11.295687678 1.7764025309 17.8320228269
3454 1 40.6719 40.6699 17.6267 12 10.8440127363 1.7616726701 20.2583842504
3455 1 40.765 38.79 19.3401 12 11.3330294299 1.7806550268 18.6424237258
3456 1 38.9009 40.5772 19.3621 12 11.3079499342 1.7898395613 18.6806966837
3457 1 -0.0197706 42.3754 21.1032 12 10.9731058126 1.7647508371 20.8176076504
3458 1 1.77848 1.64722 21.08 12 11.2122974936 1.747812447 20.9742614387
3459 1 1.71186 0.0765466 22.9821 12 11.3446650854 1.7505685205 21.7347304651
3460 1 42.3653 1.7588 22.9275 12 10.769299949 1.7380189269 19.2930523959
3461 1 3.58524 42.3908 21.0584 12 10.8224920761 1.7493213084 21.1343436922
3462 1 5.26737 1.60309 21.1591 12 10.6445323975 1.7544442503 18.7818363089
3463 1 5.23905 42.4221 22.8422 12 10.7543129878 1.7663810371 19.8067937334
3464 1 3.5381 1.66674 22.8971 12 10.8951869743 1.7589203832 19.7662979831
3465 1 7.10779 0.0218367 21.1088 12 10.8552071709 1.7390413471 18.8129150557
3466 1 8.86979 1.69212 21.1521 12 10.8093431798 1.7522385734 16.4529954271
3467 1 8.83876 0.0522616 22.9753 12 10.9155151 1.7348591476 17.4962461975
3468 1 7.02494 1.66306 22.8958 12 10.6924569438 1.7173145192 17.3636893757
3469 1 10.6343 0.0865747 21.2272 12 11.0319875458 1.7536719663 16.8024585249
3470 1 12.3992 1.76232 21.213 12 11.2132071983 1.761820834 14.5595640317
3471 1 12.501 0.0452461 22.9296 12 10.9118027522 1.7578896256 15.751141599
3472 1 10.7365 1.71681 23.0464 12 10.8937534092 1.761820834 15.0714342435
3473 1 14.0799 42.3126 21.0948 12 11.1819166913 1.7582278463 15.659493297
3474 1 15.8961 1.63172 21.0908 12 11.1040725871 1.7726608475 13.4494805441
3475 1 15.9043 42.4043 22.8442 12 11.1913478282 1.7512329266 14.7951321183
3476 1 14.2477 1.75203 22.9704 12 11.0589519998 1.761820834 13.5400956006
3477 1 17.5951 42.412 21.1409 12 10.8652808302 1.7768737892 14.6433558712
3478 1 19.4346 1.70655 21.2044 12 11.13180623 1.7726342736 12.6954332778
3479 1 19.3995 42.3124 22.9537 12 11.2760948685 1.7736688395 14.177657344
3480 1 17.7186 1.70002 22.9159 12 11.2756409712 1.778291429 12.6457033293
3481 1 21.266 0.0169377 21.2644 12 11.1111341195 1.7578691612 14.1703194977
3482 1 22.9884 1.74838 21.2319 12 10.9476798967 1.7580219428 12.4121592924
3483 1 23.0507 0.0128314 22.8201 12 11.0618471219 1.7597279717 13.9346297171
3484 1 21.156 1.7727 22.9203 12 10.9896163524 1.758305795 12.2249704737
3485 1 24.7609 42.2934 21.1669 12 11.0995509325 1.7915018754 14.3201643508
3486 1 26.5634 1.72364 21.2855 12 11.2851661409 1.7913853222 12.5791898877
3487 1 26.5415 42.3231 22.9842 12 11.2861599207 1.7915018754 14.0812164239
3488 1 24.6759 1.65987 22.9867 12 11.1516140391 1.7525847433 12.2137955931
3489 1 28.3526 42.3555 21.2455 12 11.0511055017 1.7913052895 14.5636711928
3490 1 30.1686 1.65985 21.2481 12 10.9489792686 1.7688717079 13.2080838499
3491 1 30.0707 0.0105767 23.0743 12 10.9911581611 1.7669059078 14.5460682926
3492 1 28.3554 1.71661 22.9543 12 11.0985246398 1.7666483969 12.5754374175
3493 1 31.8659 -0.0315924 21.3548 12 10.9132408339 1.7655465206 15.2837615576
3494 1 33.6802 1.7973 21.2221 12 11.2152758443 1.7655465206 14.2907946263
3495 1 33.6001 42.3402 23.0043 12 10.7542968704 1.7626188707 15.6687232046
3496 1 31.8935 1.742 23.0336 12 10.8030527876 1.7509838096 13.3681800395
3497 1 35.4579 42.4228 21.127 12 11.1678277882 1.7645329472 16.6667600688
3498 1 37.1951 1.68694 21.1637 12 10.6741435087 1.760022692 16.1402789323
3499 1 37.1403 0.0130946 23.0498 12 10.8282076114 1.7572444012 17.1733758097
3500 1 35.3554 1.69817 22.9692 12 11.1536475359 1.7586903314 14.8244654071
3501 1 38.9256 42.4102 21.2684 12 11.2359802438 1.7651462825 18.484555617
3502 1 40.6361 1.61453 21.234 12 11.0173523479 1.7732749035 18.3781245142
3503 1 40.7101 42.3454 22.9895 12 11.10228269 1.7685725506 19.4216662036
3504 1 38.9281 1.75575 23.0265 12 10.9980550841 1.7469782795 16.8593619486
3505 1 0.0253219 3.46753 21.1908 12 11.1707733824 1.7711220957 18.4691876696
3506 1 1.79874 5.30349 21.2454 12 10.8100644932 1.7597208996 18.6011728629
3507 1 1.68462 3.46796 22.8961 12 10.8078080588 1.7589203832 19.4299294443
3508 1 0.0566123 5.21998 22.9495 12 10.7971911414 1.7606540557 17.0582921097
3509 1 3.45398 3.4652 21.1361 12 11.0049298284 1.7662766775 18.7122210624
3510 1 5.2781 5.2474 21.1043 12 10.7588380863 1.7491609211 16.1968101508
3511 1 5.32314 3.39987 22.8064 12 11.0128765907 1.7546832558 17.2932629439
3512 1 3.59292 5.17426 22.8403 12 10.971565196 1.7705361181 17.2119626145
3513 1 7.04038 3.41694 21.2868 12 10.7213226428 1.7284452276 16.2531913102
3514 1 8.78357 5.14117 21.2326 12 11.0306214041 1.7505579752 13.8427500485
3515 1 8.81738 3.36319 23.0012 12 11.0272121564 1.7284452276 14.9044651466
3516 1 7.08639 5.24339 22.9342 12 11.214895849 1.8022996875 14.7403872401
3517 1 10.5433 3.41555 21.2244 12 11.1924903245 1.749662992 14.1172995799
3518 1 12.3919 5.18212 21.1377 12 11.4070124154 1.7543336788 11.7264986948
3519 1 12.4741 3.63242 22.984 12 11.3148597124 1.761820834 12.5633873038
3520 1 10.5698 5.27042 22.9037 12 11.1528692922 1.802469133 12.3492301409
3521 1 14.2345 3.42196 21.0176 12 11.2081388411 1.7569924458 12.3829907621
3522 1 15.8959 5.25656 21.0678 12 11.031546462 1.7543336788 10.0832405113
3523 1 15.9351 3.45972 22.9391 12 11.4326849483 1.7787999737 11.4387174294
3524 1 14.2467 5.316 22.9026 12 11.3492098597 1.7543336788 10.2885620917
3525 1 17.6967 3.55377 21.1129 12 11.5031396057 1.7787999737 11.1667277265
3526 1 19.3967 5.2702 21.2177 12 11.0759931917 1.768401366 9.241140189
3527 1 19.4887 3.49797 22.9756 12 10.8382194262 1.7787999737 10.5863283004
3528 1 17.6791 5.30127 22.9637 12 11.4274729562 1.7787999737 9.2075196743
3529 1 21.0978 3.53732 21.1753 12 10.9604489053 1.758305795 10.7430260805
3530 1 22.9276 5.17144 21.2872 12 11.1817599404 1.7426756019 9.037168932
3531 1 22.9703 3.43996 23.0388 12 10.9560644531 1.7377206893 10.5127903079
3532 1 21.1718 5.21667 22.9411 12 10.6426360307 1.7417098465 8.7985171177
3533 1 24.8636 3.44453 21.3192 12 11.1817914765 1.7437998646 10.7745810055
3534 1 26.5881 5.26012 21.2556 12 11.1051256765 1.7453050747 9.1474139435
3535 1 26.6108 3.54269 23.0499 12 10.9414431119 1.7560768278 10.4852656215
3536 1 24.686 5.25567 22.9122 12 11.0913563231 1.7768075374 8.6739283743
3537 1 28.2114 3.55074 21.1942 12 11.1650269128 1.7605388571 11.0010698037
3538 1 30.1143 5.18557 21.2793 12 11.1007889858 1.7709167588 9.8833095187
3539 1 30.1144 3.41671 22.952 12 10.9267647037 1.7560768278 11.2983560231
3540 1 28.3569 5.30797 23.0023 12 10.9041706281 1.7560768278 9.0560915449
3541 1 31.8397 3.46201 21.1774 12 10.8683595828 1.7709167588 12.0984231863
3542 1 33.6842 5.27131 21.2569 12 10.7657190776 1.7704197473 11.3424981071
3543 1 33.5456 3.52278 22.8954 12 11.1754417673 1.7659194204 12.3818734884
3544 1 31.9147 5.36519 23.0139 12 11.0099428935 1.7709167588 10.0234739675
3545 1 35.5293 3.49816 21.3102 12 10.7709801833 1.760022692 13.7309942101
3546 1 37.182 5.30948 21.2932 12 10.9480635204 1.7792880604 13.4349151268
3547 1 37.1703 3.46289 23.0163 12 10.9001962511 1.7479471472 14.4342431177
3548 1 35.4136 5.22964 22.9754 12 10.9871553986 1.7666083343 11.9788715575
3549 1 38.8109 3.36717 21.258 12 11.0584870961 1.7792880604 15.8963730802
3550 1 40.7299 5.22038 21.2675 12 11.2825509519 1.7792880604 16.0340434788
3551 1 40.6475 3.49244 23.0254 12 11.0769905842 1.7732749035 16.8618583759
3552 1 38.8756 5.22783 23.0296 12 11.1007794957 1.7790988969 14.4027515738
3553 1 0.0461499 7.01364 21.2307 12 11.192216618 1.7593961496 16.2283995605
3554 1 1.89572 8.77413 21.2112 12 10.8610108595 1.7684672538 16.6976540069
3555 1 1.8173 6.94732 22.9861 12 10.8344917162 1.7684415605 17.4444997323
3556 1 -0.00744006 8.79957 22.9622 12 11.2400014771 1.7722582128 14.9403233755
3557 1 3.44271 7.01325 21.1411 12 10.7587686001 1.7458851621 16.4137429089
3558 1 5.29176 8.71944 21.1807 12 11.1246573341 1.7440793388 13.9645315034
3559 1 5.21332 6.92627 22.9318 12 11.2746664053 1.8034707224 14.8370840533
3560 1 3.55687 8.77362 22.9117 12 10.7790512376 1.7673733801 15.0230667981
3561 1 7.01424 7.00847 21.1267 12 11.2559183035 1.8034707224 13.7586148128
3562 1 8.93609 8.7176 21.2648 12 11.2762203974 1.7885036768 11.2059411975
3563 1 8.8102 6.95942 23.0106 12 11.2340496607 1.8034707224 12.3115810215
3564 1 7.04371 8.86656 22.9157 12 11.2402544418 1.8034707224 12.2024403276
3565 1 10.4972 6.90126 21.0856 12 11.3150347249 1.8024703743 11.4568448359
3566 1 12.3511 8.9515 21.1781 12 11.3496771167 1.7782465535 8.7419109711
3567 1 12.4066 7.06789 22.8731 12 11.8125071661 1.8024703743 9.8272960764
3568 1 10.6123 8.87388 22.9358 12 11.3073148908 1.8024703743 9.6917209291
3569 1 14.2108 6.98776 21.08 12 11.1892514925 1.7799379712 9.3560092018
3570 1 15.9318 8.89762 21.2484 12 11.2510427576 1.7799379712 6.8852679788
3571 1 15.7712 7.116 22.9153 12 11.3028502271 1.7457219071 8.067865326
3572 1 14.043 8.95554 22.9839 12 11.4334311267 1.7799379712 7.3546643626
3573 1 17.5634 7.067 21.1446 12 11.0107998594 1.7540988535 7.8423295631
3574 1 19.382 8.73363 21.3122 12 11.163052793 1.7403662579 5.8721078847
3575 1 19.3931 6.99593 23.0319 12 10.9694462419 1.7430730904 7.1815902499
3576 1 17.6369 8.69729 22.9968 12 11.0976121509 1.7674809536 5.9812498113
3577 1 21.2118 7.00952 21.3273 12 10.969839183 1.7429663466 7.3282506599
3578 1 23.001 8.7491 21.2383 12 10.9608647099 1.7590068964 5.5712057379
3579 1 22.8925 7.04102 23.036 12 10.8191893213 1.7761490922 6.9349859018
3580 1 21.1773 8.83565 23.0894 12 10.8010297166 1.7479588789 5.1953465015
3581 1 24.6366 7.03446 21.1476 12 11.2736978942 1.7768075374 7.2931045392
3582 1 26.5716 8.70412 21.1533 12 11.0504054262 1.7616412794 5.8289960367
3583 1 26.5318 7.10929 22.8349 12 11.2175772928 1.7768075374 7.0220989564
3584 1 24.7157 8.80639 22.9756 12 11.1726462592 1.7768075374 5.1838944694
3585 1 28.3273 6.97307 21.103 12 10.9711291637 1.7319700722 7.7673512483
3586 1 30.1488 8.79803 21.1615 12 11.202874964 1.7743114727 6.7851252149
3587 1 30.1498 7.03902 22.8765 12 11.0725134221 1.7729793936 7.8848201939
3588 1 28.3112 8.72081 22.8753 12 11.2989208528 1.7825731949 5.7554892826
3589 1 32.0188 6.99659 21.2247 12 10.884968667 1.7709167588 9.1374292796
3590 1 33.5398 8.8277 21.0867 12 10.8718432718 1.7716566044 8.6648033171
3591 1 33.7557 7.07188 22.924 12 10.9472019926 1.8042242385 9.5464917325
3592 1 31.8383 8.9083 22.8618 12 11.1728288874 1.7685465753 7.0038304808
3593 1 35.2856 7.06365 21.2218 12 10.9246297436 1.7518790718 10.9760994261
3594 1 37.1154 8.77747 21.0627 12 10.9752731908 1.7445289821 11.1672119493
3595 1 37.1453 6.94379 23.0051 12 10.9440266458 1.7692689476 12.0005744202
3596 1 35.3454 8.74843 22.961 12 11.0312765431 1.7577296752 9.5121670039
3597 1 38.9183 7.01228 21.2439 12 11.1375220964 1.7806994923 13.5598429292
3598 1 40.6487 8.88488 21.2169 12 11.0735397006 1.7577985264 13.7224878737
3599 1 40.7297 7.02092 22.8957 12 11.2730946138 1.7702055516 14.5647296792
3600 1 38.8189 8.82003 22.847 12 11.1968424473 1.7689814467 11.9786072407
3601 1 0.0746176 10.4929 21.2434 12 11.1778898061 1.7591286776 14.5572394283
3602 1 1.83957 12.3703 21.1699 12 11.0052633604 1.7638564564 15.2569974332
3603 1 1.7193 10.5479 22.9576 12 11.1205085957 1.7684672538 15.7350659001
3604 1 -0.00843618 12.3158 22.9995 12 11.0266386064 1.7655860865 13.5314775971
3605 1 3.48951 10.5085 21.1616 12 10.9724437021 1.7435738881 14.5109185176
3606 1 5.27896 12.2833 21.0903 12 11.1978951709 1.73836013 12.1603427115
3607 1 5.29058 10.5729 22.8061 12 10.9809842426 1.7411672358 12.6377805844
3608 1 3.55505 12.2506 23.0376 12 10.8938295681 1.7435738881 13.4586191993
3609 1 7.15648 10.4845 21.0759 12 10.9425473754 1.7448607273 11.5069335251
3610 1 8.74846 12.3298 21.1648 12 10.9150132634 1.7855388837 9.1753801544
3611 1 8.88223 10.5487 22.8828 12 10.8387592414 1.7853542499 9.7481799099
3612 1 7.08775 12.2232 22.8126 12 10.9772150468 1.7855388837 10.2973097933
3613 1 10.552 10.6784 21.1267 12 11.0063964159 1.7632648154 8.802087613
3614 1 12.3321 12.4724 21.1852 12 10.8799120639 1.7660990149 6.3620912361
3615 1 12.226 10.7209 23.0364 12 10.9829359277 1.7660990149 7.2383139694
3616 1 10.6449 12.3632 22.816 12 11.041473638 1.7934236554 7.3004688341
3617 1 14.2048 10.6776 21.2722 12 11.4239355322 1.7777072869 6.3294964174
3618 1 15.8863 12.5134 21.1654 12 11.3511034429 1.7893677451 4.1010463824
3619 1 15.906 10.7472 23.0203 12 11.3310409955 1.7512199761 4.8820640461
3620 1 14.1184 12.4281 23.0239 12 10.983774153 1.7528207779 4.7080171346
3621 1 17.6791 10.6198 21.2312 12 11.2064380935 1.7580438732 4.623880234
3622 1 19.4503 12.333 21.1925 12 10.9671630858 1.7811974377 2.5921604487
3623 1 19.2839 10.6836 22.9948 12 10.8772663623 1.7430776305 3.6474131265
3624 1 17.7559 12.4637 22.9422 12 11.0380972194 1.7625289825 2.5741838339
3625 1 21.1058 10.4858 21.2714 12 11.0897603259 1.7823377527 4.0104077331
3626 1 22.9529 12.2375 21.1813 12 11.0849288917 1.7548507052 2.4017586383
3627 1 22.9097 10.5713 22.8664 12 10.725065464 1.7480183703 3.4429533427
3628 1 21.2376 12.3732 23.0251 12 10.7803194868 1.7548507052 1.7549748419
3629 1 24.7472 10.5409 21.2554 12 10.9994600822 1.7713096535 3.8468119425
3630 1 26.5803 12.2169 21.2902 12 10.867166475 1.7592333516 2.60896085
3631 1 26.4667 10.5264 22.9928 12 10.9070784201 1.7825731949 3.6542107842
3632 1 24.8322 12.2878 22.9725 12 10.8584899804 1.7528864186 1.7834631386
3633 1 28.278 10.5335 21.1716 12 11.1619841626 1.7821736574 4.5617006768
3634 1 30.0861 12.2942 21.1442 12 11.0869646578 1.7644529579 4.1752646969
3635 1 30.0962 10.5813 23.0117 12 11.2750370972 1.7813243562 4.7145011551
3636 1 28.3215 12.2803 22.9968 12 11.0010047987 1.7825731949 2.4759103317
3637 1 31.8033 10.6298 21.0534 12 11.2356950427 1.7719420922 6.3520297209
3638 1 33.7045 12.3695 21.1249 12 11.1050928114 1.7719420922 6.4909441638
3639 1 33.5894 10.6136 22.9954 12 11.2780221125 1.7719420922 7.0204645953
3640 1 31.8444 12.3851 22.9527 12 11.3346557926 1.7644529579 4.6069140507
3641 1 35.3319 10.4758 21.1363 12 11.0045501892 1.7719420922 8.7875548685
3642 1 37.0692 12.4006 21.1731 12 11.3656587559 1.7625244405 9.0874779375
3643 1 37.028 10.5453 23.0371 12 11.0702790105 1.756877628 9.5066565384
3644 1 35.2683 12.2779 22.9296 12 11.1635901913 1.7625244405 7.1388938733
3645 1 38.7689 10.5621 21.2171 12 11.1944049334 1.7562272332 11.3329836742
3646 1 40.6513 12.3162 21.2248 12 11.172895229 1.7578722037 12.2034997036
3647 1 40.6246 10.5825 23.048 12 11.0769002581 1.7655860865 12.5018017119
3648 1 38.7804 12.2595 22.9884 12 11.0974383168 1.7625244405 10.1521295845
3649 1 0.0296553 14.002 21.3046 12 11.0595264168 1.7578722037 13.3453573505
3650 1 1.68242 15.8008 21.2299 12 11.0085517664 1.7530204257 14.5849211817
3651 1 1.83337 13.9747 22.8561 12 10.7105694184 1.7308355169 14.6446576036
3652 1 0.0280521 15.8743 23.0115 12 10.9323294081 1.7415233786 12.7299663697
3653 1 3.55491 14.026 21.128 12 11.0310104964 1.7594258157 13.134042735
3654 1 5.1736 15.9879 21.2851 12 10.958634245 1.7616193851 11.1291578708
3655 1 5.25759 14.0202 22.8986 12 11.0121291042 1.7446467441 11.3218199613
3656 1 3.42689 15.8674 22.9738 12 10.9288934846 1.7529184352 12.6743892745
3657 1 7.01891 14.0831 21.2571 12 11.040702418 1.7759828342 9.8454859728
3658 1 8.76328 15.8774 21.2437 12 11.0262597417 1.7771479741 7.6796959436
3659 1 8.75957 14.1763 22.9311 12 11.0474947188 1.7851057465 7.9731324369
3660 1 7.01567 15.8216 22.9234 12 10.702178459 1.7623062398 9.1960796746
3661 1 10.6028 14.1121 21.1965 12 11.1424857797 1.7771479741 6.6973187354
3662 1 12.3379 15.9355 21.1793 12 11.1172882163 1.7715506607 4.4147964529
3663 1 12.3671 14.202 23.0562 12 10.868807067 1.7715506607 4.8235051456
3664 1 10.6138 15.9008 22.9572 12 10.9938030019 1.7714726065 5.6799119717
3665 1 14.0494 14.1105 21.3049 12 11.1585029683 1.7680423046 4.104436991
3666 1 15.8638 15.8755 21.162 12 11.6356238196 1.7882801521 2.0101441529
3667 1 15.8762 14.1861 23.0656 12 11.2677270012 1.7630475253 2.2274870657
3668 1 14.1603 15.9828 23.062 12 11.1521434407 1.7715506607 2.389163044
3669 1 17.6648 14.2168 21.2253 12 11.4206236188 1.787419419 1.9510781753
3670 1 19.5426 16.0809 21.2258 9 25.6566264891 5.5464214391 0.2968482171
3671 1 19.5278 14.172 23.0073 10 13.960434068 3.005057703 0.2704247529
3672 1 17.7448 15.9895 22.9959 9 22.9678962243 5.1761172789 0.2001235271
3673 1 21.2207 14.0721 21.2538 11 12.146017788 2.3236923044 0.6035264729
3674 1 23.0738 15.9048 21.0449 7 38.4995615505 5.8683176215 0.7178002904
3675 1 22.907 14.2157 22.9975 9 19.4363812079 4.5554968641 0.1621043779
3676 1 38.9323 40.6562 40.6656 12 10.7759685354 1.7684140157 21.2460873437
3677 1 24.7196 14.0537 21.2437 11 11.9761931744 2.4432771051 0.7079769343
3678 1 26.4916 15.6673 21.2283 9 18.3313562398 4.5104669782 0.1006887469
3679 1 26.567 14.1081 23.0232 10 13.3832601234 2.9216041399 0.2109294723
3680 1 40.6512 38.9098 40.6083 12 11.0858159618 1.7397735988 21.050317897
3681 1 28.291 14.0318 21.2305 12 10.946919943 1.7518808958 1.9784563851
3682 1 29.9258 15.8593 21.2881 12 10.9571237961 1.7560627057 1.9012085602
3683 1 30.0642 14.1439 23.0371 12 11.1738234927 1.7644529579 2.1460161893
3684 1 28.2393 15.8405 23.0729 9 21.4880954472 5.1237715921 0.1826685101
3685 1 31.7616 14.1091 21.2519 12 11.1586358284 1.7617573459 4.0874650867
3686 1 33.4813 15.9468 21.1324 12 11.1165403622 1.7737627749 4.5969141047
3687 1 33.5729 14.0429 22.8837 12 11.0652388905 1.7617573459 4.8862583254
3688 1 31.8176 15.8929 23.0069 12 11.3733815372 1.7560627057 2.5459192508
3689 1 35.2981 14.1876 21.2094 12 10.9101136465 1.7608319004 6.7924615636
3690 1 36.9823 15.8926 21.1772 12 11.2540516239 1.7649992975 7.709997815
3691 1 37.0382 14.1747 23.0245 12 11.3927265284 1.7625244405 7.8864844639
3692 1 35.2577 15.8879 23.0083 12 10.8881532522 1.7382813658 5.7241101235
3693 1 38.9301 14.007 21.2969 12 11.2407287858 1.7649992975 10.0240739599
3694 1 40.6702 15.8125 21.2567 12 11.220908735 1.7554694294 11.2368161698
3695 1 40.5745 14.0401 22.9891 12 10.8712525254 1.7507626906 11.2941976024
3696 1 38.9761 15.8657 22.9854 12 11.1598309789 1.7649992975 9.3302797971
3697 1 0.0377806 17.5768 21.0991 12 11.3497684587 1.7809120821 12.796771391
3698 1 1.83126 19.3635 21.1111 12 10.9595319317 1.7809120821 14.1889563602
3699 1 1.73559 17.6195 22.9879 12 10.9435941935 1.7448542765 14.0459326922
3700 1 42.4332 19.4633 23.0095 12 11.4878037105 1.7809120821 12.2561695588
3701 1 3.49018 17.5871 21.1342 12 10.7579763181 1.7497677263 12.6398325506
3702 1 5.18206 19.4595 21.1537 12 11.0133500759 1.7574685558 10.884279436
3703 1 5.14416 17.6374 22.9228 12 10.926319197 1.7586261216 10.6982500085
3704 1 3.38521 19.4298 22.9139 12 10.8140683503 1.7548360862 12.3549133205
3705 1 6.91756 17.6308 21.2633 12 11.0246319847 1.7644609972 9.2568276628
3706 1 8.72981 19.2739 21.1405 12 11.5526242365 1.7827830418 7.3933142793
3707 1 8.72043 17.5356 22.9272 12 10.9361097559 1.7580640303 7.2049637979
3708 1 7.00877 19.3531 22.8746 12 11.1835943781 1.7664977713 8.7846124035
3709 1 10.5581 17.4756 21.133 12 10.9289445371 1.7600361342 5.7473564792
3710 1 12.2425 19.3242 21.0456 12 11.1230728892 1.7842982125 3.9660564755
3711 1 12.3792 17.7413 22.9857 12 11.2499257134 1.7715506607 3.5828818768
3712 1 10.5199 19.2573 22.9291 12 11.538336234 1.7664977713 5.3157596716
3713 1 14.0643 17.7484 21.0546 12 11.2937858501 1.7882801521 2.5537909323
3714 1 15.8751 19.5132 21.1076 11 12.1200921328 2.4363016142 0.8090609782
3715 1 15.857 17.6975 22.9711 10 13.270363617 2.6762596064 0.1824788132
3716 1 14.1621 19.4509 22.8967 12 11.2249200216 1.7842982125 1.7437181662
3717 1 17.663 17.7796 21.1571 9 21.2540654499 4.9037839538 0.1806609051
3718 1 40.6359 40.7251 38.9602 12 10.7792247565 1.7416754114 21.4702511764
3719 1 38.9262 38.9292 38.9749 12 10.8889238759 1.7335799226 19.2499616907
3720 1 35.3828 40.6779 40.6482 12 10.8741593918 1.7500358426 19.5810076832
3721 1 37.093 38.9149 40.7025 12 10.9474369814 1.7428751139 19.145996061
3722 1 37.1807 40.6141 38.8802 12 10.9258319442 1.7610992199 19.484546987
3723 1 35.4909 38.9004 38.9354 12 10.9984839825 1.7570247408 17.4518849311
3724 1 32.0052 40.6646 40.6717 12 10.9852572595 1.7504234964 18.3208216872
3725 1 33.6825 38.8301 40.5854 12 10.8570469745 1.7325751701 17.4664790523
3726 1 33.6833 40.6832 38.8491 12 11.1197701978 1.7578238271 18.0164688414
3727 1 31.8777 38.9681 38.9284 12 10.7225272646 1.7391666772 16.0241677588
3728 1 28.3906 40.6283 40.5586 12 11.0767368907 1.760010358 17.4740056284
3729 1 28.1107 17.5889 21.3346 9 24.4323953836 5.3690306303 0.2256562496
3730 1 29.9249 19.4693 21.2113 11 12.0708332081 2.5067318145 0.7354997036
3731 1 29.9886 17.6191 22.97 10 13.8431753293 2.8973473221 0.3339309413
3732 1 30.0701 38.9233 40.5608 12 10.8728561499 1.7511434897 16.3991195035
3733 1 31.7448 17.6554 21.2224 12 11.1616427207 1.7777164251 2.6203000888
3734 1 33.5519 19.488 21.2055 12 11.1403765472 1.7737627749 3.905652666
3735 1 33.5961 17.6784 22.9651 12 11.1389774255 1.7715543988 3.7768091326
3736 1 31.7557 19.456 22.8254 12 11.2299138483 1.7689542246 1.8109651463
3737 1 35.2963 17.6384 21.1646 12 11.2350800056 1.7737627749 5.8192212757
3738 1 37.1241 19.3717 21.2131 12 11.265962691 1.7705345091 7.3919507522
3739 1 37.037 17.608 22.9483 12 11.0575322393 1.7479549107 7.1305037493
3740 1 35.2596 19.5518 23.0169 12 11.1534408674 1.7705345091 5.1849358532
3741 1 38.824 17.6084 21.2503 12 11.2256927524 1.7631812694 9.2137692238
3742 1 40.6061 19.3727 21.1528 12 11.18955406 1.7786379818 10.8029751631
3743 1 40.705 17.6226 22.888 12 11.2808098419 1.7880223796 10.705944057
3744 1 38.8602 19.3345 22.9712 12 10.8422286214 1.7650195778 8.7313161316
3745 1 42.3273 21.1247 21.196 12 11.219378793 1.7809120821 12.3848460106
3746 1 1.71861 22.9448 21.1654 12 11.0710139748 1.7861576916 14.252485134
3747 1 1.80444 21.2218 22.907 12 10.8234878811 1.7630434585 14.0278111736
3748 1 42.3602 22.909 22.8366 12 11.0409052802 1.7572529712 12.3207848516
3749 1 3.40908 21.1577 21.1211 12 10.7552867677 1.7629156215 12.7094237731
3750 1 5.22095 22.8907 21.2946 12 11.1559254607 1.7690596735 11.0350563186
3751 1 5.21307 21.2182 22.9421 12 11.2194580912 1.7574685558 10.6551805973
3752 1 3.45513 23.0695 22.9335 12 10.8711906988 1.7680680569 12.554601762
3753 1 7.05415 21.1638 21.2122 12 11.2660483943 1.7822064651 9.1074741365
3754 1 8.74909 22.9394 21.0764 12 11.3194901196 1.7755980056 7.7161812526
3755 1 8.85084 21.2414 22.9365 12 11.6844267858 1.7827830418 7.0636460804
3756 1 6.97505 22.9995 22.9529 12 11.2386617143 1.7729104872 9.1032203487
3757 1 10.6593 21.1704 21.142 12 11.3547529246 1.7827830418 5.6281934003
3758 1 12.3672 23.0197 21.1787 12 10.9467386095 1.7587359084 4.4456707004
3759 1 12.2619 21.1357 22.8708 12 11.5961106325 1.7587359084 3.6969439613
3760 1 10.5404 22.9601 22.8889 12 11.1916961569 1.7601297614 5.6364030223
3761 1 14.1752 21.3076 21.1376 12 11.1620841382 1.7842982125 2.4810841063
3762 1 15.8999 23.0038 21.2563 12 11.0273145106 1.7740320526 1.3512077764
3763 1 15.8146 21.2 23.0258 10 13.2905178211 2.7560559872 0.2117933049
3764 1 14.0909 22.8796 23.0257 12 11.0177229464 1.7584326601 2.265279813
3765 1 17.5822 21.3342 21.1226 8 22.5357506706 4.9060625855 0.4891970913
3766 1 30.0722 40.6909 38.9354 12 10.9584287572 1.7618997863 16.9757003743
3767 1 28.1588 38.8706 38.7577 12 11.0838757789 1.7880240472 15.0030757114
3768 1 17.6489 22.9702 22.8748 7 40.0828304126 6.4625213851 0.8660502427
3769 1 24.7391 40.6066 40.5325 12 11.1358028652 1.7544679019 16.9435041341
3770 1 26.5077 38.9453 40.6303 12 11.2010047519 1.7880240472 15.9292001067
3771 1 26.4668 40.6655 38.7886 12 11.337489152 1.7880240472 16.1960651225
3772 1 24.5857 38.8466 38.8802 12 11.4566054172 1.7880240472 14.5306444444
3773 1 21.1361 40.7043 40.7412 12 11.1581259536 1.7671580911 17.1323447257
3774 1 22.8363 38.7891 40.7096 12 11.2763951305 1.761460582 15.6293538462
3775 1 22.8753 40.6537 38.9178 12 11.3256667005 1.798916438 15.8720404782
3776 1 21.1777 38.7845 38.9552 12 11.294065559 1.7671580911 14.522504157
3777 1 28.181 21.4 21.4811 7 42.6390728322 6.2658776764 0.936033339
3778 1 30.0282 23.0263 21.1696 11 11.2724477586 2.1348109409 0.6059372484
3779 1 29.9755 21.2344 23.0016 9 15.2936276702 3.5610539918 0.0749857321
3780 1 17.672 40.7065 40.6308 12 11.1984568839 1.7683724202 17.7395721553
3781 1 31.663 21.2284 21.1755 12 10.858436372 1.7585934949 2.2479163798
3782 1 33.5353 22.9832 21.2285 12 11.1671878786 1.7850700066 3.8705773562
3783 1 33.4924 21.2347 22.8512 12 11.0010327862 1.7678721856 3.4000908353
3784 1 31.7386 22.9538 22.9043 12 10.7357473072 1.7750891468 1.8124691896
3785 1 35.3313 21.1719 21.1337 12 11.4648099264 1.7705345091 5.5846548259
3786 1 37.1596 23.003 21.1143 12 11.310572617 1.7555744104 7.4178100785
3787 1 37.2302 21.1666 22.904 12 11.1149034653 1.7636441658 7.1083797994
3788 1 35.3597 22.9027 22.8481 12 11.1708245259 1.7470328103 5.3799946066
3789 1 38.8279 21.049 21.1603 12 10.9109711393 1.7555744104 8.9605467339
3790 1 40.461 22.9464 21.2346 12 11.0751494817 1.7548165896 10.6015660452
3791 1 40.5592 21.1411 22.9119 12 11.1276241418 1.7653952729 10.423938876
3792 1 38.8488 22.9505 22.981 12 10.8977265477 1.7470328103 8.8241545849
3793 1 42.3791 24.6581 21.238 12 11.3469861155 1.7865244511 12.7060560049
3794 1 1.66041 26.5236 21.3113 12 11.5068696473 1.7865244511 14.6697962022
3795 1 1.60629 24.7176 23.0435 12 11.2385793391 1.7864737136 14.1828429474
3796 1 -0.0499613 26.5527 22.9796 12 11.2583125401 1.7702878078 12.8747925423
3797 1 3.5036 24.6868 21.2259 12 11.1603991321 1.7865244511 13.0617979767
3798 1 5.27067 26.4701 21.1897 12 10.8109274086 1.7695847944 11.9165631855
3799 1 5.24589 24.8183 22.9915 12 10.9368183762 1.7624882489 11.1118300434
3800 1 3.57574 26.6113 22.9228 12 11.2370016908 1.7747891181 13.1292067284
3801 1 6.97741 24.7074 21.1397 12 11.1269360974 1.7690596735 9.8285729082
3802 1 8.76961 26.474 21.2636 12 10.7641671715 1.7624982245 8.7261793371
3803 1 8.79449 24.755 22.9258 12 10.9760031977 1.7629996342 7.7207266723
3804 1 7.06193 26.5223 22.9305 12 10.9614587623 1.7625046424 9.8508583169
3805 1 10.5319 24.8145 21.1837 12 10.9700502637 1.7626101401 6.60033111
3806 1 12.3917 26.4928 21.2456 12 11.0837178346 1.7579884959 5.6479353881
3807 1 12.3338 24.7477 23.0217 12 10.9161306495 1.7577785248 4.4539146217
3808 1 10.6259 26.3859 23.0284 12 10.6916408838 1.7216542361 6.6413256233
3809 1 14.1427 24.5967 21.2846 12 11.1320890106 1.756741335 3.3007966959
3810 1 15.7752 26.5078 21.1358 12 11.3318248912 1.7676418909 2.9160658578
3811 1 15.9564 24.7914 23.0298 12 11.2594090422 1.7668998883 1.37398253
3812 1 14.0361 26.5003 23.0106 12 11.2488658605 1.7709447565 3.8048110557
3813 1 17.8045 24.7448 21.2725 10 13.6131264003 2.4440497976 0.3349007235
3814 1 19.3855 26.5945 21.1375 11 11.1936192526 2.1728222045 0.721356085
3815 1 19.4463 38.8801 40.6572 12 11.2125927879 1.7682689319 16.0176353862
3816 1 17.7373 26.4504 22.905 11 11.8353651085 2.3812338609 0.7820142115
3817 1 21.1013 24.7633 21.1919 7 35.2986548421 6.5016741727 0.8706589026
3818 1 22.8788 26.3334 21.3125 10 15.457740788 3.2348019707 0.1342854501
3819 1 19.3494 40.5231 38.8614 12 11.2950013299 1.7671580911 16.1142626322
3820 1 21.0238 26.5184 22.9156 8 24.2624763027 5.9492940122 0.4942274805
3821 1 17.6999 38.8571 38.8128 12 10.7536271788 1.7676109478 15.2571816459
3822 1 26.4521 26.5301 21.1665 10 13.2731337039 2.6534780724 0.3587803987
3823 1 14.1649 40.6836 40.6927 12 10.9653390096 1.7679922026 18.8677173499
3824 1 24.7657 26.5197 23.048 7 38.2750751699 6.5086916401 0.6821366068
3825 1 28.2015 24.7038 21.2721 9 17.2426795641 3.4687606889 0.0341679847
3826 1 30.1205 26.3074 21.3158 12 11.0696720104 1.7652549305 2.3801900997
3827 1 30.0445 24.5845 23.0499 11 11.7212316111 2.3405915608 0.710102326
3828 1 28.2621 26.5002 22.9755 11 12.0905842929 2.447971458 0.7492092962
3829 1 31.8252 24.7477 21.2555 12 10.6362002973 1.7478332988 2.6897998322
3830 1 33.5825 26.5429 21.2273 12 10.7833237118 1.754238206 4.9786053133
3831 1 33.6156 24.7711 22.9073 12 11.1680841321 1.7515528883 3.9526054243
3832 1 31.8836 26.4869 22.9474 12 10.6738157834 1.7484333637 3.3256795145
3833 1 35.4028 24.8102 21.1284 12 10.9454163694 1.7484500967 5.9612886284
3834 1 37.1445 26.493 21.1646 12 10.8963595669 1.7539990463 8.0314473643
3835 1 37.0948 24.6946 22.9928 12 11.0058251367 1.7675961151 7.3273652731
3836 1 35.537 26.4586 22.9681 12 10.840231068 1.7424691752 6.3499330429
3837 1 38.9081 24.7629 21.227 12 11.0537460553 1.7484830583 9.3229874446
3838 1 40.6639 26.5779 21.2438 12 11.5127550445 1.7476612478 11.3552558978
3839 1 40.5396 24.7076 22.9887 12 11.0402323427 1.7584967311 10.7247036463
3840 1 38.8551 26.4575 23.0293 12 11.0577651486 1.7476612478 9.4398593571
3841 1 42.4354 28.3883 21.1659 12 11.1170264126 1.7690234625 13.5770194013
3842 1 1.78258 30.039 21.1988 12 10.8750180839 1.762363652 15.8358766919
3843 1 1.75429 28.2528 23.0234 12 10.9781043004 1.7747891181 15.07001817
3844 1 0.0232669 29.9541 22.9754 12 10.9811893464 1.7588900656 14.1112097012
3845 1 3.52945 28.3829 21.2126 12 11.10996923 1.7677661675 14.1248988656
3846 1 5.33416 30.0217 21.1375 12 11.1357790061 1.779250369 13.2949040843
3847 1 5.29036 28.2452 22.9686 12 11.2185577319 1.7803047379 12.1065073354
3848 1 3.52903 30.1589 22.8967 12 11.3088375051 1.7803047379 14.5177692118
3849 1 7.11954 28.2244 21.0977 12 10.811764937 1.7697475243 10.947780906
3850 1 8.88707 29.9033 21.2705 12 10.9328568859 1.747839201 10.2128368769
3851 1 8.79408 28.1837 23.0377 12 10.955535865 1.7573636978 9.0396617821
3852 1 7.08179 29.9883 22.8949 12 11.3555128258 1.7803047379 11.391377938
3853 1 10.5099 28.1234 21.3401 12 11.0440774402 1.7573519549 7.9759584858
3854 1 12.2952 30.0188 21.18 12 11.0174064151 1.7499101752 7.5143663445
3855 1 12.3064 28.2826 22.9222 12 11.06028671 1.7704767379 6.1366381086
3856 1 10.5724 30.0646 22.9744 12 10.9810695081 1.7456167855 8.494598357
3857 1 14.0663 28.2689 21.1859 12 11.0508648385 1.7745345331 5.1812302012
3858 1 15.8425 30.0481 21.1433 12 11.1276433172 1.7687144278 5.0127828309
3859 1 15.8649 28.1895 22.9689 12 11.4574544138 1.7709447565 3.2972524698
3860 1 14.0487 30.0383 23.0278 12 11.1820702636 1.7709447565 5.8708980117
3861 1 17.7253 28.2358 21.1789 12 11.1588899649 1.7687144278 2.6376896149
3862 1 19.4458 29.99 21.0797 12 11.1008344484 1.7697888659 3.670697086
3863 1 19.3504 28.3486 22.9406 12 10.8434590958 1.7466306802 1.7015085886
3864 1 17.5547 30.0083 23.0078 12 11.2194513049 1.7687144278 3.768785382
3865 1 21.2292 28.1936 21.1451 12 11.199382386 1.7708684412 1.7680142469
3866 1 23.0205 30.007 21.1936 12 11.2130634467 1.7834931075 3.2217187087
3867 1 23.04 28.3057 22.9421 11 12.3222060781 2.4683589224 0.798641518
3868 1 21.1547 30.0038 23.0074 12 11.4108906131 1.784131097 2.4445558617
3869 1 24.7038 28.2479 21.1659 12 11.2496288846 1.7911858669 1.6620631448
3870 1 26.5266 29.9677 21.09 12 10.9187293514 1.7505796994 3.5265999141
3871 1 26.5419 28.3297 22.9262 12 11.0751945645 1.7524567308 1.5910941696
3872 1 24.7866 30.144 22.8291 12 10.8673478892 1.782637239 2.6243188792
3873 1 28.3208 28.2223 21.1313 12 11.030098285 1.7652549305 2.619353856
3874 1 30.0739 29.9039 21.1996 12 11.1036911017 1.7625967873 4.7882975743
3875 1 30.058 28.1497 23.0056 12 10.8537507575 1.7604319011 3.1467564779
3876 1 28.4059 29.9713 22.8794 12 11.1429320694 1.7604319011 3.7220131923
3877 1 31.7813 28.134 21.198 12 11.0576576138 1.7672643436 4.7922990692
3878 1 33.5645 30.0466 21.2188 12 11.3813460116 1.7710262896 7.3181498352
3879 1 33.7282 28.1831 23.0186 12 11.0461104035 1.7783679836 5.7948109778
3880 1 31.9192 29.9767 22.8927 12 11.4400441724 1.7791973166 5.7465948737
3881 1 35.4047 28.2323 21.2814 12 11.1297348273 1.7710262896 7.3490069406
3882 1 37.1589 29.9874 21.2617 12 10.9419361858 1.7698744634 9.7784332763
3883 1 37.2004 28.1809 23.0415 12 10.7556581123 1.7421192604 8.6324820303
3884 1 35.4864 30.0464 22.9514 12 10.7756177171 1.7710262896 8.3285653576
3885 1 38.873 28.2313 21.2621 12 11.0571121127 1.7527122444 10.2524158635
3886 1 40.6758 29.9702 21.1303 12 11.1636341453 1.7676054052 12.6537386021
3887 1 40.6171 28.2954 23.0895 12 11.0594794496 1.7549651093 11.7314263515
3888 1 38.8565 30.1558 22.8927 12 10.9914298607 1.7401646384 11.0889419982
3889 1 0.0554178 31.7511 21.196 12 11.0678168095 1.7671295032 15.1077234935
3890 1 1.73192 33.5303 21.2864 12 10.8813861934 1.748760963 17.4634761724
3891 1 1.69064 31.8359 23.0364 12 10.7931735622 1.7585026866 16.4658274954
3892 1 -0.0226364 33.4877 22.9281 12 10.9562461992 1.7657904637 15.9091127384
3893 1 3.46676 31.9167 21.168 12 10.9250058111 1.7355820466 15.7603366833
3894 1 5.34199 33.573 21.1981 12 11.0424783425 1.7499843964 15.0245264568
3895 1 5.37141 31.8369 22.8922 12 11.3069081192 1.7797592807 13.7504126349
3896 1 3.57799 33.5288 23.0569 12 10.7913065974 1.7499843964 16.1125431194
3897 1 7.09799 31.8083 21.1468 12 11.1091131645 1.7422392913 12.6695505539
3898 1 8.83874 33.5532 21.179 12 10.7706396366 1.7639881514 12.2884253465
3899 1 8.84733 31.7627 22.9064 12 11.2353633835 1.7613780828 10.8699185091
3900 1 7.15605 33.6526 23.0051 12 10.8939792816 1.7497708615 13.3361816128
3901 1 10.6227 31.8349 21.1593 12 10.7084965813 1.7347503821 9.8709755005
3902 1 12.4432 33.4794 21.319 12 10.8145718925 1.7347503821 9.6356305957
3903 1 12.2766 31.7821 23.0507 12 10.6947121837 1.7403017521 8.343647318
3904 1 10.6152 33.547 22.9691 12 10.7456848354 1.7362100171 10.7620893646
3905 1 14.0797 31.6921 21.2272 12 10.9920663018 1.763964367 7.2750534555
3906 1 15.8494 33.483 21.1653 12 11.1983142585 1.7844301198 7.9542754096
3907 1 15.9563 31.8058 22.9345 12 10.9608682071 1.7573348099 6.0309580592
3908 1 14.1391 33.4034 23.0473 12 11.1104595623 1.7457004567 8.2958909428
3909 1 17.6671 31.7629 21.1155 12 11.102064076 1.7687144278 5.8182768091
3910 1 19.4602 33.486 21.1158 12 11.5809367916 1.7893799044 6.6613416735
3911 1 19.3732 31.8156 22.9546 12 11.4784453033 1.7691138506 4.4711724512
3912 1 17.5607 33.585 22.9004 12 11.1812391538 1.7609557801 6.7819522419
3913 1 21.1315 31.7277 21.2152 12 11.6529912378 1.7708684412 4.7600519889
3914 1 22.9473 33.5128 21.0649 12 11.645448829 1.7818285095 6.1561758721
3915 1 22.9831 31.8667 22.8878 12 11.1259031016 1.784131097 3.9544968008
3916 1 21.1255 33.5856 23.0254 12 11.2216670441 1.7682376763 5.7519396788
3917 1 24.7477 31.7847 21.1785 12 11.0553032793 1.7816394439 4.773970048
3918 1 26.559 33.579 21.2242 12 11.260721003 1.7820695451 6.6856310577
3919 1 26.5462 31.7413 22.869 12 11.1823487038 1.765358681 4.437450047
3920 1 24.7301 33.5832 22.9134 12 11.3323732341 1.7969444646 5.7598214718
3921 1 28.319 31.8371 21.1693 12 10.9037431762 1.7625967873 5.7878429244
3922 1 30.1407 33.6732 21.1823 12 10.8925316324 1.7582714142 8.0607617785
3923 1 30.0483 31.7813 23.0017 12 11.307285017 1.7679626356 5.9937013815
3924 1 28.3422 33.4658 22.8013 12 11.214649133 1.7825119615 6.7027774369
3925 1 31.8283 31.8093 21.2181 12 11.2264642458 1.7625967873 7.270211826
3926 1 33.6459 33.5379 21.1738 12 11.2231758432 1.7687366404 9.725381859
3927 1 33.7029 31.783 22.9921 12 11.2468206701 1.7689008862 8.2572425995
3928 1 31.8459 33.5498 22.9049 12 11.1721789876 1.7681323381 8.4351060535
3929 1 35.5142 31.8108 21.1705 12 11.1020550142 1.7708437165 9.889256589
3930 1 37.0895 33.6092 21.2465 12 10.9373155104 1.7304856655 12.1812087706
3931 1 37.1059 31.784 23.0351 12 10.6513750968 1.7228139112 10.6572853153
3932 1 35.5365 33.6176 22.9397 12 11.0460950453 1.7689008862 10.839420803
3933 1 38.8646 31.9495 21.1871 12 10.8129223069 1.7676054052 12.3349865628
3934 1 40.6943 33.501 21.1586 12 11.1807968054 1.7676054052 14.7141335035
3935 1 40.6453 31.732 22.9681 12 11.0583793568 1.7676054052 13.4496859357
3936 1 38.9688 33.4409 22.9636 12 10.911908472 1.7321764168 13.1389955565
3937 1 0.0225988 35.3164 21.2489 12 11.2916516182 1.7507361764 17.2079834851
3938 1 1.88453 37.0851 21.1314 12 10.9408482276 1.7673947163 19.7658413102
3939 1 1.80232 35.2798 23.0358 12 10.7971428897 1.7632114125 18.4249301063
3940 1 0.142216 36.9831 22.9474 12 11.2533535929 1.7784900173 18.1607176796
3941 1 3.48053 35.2578 21.2456 12 11.1389108307 1.7587875459 17.4527530952
3942 1 5.29905 37.0337 21.1354 12 11.157016235 1.7764036911 17.1867428233
3943 1 5.30222 35.3517 22.9942 12 10.8269238463 1.7522435062 15.8336572169
3944 1 3.6651 37.0848 22.9603 12 10.9195044653 1.7673947163 18.1977790713
3945 1 7.0778 35.2857 21.2765 12 11.1099288439 1.7764036911 14.7030512979
3946 1 8.84377 37.1312 21.105 12 11.3054648297 1.7764036911 14.7341904841
3947 1 8.84148 35.3027 22.9591 12 10.893704675 1.765292389 13.2473892392
3948 1 7.02647 37.1387 23.0006 12 11.0899269063 1.7764036911 15.8130311021
3949 1 10.6081 35.2504 21.313 12 11.0637059823 1.7648887084 12.1505203405
3950 1 12.322 37.0819 21.0956 12 11.442287514 1.7911599822 12.6530338717
3951 1 12.3878 35.3005 23.0124 12 11.4770785021 1.7737505878 10.8371758292
3952 1 10.5124 37.1038 22.945 12 11.5336649346 1.7737505878 13.399746322
3953 1 14.0296 35.2624 21.1582 12 11.0940262514 1.7814483954 10.26730898
3954 1 15.8258 37.095 21.0718 12 11.0384137947 1.7822014447 11.0520262155
3955 1 15.7352 35.4586 22.9178 12 11.3545813898 1.7844301198 9.2488600856
3956 1 14.1714 37.234 22.923 12 11.0445894143 1.7713128381 11.5256292104
3957 1 17.662 35.3058 21.1301 12 11.3257345828 1.7885471191 8.7598989304
3958 1 19.3361 37.0529 21.3161 12 11.2865991337 1.7917662374 9.7759930844
3959 1 19.3077 35.2654 22.9518 12 11.2485631455 1.7893739147 7.6397111456
3960 1 17.5612 37.1153 22.9974 12 10.7880143855 1.7601312821 9.8741331587
3961 1 21.2522 35.4294 21.1985 12 11.3638423303 1.7893799044 8.0260498912
3962 1 23.0965 37.0964 21.0694 12 10.6994401725 1.743748328 9.4849841776
3963 1 22.9254 35.3106 22.884 12 11.4241510198 1.7969444646 7.3262184601
3964 1 21.3349 37.2041 22.8559 12 11.3308548009 1.7721674592 9.2956350528
3965 1 24.7478 35.434 21.122 12 11.4237389391 1.7969444646 8.0699223608
3966 1 26.555 37.1424 21.0508 12 11.1095284043 1.7432066834 9.9314896941
3967 1 26.5315 35.426 22.8415 12 11.3819411638 1.7966304365 7.786564278
3968 1 24.7973 37.1723 23.0238 12 11.0529758432 1.7969444646 9.2424816129
3969 1 28.3338 35.4159 21.1555 12 10.8056685264 1.7549683452 8.8678074069
3970 1 30.1306 37.0225 21.1014 12 10.9182203198 1.7255711235 11.0019065742
3971 1 30.021 35.3226 23.0134 12 11.1167180401 1.7681323381 9.0324733155
3972 1 28.4302 37.0733 22.9351 12 11.1671712899 1.7643178028 9.8660002883
3973 1 31.8821 35.3689 21.1885 12 10.9294908728 1.7643485277 10.2719558176
3974 1 33.5704 37.1449 21.2076 12 10.8017099014 1.7512404957 12.6026099174
3975 1 33.6098 35.3112 22.9283 12 10.9835786126 1.7689008862 10.8737829643
3976 1 31.8585 37.075 22.9813 12 11.1104772298 1.7650122358 11.4274084688
3977 1 35.2872 35.4106 21.1593 12 11.2572070686 1.7542327489 12.1901604579
3978 1 37.1494 37.0544 21.2099 12 11.260124004 1.7554198641 14.6315109899
3979 1 37.2959 35.2523 22.9928 12 11.2633842499 1.7542327489 13.2137191246
3980 1 35.2992 37.1068 22.9465 12 10.8412160891 1.7542327489 13.3108964825
3981 1 38.9983 35.3097 21.1674 12 11.2895443823 1.7554198641 14.7018405884
3982 1 40.6543 37.1744 21.1133 12 11.1615980078 1.7625444537 17.153285334
3983 1 40.7435 35.3063 23.0001 12 11.2132286034 1.7625444537 15.67649014
3984 1 38.9988 37.0537 22.9564 12 11.1181022002 1.7607182891 15.6837185642
3985 1 0.0204285 38.7241 21.1066 12 11.2509463517 1.7819310887 19.4992922337
3986 1 1.77646 40.7309 21.1565 12 11.1280982567 1.7498821097 22.1167739469
3987 1 1.8799 38.92 23.0215 12 11.0645484544 1.7819310887 20.7282779383
3988 1 0.133883 40.6549 22.8157 12 11.5157436916 1.7819310887 20.7440712387
3989 1 3.48124 38.7918 21.2781 12 11.1200663004 1.7598229856 19.6728137972
3990 1 5.36661 40.623 21.1935 12 10.9990281587 1.7503704352 19.6133375862
3991 1 5.38968 38.7875 22.8854 12 10.923207445 1.734442318 18.1364389265
3992 1 3.60097 40.6297 22.8737 12 11.2788476857 1.7505685205 20.6905368403
3993 1 7.16363 38.8364 21.1774 12 11.0677747771 1.776382178 17.1001068311
3994 1 8.8225 40.6725 21.249 12 10.9814129561 1.748052252 17.4731757799
3995 1 8.80269 39.0114 23.015 12 11.0458313283 1.7588586823 15.9279390948
3996 1 6.93988 40.7108 22.9215 12 11.0844507 1.7330337 18.4243953422
3997 1 10.4934 38.9482 21.2266 12 11.369969017 1.7925079123 15.1422470143
3998 1 12.3064 40.7118 21.1843 12 11.4678265682 1.7925079123 15.7406277963
3999 1 12.3826 38.8339 22.963 12 11.4787259154 1.7925079123 13.7607032988
4000 1 10.5165 40.7134 22.9648 12 11.1068927116 1.7482768128 16.3052530046
4001 1 14.1219 38.857 21.1742 12 11.2763440134 1.7921686301 13.3028069843
4002 1 15.8828 40.5767 21.1129 12 11.2052249129 1.7768737892 14.0227833458
4003 1 15.894 38.8515 22.9461 12 10.8062961256 1.7451292648 12.1074165166
4004 1 14.1366 40.6184 23.0253 12 11.0647078376 1.7419338989 14.4311965089
4005 1 17.6425 38.8199 21.2053 12 10.8823537612 1.7755303657 11.8303534149
4006 1 19.4281 40.5485 21.2786 12 10.971443078 1.7768737892 13.0746010356
4007 1 19.3456 38.8503 23.0036 12 10.8484530957 1.749500169 11.0870433471
4008 1 17.6009 40.5653 23.0161 12 11.1415340969 1.7768737892 13.1103069744
4009 1 21.1725 38.8388 21.1893 12 10.9379872438 1.7566066834 11.2573799856
4010 1 22.9646 40.5302 21.0962 12 10.9297281524 1.7349463752 12.7975890472
4011 1 23.0137 38.8537 22.948 12 10.6304062286 1.7395865339 10.7893818985
4012 1 21.1929 40.5437 22.9035 12 11.246988098 1.7372447305 12.5610953413
4013 1 24.7325 38.8362 21.1743 12 11.0130799712 1.772391075 11.2549840835
4014 1 26.5324 40.5755 21.2169 12 11.3311353638 1.7915018754 13.1041194525
4015 1 26.527 38.7576 22.9426 12 11.3754886394 1.7783109111 10.9823904664
4016 1 24.6354 40.5539 22.9704 12 11.048398483 1.7742614049 12.5474659212
4017 1 28.4245 38.8121 21.1405 12 11.1219040403 1.7643178028 11.8764885536
4018 1 30.1354 40.5915 21.2446 12 10.9277813812 1.7582349045 14.0354837889
4019 1 30.1252 38.8164 22.9948 12 11.161741859 1.7615025024 12.1095838002
4020 1 28.3529 40.5945 22.9313 12 11.1515189586 1.7728652517 13.1474577748
4021 1 31.83 38.8563 21.1584 12 10.9046721988 1.7561216152 13.3223233508
4022 1 33.6618 40.7206 21.1709 12 10.968236903 1.7655465206 15.7716403395
4023 1 33.5458 38.9188 22.9474 12 11.0105726402 1.753939801 13.8329298831
4024 1 31.9357 40.6738 22.9495 12 10.8099731379 1.75868598 14.5644652794
4025 1 35.3202 38.7612 21.2638 12 11.0399916888 1.7561216152 14.864139192
4026 1 37.1067 40.6574 21.2467 12 11.3480505581 1.7896281906 17.4143128756
4027 1 37.1253 38.7618 22.9911 12 10.922708464 1.7476079137 15.7314865188
4028 1 35.4077 40.6325 22.9372 12 10.9978263654 1.7575166329 16.2337834028
4029 1 38.8684 38.8793 21.3688 12 11.1250349887 1.7806550268 17.1090145175
4030 1 40.6262 40.4994 21.118 12 11.3691989013 1.7685725506 19.5013563563
4031 1 40.7662 38.8189 22.9823 12 11.2479643552 1.7817183076 18.1635983636
4032 1 38.9434 40.6512 22.9688 12 10.899439269 1.7642323216 18.3393276621
4033 1 -0.017838 0.0221033 24.7506 12 11.1067745059 1.7882294742 20.4187616729
4034 1 1.77641 1.80358 24.625 12 10.7765460574 1.7887379233 20.4876163781
4035 1 1.7526 42.2981 26.3551 12 11.096596461 1.7887379233 21.7243979705
4036 1 0.0286981 1.70496 26.5073 12 11.1759513359 1.7887379233 19.1947120301
4037 1 3.45997 -0.0557268 24.7717 12 11.1884066818 1.7663810371 20.986818904
4038 1 5.16384 1.73613 24.6378 12 10.966060189 1.7661715968 18.5178101139
4039 1 5.38023 0.00360494 26.5358 12 11.1556398706 1.7603958438 19.6790118324
4040 1 3.59849 1.75171 26.3869 12 11.1576180537 1.7887379233 19.6065671988
4041 1 6.97705 0.0642391 24.7412 12 10.7980722786 1.7663810371 18.5117045065
4042 1 8.816 1.6311 24.7392 12 10.8536788321 1.7413236348 16.1423198593
4043 1 8.75626 -0.00840264 26.4612 12 10.8613670551 1.761425969 17.591419501
4044 1 7.07634 1.77903 26.4989 12 11.0159261572 1.7459481896 17.2305778368
4045 1 10.6641 42.3854 24.7033 12 10.9074181408 1.7610289616 16.5485266218
4046 1 12.4498 1.69833 24.742 12 10.9649691614 1.7615054228 14.1653684888
4047 1 12.389 42.3811 26.4856 12 10.837895034 1.7598531661 15.8915427681
4048 1 10.6177 1.74725 26.4607 12 11.2137820524 1.7685393908 15.115373339
4049 1 14.1941 42.4072 24.735 12 10.910769626 1.7595381176 15.144839328
4050 1 15.8669 1.82116 24.7358 12 10.9943406058 1.7624008764 12.8978350215
4051 1 15.9075 42.3865 26.4777 12 11.1456813488 1.7623032175 14.8053618191
4052 1 14.1173 1.72579 26.5494 12 10.8117957082 1.7624008764 13.6171476594
4053 1 17.6214 0.0501486 24.7105 12 11.2057367442 1.7747785119 14.1557715258
4054 1 19.3755 1.64442 24.7413 12 11.1841169194 1.7753974125 12.3069168462
4055 1 19.3445 42.3895 26.5771 12 11.1977083662 1.7772175737 14.1232180387
4056 1 17.639 1.64973 26.5559 12 10.9839183172 1.7624008764 12.731914759
4057 1 21.2062 42.3179 24.7222 12 11.5778516401 1.7764961308 13.9956001555
4058 1 22.8746 1.71682 24.7158 12 11.1594098432 1.7597279717 12.1087864733
4059 1 22.9177 42.4172 26.5147 12 11.2909389342 1.781857299 13.8269559086
4060 1 21.0913 1.72739 26.435 12 11.1981727581 1.7772175737 12.1667975196
4061 1 24.7128 42.3218 24.7129 12 11.0222936122 1.7597279717 13.8853496085
4062 1 26.4931 1.52201 24.7079 12 11.1698921962 1.7649485892 12.328798619
4063 1 26.5089 42.3829 26.5573 12 10.9505996661 1.7463951727 13.9097492462
4064 1 24.6953 1.61257 26.4694 12 11.4787497779 1.7723702389 12.1507396955
4065 1 28.2867 42.3156 24.8203 12 10.9915625529 1.7669059078 14.1690427683
4066 1 30.1408 1.74935 24.7036 12 10.9696312422 1.7772018848 12.6961334127
4067 1 30.0741 42.2912 26.4471 12 11.2417104534 1.7772018848 14.4029425755
4068 1 28.2414 1.65232 26.4791 12 11.1406150683 1.7772018848 12.3121571519
4069 1 31.9278 42.3263 24.7123 12 10.7918886217 1.7682309589 14.9848620842
4070 1 33.5693 1.63207 24.8111 12 11.2849745537 1.7659194204 13.9562889955
4071 1 33.656 42.3102 26.4063 12 11.1952045922 1.7770914955 15.5785395578
4072 1 31.7985 1.68777 26.4874 12 11.1611485736 1.7771540732 13.1576961699
4073 1 35.3873 42.383 24.6889 12 10.7337346345 1.756124788 16.2766801354
4074 1 37.1295 1.71913 24.7857 12 11.0068949164 1.7509194387 15.6781946697
4075 1 37.1593 42.3544 26.4517 12 10.7853753672 1.740910473 17.2716472426
4076 1 35.5142 1.67522 26.5847 12 11.1368464669 1.7802638472 14.8996854028
4077 1 38.949 -0.0207153 24.76 12 10.8446040344 1.7469782795 18.1615330967
4078 1 40.796 1.7855 24.7263 12 10.8179923446 1.7644723016 18.0192895839
4079 1 40.6195 42.3366 26.4753 12 11.1357762197 1.7878626223 19.3166411425
4080 1 38.9934 1.61675 26.503 12 11.2899976092 1.7509194387 16.9559543727
4081 1 0.0503503 3.38519 24.7262 12 10.7680711091 1.76492018 18.1450908479
4082 1 1.81688 5.23561 24.6255 12 10.8856456141 1.7687878116 18.33350326
4083 1 1.80849 3.4426 26.445 12 10.9661282667 1.7880309386 19.3912142794
4084 1 0.0826227 5.18885 26.4357 12 11.1076746524 1.7714741485 16.962156495
4085 1 3.54829 3.52654 24.6606 12 11.0612574561 1.7705361181 18.3133387567
4086 1 5.39624 5.29296 24.7642 12 11.3214016115 1.7705361181 15.761619762
4087 1 5.28968 3.54337 26.5214 12 11.0261865969 1.7483499465 17.1480586071
4088 1 3.52816 5.1968 26.481 12 10.9857982943 1.784742281 17.2478962489
4089 1 7.01631 3.4185 24.7173 12 11.1764075831 1.7438590433 16.0159000938
4090 1 8.82591 5.25722 24.6557 12 11.0090055949 1.7661655691 13.4379744106
4091 1 8.87018 3.51829 26.412 12 11.1016387792 1.7557730656 14.7439321321
4092 1 7.11017 5.23297 26.3837 12 11.0098053946 1.7577211321 14.6658413478
4093 1 10.6369 3.47938 24.6204 12 11.1751114562 1.7661239802 13.5716836989
4094 1 12.402 5.37046 24.693 12 11.212021518 1.7666735392 11.0075177069
4095 1 12.4015 3.53231 26.5061 12 11.2310427684 1.7509005563 12.6912407855
4096 1 10.6183 5.21196 26.4339 12 11.1483497641 1.7666735392 12.3384120599
4097 1 14.1204 3.46623 24.7243 12 11.2732323066 1.7509005563 11.8675624776
4098 1 15.8277 5.41495 24.8148 12 11.5024773079 1.754500817 9.4529305557
4099 1 15.8372 3.47534 26.5212 12 11.3141612605 1.7624008764 11.4460826691
4100 1 14.0717 5.49517 26.6584 12 11.0689454706 1.754500817 10.2282477001
4101 1 17.59 3.56815 24.7389 12 11.2390327365 1.7775907374 10.7498800066
4102 1 19.4052 5.162 24.698 12 10.8623687464 1.7590289606 8.8091382482
4103 1 19.2808 3.48456 26.4821 12 11.1629987759 1.7737028765 10.6412086479
4104 1 17.556 5.31039 26.4691 12 11.2217859993 1.7544565066 9.2270035964
4105 1 21.1492 3.46556 24.6855 12 10.7021060403 1.7585804409 10.4078728335
4106 1 22.9116 5.28521 24.6378 12 10.9830754241 1.7829287621 8.5578101849
4107 1 22.9155 3.39055 26.4843 12 11.287079765 1.7829287621 10.4093376189
4108 1 21.1728 5.14673 26.399 12 10.9724869952 1.7824412675 8.7603384525
4109 1 24.8488 3.56081 24.7391 12 11.3196891621 1.7717749897 10.200302475
4110 1 26.5437 5.27063 24.6688 12 10.7273358289 1.7555355951 8.6123942298
4111 1 26.5162 3.42366 26.4261 12 11.053484732 1.7720237128 10.428152338
4112 1 24.757 5.15426 26.4627 12 11.3000043255 1.8005400891 8.6101573822
4113 1 28.2645 3.39717 24.6948 12 10.8357930642 1.766127196 10.7131659192
4114 1 30.0601 5.16546 24.6245 12 10.9687533845 1.773139692 9.4144030776
4115 1 30.0933 3.4882 26.4651 12 11.025197583 1.7754617223 10.8875897439
4116 1 28.2257 5.15074 26.2657 12 10.9264650534 1.760161418 8.84485521
4117 1 31.7827 3.54416 24.7622 12 10.9003002321 1.7659194204 11.4965898166
4118 1 33.6367 5.14674 24.8177 12 11.552905339 1.8042242385 10.8802472385
4119 1 33.6025 3.43983 26.5759 12 11.2861701603 1.7802638472 12.3982910547
4120 1 31.8259 5.21844 26.5583 12 11.1427052443 1.7733872485 9.976048888
4121 1 35.3991 3.42638 24.7558 12 11.3975229038 1.7799456494 13.2847341799
4122 1 37.1634 5.29836 24.8045 12 11.0580055004 1.7666083343 12.9689475295
4123 1 37.1549 3.60412 26.5038 12 11.2091958201 1.7802638472 14.2607081841
4124 1 35.4162 5.24723 26.6012 12 11.3925353915 1.7796721131 11.9060589785
4125 1 38.9761 3.54508 24.8371 12 11.2101408329 1.76492018 15.4868399358
4126 1 40.6706 5.32054 24.7856 12 11.2654127644 1.7684472724 15.495261428
4127 1 40.7218 3.5237 26.5538 12 11.1058838436 1.76492018 16.6697241791
4128 1 38.9537 5.32521 26.6417 12 10.8722667331 1.7567325082 14.1460065628
4129 1 42.4246 6.93116 24.673 12 11.2213897731 1.7722582128 15.8479360539
4130 1 1.79066 8.71418 24.7415 12 11.2801052426 1.7722582128 16.4587845195
4131 1 1.82219 6.89208 26.4786 12 10.9663789739 1.7697712092 17.4640750436
4132 1 0.0160312 8.72327 26.5527 12 11.3451070369 1.7714890692 14.9936170654
4133 1 3.53526 7.05643 24.7475 12 11.089263549 1.7705361181 15.9374827327
4134 1 5.27695 8.86042 24.5832 12 11.1686625262 1.765783924 13.458722821
4135 1 5.30803 7.09555 26.4501 12 11.0899928437 1.765783924 14.6661310552
4136 1 3.49707 8.80414 26.5408 12 10.8154255928 1.7866506593 15.0776140298
4137 1 7.10195 7.17616 24.7638 12 11.0386300734 1.8030640059 13.221025053
4138 1 8.83524 8.88649 24.7373 12 10.8818959966 1.7699618988 10.7886444928
4139 1 8.8288 7.07587 26.3959 12 11.0384472478 1.7577211321 12.1474782197
4140 1 7.14822 8.80059 26.4727 12 10.9861565302 1.7676535788 12.1806590097
4141 1 10.6272 7.05446 24.7174 12 11.3724320645 1.8014785615 10.893142233
4142 1 12.3881 8.932 24.7936 12 11.159613554 1.7700243276 8.3217848338
4143 1 12.3117 7.00078 26.6225 12 10.6790688053 1.7579448854 9.9302882827
4144 1 10.6033 8.82909 26.475 12 11.012294789 1.7700243276 9.6579337739
4145 1 13.9828 7.08133 24.8571 12 11.0484383712 1.7457219071 8.7093592917
4146 1 15.8183 8.8929 24.6641 12 11.4827549754 1.7674809536 6.2234284195
4147 1 15.7914 7.22048 26.5315 12 10.849374785 1.7485866952 7.9610537715
4148 1 14.1594 8.88597 26.5099 12 10.706492963 1.7579016878 7.3337943362
4149 1 17.6322 7.03872 24.7994 12 11.3676269085 1.7640126669 7.3979572417
4150 1 19.424 8.91697 24.6538 12 11.068361603 1.7632278857 5.108943602
4151 1 19.5737 6.98711 26.4857 12 11.3156779173 1.7672454403 7.1840857187
4152 1 17.8019 8.83965 26.506 12 11.5061961531 1.7922801162 5.7876093509
4153 1 21.1741 7.02964 24.7313 12 10.7854937816 1.7400641385 6.8454406512
4154 1 22.8858 8.8319 24.7303 12 11.0939657562 1.7725323193 5.0234541368
4155 1 22.9269 6.9532 26.4469 12 11.2781392509 1.7829287621 6.8475393396
4156 1 21.1901 8.73823 26.5313 12 11.0597771295 1.7750617283 5.2381157027
4157 1 24.7413 6.95803 24.6965 12 11.3353379794 1.776795488 6.8039388972
4158 1 26.4705 8.75679 24.8602 12 11.2312830665 1.7713304646 5.1451278746
4159 1 26.5164 6.93032 26.4613 12 10.763281204 1.7714159588 6.9271984506
4160 1 24.7303 8.76973 26.5158 12 11.0941075287 1.7725323193 4.995303562
4161 1 28.3042 7.02955 24.6751 12 11.1263939159 1.773139692 7.1726949785
4162 1 30.1447 8.75676 24.7284 12 11.106631593 1.7708291252 6.0578529405
4163 1 30.0205 6.90564 26.4907 12 11.2705680785 1.773139692 7.659779897
4164 1 28.1758 8.65904 26.5364 12 10.7700356375 1.7529434888 5.389335012
4165 1 31.8429 7.05944 24.6873 12 11.4072457892 1.8039781576 8.3239256639
4166 1 33.6267 8.7518 24.6952 12 10.855974859 1.8042242385 8.0345066184
4167 1 33.6616 7.07983 26.5305 12 11.3915107414 1.8040579459 9.4076923774
4168 1 31.8602 8.77066 26.4149 12 11.0689502263 1.7765263955 6.9975005649
4169 1 35.4655 6.98113 24.8368 12 10.9859342656 1.8042242385 10.5792811465
4170 1 37.0907 8.66158 24.7577 12 10.905967603 1.7442282929 10.6121300001
4171 1 37.1837 7.09239 26.6418 12 10.9123089153 1.7536980513 11.6449648968
4172 1 35.3574 8.80709 26.4936 12 10.8504050515 1.7638561354 9.1407463965
4173 1 38.8948 7.11343 24.7784 12 11.286975698 1.7702055516 12.981852574
4174 1 40.65 8.85194 24.7234 12 11.2297313729 1.7712608965 13.2933917555
4175 1 40.6522 7.08362 26.5196 12 11.0215584052 1.7714741485 14.3317022305
4176 1 38.96 8.79439 26.6248 12 10.9338732256 1.7424090789 11.9710811459
4177 1 42.3799 10.4645 24.8974 12 11.0926276758 1.7722582128 14.0253691141
4178 1 1.66582 12.3273 24.7124 12 11.1815767527 1.7681695128 14.9456038275
4179 1 1.74126 10.6365 26.5563 12 11.0186890296 1.7863884243 15.6020933495
4180 1 42.4001 12.2641 26.5881 12 10.8137316941 1.7554185734 13.3178692081
4181 1 3.45752 10.4754 24.6877 12 11.2378626014 1.7866506593 14.162101074
4182 1 5.29417 12.3139 24.73 12 11.151610631 1.7777642621 11.7218774442
4183 1 5.32329 10.5215 26.4207 12 11.5296169834 1.7866506593 12.6281688266
4184 1 3.50004 12.3749 26.4954 12 11.3240865511 1.7866506593 13.4993900911
4185 1 7.09353 10.6183 24.6824 12 11.0480684222 1.7420519772 10.9578379276
4186 1 8.76134 12.4388 24.7265 12 11.2929813683 1.7934236554 8.5673908487
4187 1 8.82979 10.7136 26.4844 12 10.8606602588 1.7600627566 9.6932622616
4188 1 7.0663 12.2809 26.4841 12 11.142813692 1.7804084739 10.2924953745
4189 1 10.467 10.5978 24.7163 12 11.042336608 1.7934236554 8.4245808447
4190 1 12.3365 12.3735 24.7635 12 10.9797937814 1.7934236554 5.8539504357
4191 1 12.3332 10.6729 26.4934 12 11.0745370043 1.773394067 7.1330688607
4192 1 10.5383 12.4463 26.5428 12 10.890243632 1.788147886 7.3389130178
4193 1 14.0162 10.6609 24.8125 12 10.9215279088 1.7589734256 5.9512024828
4194 1 15.8924 12.3872 24.7786 12 10.9853777531 1.759411809 3.4038212171
4195 1 15.8996 10.5761 26.5719 12 11.3275275351 1.760579645 5.0479715858
4196 1 14.253 12.445 26.5509 12 11.1475654146 1.7589734256 4.5302106235
4197 1 17.6893 10.6554 24.7454 12 11.0223639653 1.7674809536 3.9001212396
4198 1 19.423 12.3952 24.7881 12 10.9029236288 1.7588769917 1.7590423666
4199 1 19.4185 10.61 26.4881 12 11.1297513455 1.7760141268 3.6802373057
4200 1 17.5602 12.3577 26.49 12 11.2664153201 1.760579645 2.7293622557
4201 1 21.216 10.6488 24.6697 12 11.0686796064 1.7760141268 3.2389853579
4202 1 23.0122 12.3053 24.6556 12 10.9743336313 1.7528864186 1.5650991762
4203 1 22.9629 10.4806 26.5239 12 11.0983933164 1.7760141268 3.3202095073
4204 1 21.1708 12.3929 26.5131 12 11.0903007364 1.7760141268 1.6766208803
4205 1 24.6941 10.6002 24.6358 12 11.0161688649 1.7719611748 3.1640608962
4206 1 26.6258 12.2398 24.6062 12 10.8317994065 1.7557586545 1.7917900038
4207 1 26.4783 10.567 26.6079 12 10.8823235897 1.7557586545 3.295345906
4208 1 24.7409 12.2658 26.3638 12 10.9511753122 1.7544701917 1.5020768709
4209 1 28.2903 10.3616 24.7555 12 11.1913685641 1.7825731949 3.9552784754
4210 1 29.9776 12.2905 24.7228 12 11.0116188824 1.7630934522 2.9559935857
4211 1 30.0006 10.484 26.4797 12 10.9292718426 1.756273513 4.5522475497
4212 1 28.2098 12.2577 26.4373 12 10.6536144587 1.756273513 2.0860414081
4213 1 31.8406 10.5221 24.8312 12 10.9897887455 1.7620042119 5.5172088976
4214 1 33.6057 12.3091 24.7991 12 11.0613851761 1.759165997 5.5894885261
4215 1 33.629 10.503 26.3976 12 10.9629731814 1.7518077143 6.7212895124
4216 1 31.7188 12.336 26.5044 12 11.0753939876 1.7624610513 4.0729078799
4217 1 35.3462 10.4639 24.7433 12 10.765503192 1.7510848931 8.1157462668
4218 1 37.1 12.2455 24.7291 12 11.1057198063 1.7623301295 8.498609774
4219 1 37.0912 10.5464 26.5418 12 11.1934139324 1.7424090789 9.4503505975
4220 1 35.3267 12.3032 26.541 12 10.9852008267 1.7505429522 7.0442694412
4221 1 38.8226 10.4278 24.7594 12 11.1614302691 1.7468179105 10.9025321512
4222 1 40.6365 12.2052 24.6946 12 11.1876314341 1.7554185734 11.7370656588
4223 1 40.7252 10.5471 26.6606 12 10.7452195188 1.7552833424 12.5845103703
4224 1 38.8956 12.2687 26.4738 12 11.0920338255 1.7554185734 10.1394395807
4225 1 42.2672 14.0394 24.7288 12 10.9985776096 1.7510503457 12.6899005154
4226 1 1.62975 15.7278 24.674 12 10.837217388 1.7153025391 14.1430051444
4227 1 1.73356 14.0317 26.4896 12 10.9439953852 1.7564523087 14.488242231
4228 1 42.4079 15.7349 26.4451 12 10.9311652177 1.7584350755 12.4486199444
4229 1 3.47836 14.0594 24.5829 12 11.062384055 1.7588820875 12.925823788
4230 1 5.27185 15.8765 24.6974 12 11.411949022 1.7885480521 10.7804536775
4231 1 5.2883 14.0742 26.4968 12 11.3357510111 1.7884514875 11.2897534908
4232 1 3.36113 15.8756 26.3959 12 11.4200321702 1.7885480521 12.7478842819
4233 1 6.93369 14.0665 24.6133 12 11.0551606056 1.7608895149 9.5801828945
4234 1 8.745 15.8483 24.7403 12 11.2095911414 1.739762247 7.3969373864
4235 1 8.84612 14.1258 26.5112 12 10.8057033103 1.7608895149 7.9322778045
4236 1 7.04105 15.7959 26.4479 12 11.3179239146 1.7878448147 9.1880704356
4237 1 10.5988 14.1796 24.7062 12 11.1030200613 1.793392055 6.1185684791
4238 1 12.4353 15.8749 24.7417 12 10.7639847025 1.7707298472 3.7935677032
4239 1 12.272 14.124 26.3929 12 10.8817745054 1.7376398802 4.9705079646
4240 1 10.411 15.8379 26.6321 12 10.9104836338 1.7460406951 5.9220809573
4241 1 14.1576 14.1616 24.7558 12 10.7115181634 1.7528972106 3.3100371502
4242 1 15.8676 16.0147 24.7706 11 12.0441905442 2.4949957412 0.7908828812
4243 1 15.9183 14.179 26.5635 12 10.8868702048 1.7552842985 2.1401097709
4244 1 14.1095 15.9137 26.3767 12 10.7186688138 1.7367404257 2.4847820253
4245 1 17.7369 14.1703 24.7463 11 12.3762879072 2.5469630141 0.8403786086
4246 1 15.8845 38.9458 40.6509 12 11.0915813226 1.7683724202 16.9639871852
4247 1 19.4822 14.206 26.641 10 14.6208947538 3.2424968259 0.287122686
4248 1 17.6387 15.8636 26.5476 9 20.8394901649 4.8449704567 0.1667906536
4249 1 21.1817 14.0297 24.6674 8 24.5258242455 5.413454238 0.132446114
4250 1 15.9184 40.6475 38.9776 12 10.8589406025 1.7519029294 17.2988679076
4251 1 23.0178 14.1252 26.4461 8 35.3099880882 6.4510643875 0.3206492966
4252 1 14.0179 39.0636 38.9687 12 11.1838956044 1.7661820027 16.8079922647
4253 1 24.7333 14.0707 24.6342 8 28.5006116314 5.9718791449 0.3001324088
4254 1 10.643 40.6307 40.7347 12 11.0612651646 1.7679922026 20.4576217387
4255 1 26.5382 13.8809 26.4533 9 14.7238133498 3.3548275681 0.0116101032
4256 1 12.3579 39.0027 40.7673 12 11.2257093606 1.7668719324 18.517868438
4257 1 28.309 14.1159 24.7894 11 11.576552534 2.4973919266 0.4854160914
4258 1 30.007 15.8785 24.8498 11 12.0534720611 2.4430595937 0.5446849375
4259 1 30.0088 14.0726 26.4263 12 11.0216291819 1.7644886401 1.6402317523
4260 1 28.2401 15.7588 26.6411 7 37.0602848917 6.0816270714 0.7747679299
4261 1 31.8386 14.0333 24.8077 12 11.120711637 1.7620042119 3.1275084428
4262 1 33.6277 15.794 24.7677 12 11.028925076 1.7381352283 3.9593223254
4263 1 33.5001 14.0766 26.6115 12 10.7698601528 1.7505183684 4.5732926921
4264 1 31.8853 15.8995 26.46 12 11.0568301267 1.759574471 2.2524989051
4265 1 35.2601 14.1193 24.7837 12 11.1539019214 1.7525184297 6.036402939
4266 1 37.044 15.9151 24.6838 12 11.2071472329 1.7778948826 7.2252218574
4267 1 37.0739 14.0105 26.438 12 11.029384644 1.7778948826 7.7295798928
4268 1 35.294 15.8935 26.5466 12 11.0376007569 1.7771827047 5.4278038714
4269 1 38.774 14.0968 24.7509 12 11.1505007393 1.7510503457 9.3412636008
4270 1 40.6574 15.7977 24.6748 12 11.0586746075 1.7881916548 10.7715433022
4271 1 40.5808 14.0489 26.516 12 11.1231665261 1.7801797676 11.0065469007
4272 1 38.9015 15.9125 26.4085 12 11.3200706604 1.7778948826 8.9508430307
4273 1 42.3878 17.5875 24.7227 12 11.0813791664 1.7881916548 12.2152220673
4274 1 1.64716 19.4658 24.6935 12 10.8381417853 1.7427226128 13.8001364507
4275 1 1.57817 17.5403 26.5366 12 10.8383720093 1.7350206124 13.9011664011
4276 1 42.391 19.3576 26.4841 12 11.0138162249 1.7611730884 12.1621709649
4277 1 3.31209 17.633 24.7052 12 11.0805008084 1.7593246331 12.3813866238
4278 1 5.12972 19.381 24.6608 12 11.064288348 1.7593246331 10.4812493974
4279 1 5.22428 17.6499 26.483 12 11.1844682133 1.7885480521 10.6351675461
4280 1 3.34115 19.3464 26.4323 12 11.0430634919 1.7426264935 12.3420936429
4281 1 6.97048 17.6839 24.6932 12 11.2602183874 1.7545598091 8.7480601363
4282 1 8.81249 19.2879 24.7339 12 11.4929554829 1.7671725958 6.7983564245
4283 1 8.84449 17.6882 26.5466 12 11.1090717904 1.7669641391 7.0908419746
4284 1 6.95028 19.3992 26.4377 12 10.897837703 1.7671725958 8.7622627614
4285 1 10.6566 17.5332 24.7637 12 11.3191140504 1.7490977725 5.1659536084
4286 1 12.2538 19.438 24.7332 12 11.1966788228 1.7388648316 3.3573599293
4287 1 12.4296 17.5759 26.4301 12 11.1254107543 1.7490977725 3.5788144494
4288 1 10.5707 19.4489 26.5971 12 10.9634865754 1.7651967089 5.1955266256
4289 1 14.2865 17.8333 24.6844 12 10.8486847192 1.7451377651 1.5566980629
4290 1 16.0236 19.4873 24.6429 8 29.8024513913 5.4509574417 0.3767577377
4291 1 15.8551 17.7615 26.564 10 13.8576018056 3.0408653086 0.213546967
4292 1 14.0437 19.4422 26.5246 12 10.5923385777 1.7388648316 1.7510489099
4293 1 12.2675 40.8361 38.861 12 11.2462117146 1.7679922026 18.8749437789
4294 1 10.5503 38.8449 38.9322 12 11.0627824658 1.7604784461 18.3506404858
4295 1 6.96921 40.6914 40.7319 12 10.7355489044 1.7483455206 22.3869880496
4296 1 8.81345 38.9657 40.6828 12 10.8480514357 1.7487068183 20.2054849342
4297 1 8.74357 40.5853 38.85 12 11.0047917727 1.7605941812 20.4429170644
4298 1 7.04954 38.7189 39.0081 12 10.7968832308 1.731131098 20.1960633656
4299 1 3.45694 40.708 40.6819 12 11.2262382926 1.7822098163 24.4550252251
4300 1 5.29754 38.8688 40.6404 12 10.7757667061 1.7718669524 22.1151830822
4301 1 5.34919 40.6038 38.9373 12 11.1512051166 1.7822098163 22.4141381188
4302 1 3.47092 38.9305 38.9337 12 11.0465053144 1.7802299438 22.5564263999
4303 1 -0.0156467 40.6555 40.6074 12 10.8642993735 1.7574464917 23.240662129
4304 1 1.75855 38.9269 40.6397 12 11.076223128 1.7532319386 23.4101811271
4305 1 1.74319 40.7295 38.9197 12 10.9228492811 1.7796597718 23.7505308522
4306 1 30.0675 19.3974 24.707 8 27.332367095 5.9101371841 0.2218100427
4307 1 29.9964 17.6475 26.4845 9 17.1357782318 4.2389297252 0.0740054666
4308 1 0.0174985 38.8366 38.9193 12 11.1009109641 1.7312582606 21.4072634283
4309 1 31.8412 17.6536 24.7207 12 11.338385986 1.7689542246 1.8243288553
4310 1 33.6485 19.3748 24.7481 12 11.1852544272 1.7689542246 3.3557024109
4311 1 33.5698 17.6732 26.5087 12 11.0898026746 1.7713410573 3.4822442329
4312 1 31.7371 19.4123 26.5482 12 11.1801913228 1.7710011425 1.5316915443
4313 1 35.3007 17.7203 24.7104 12 10.9608731718 1.7492861232 5.18575494
4314 1 37.0636 19.4105 24.6629 12 10.9938953343 1.763555481 6.771176083
4315 1 37.0543 17.7388 26.4939 12 11.2426500978 1.7747639142 6.9448947877
4316 1 35.3348 19.5347 26.5856 12 11.1089843967 1.7713410573 5.1188596307
4317 1 38.816 17.6879 24.7175 12 11.2720532568 1.7881916548 8.6603663232
4318 1 40.6332 19.4315 24.7859 12 11.2436624848 1.787308092 10.3406130391
4319 1 40.6577 17.6782 26.5558 12 11.1071490161 1.7881916548 10.5399074472
4320 1 38.9216 19.4623 26.464 12 10.9600575743 1.7522853567 8.6948391313
4321 1 0.0654816 21.3 24.6883 12 11.106706035 1.7611730884 12.2858383736
4322 1 1.7623 22.8865 24.7456 12 10.8672600238 1.7680680569 13.9656351801
4323 1 1.74004 21.2638 26.4284 12 10.9631510167 1.7668803535 13.8581151818
4324 1 -0.0173212 22.9004 26.6693 12 11.0226095068 1.758745667 12.2544418204
4325 1 3.44251 21.1715 24.6401 12 10.8680199339 1.7680680569 12.1932828255
4326 1 5.29457 23.0268 24.6736 12 11.3799141712 1.7735656219 10.5121098624
4327 1 5.1921 21.0362 26.3782 12 11.1191362941 1.7375788447 10.4092864357
4328 1 3.60308 22.9624 26.4637 12 11.1487813906 1.7680511882 12.1222172269
4329 1 7.05978 21.0369 24.6906 12 11.6130526374 1.7735656219 8.5831378395
4330 1 8.8221 22.9349 24.7004 12 11.2293182414 1.7735656219 7.0519405196
4331 1 8.82065 21.2157 26.5672 12 11.2269046686 1.7671725958 6.8033501536
4332 1 7.02977 22.9099 26.5129 12 11.2397859254 1.7735656219 8.7436180351
4333 1 10.5564 21.1427 24.8307 12 11.2451311396 1.7543226183 5.1060354882
4334 1 12.2987 22.8996 24.6902 12 11.0405792992 1.7587359084 3.6607567047
4335 1 12.3043 21.2316 26.4667 12 10.5352945081 1.7508659209 3.3390998481
4336 1 10.5657 23.0078 26.5242 12 10.937856917 1.7582723118 5.3246479341
4337 1 14.1196 21.0968 24.7937 12 10.9010834592 1.7383580022 1.5880744739
4338 1 15.8286 23.0256 24.6851 10 13.5731109108 2.8543960754 0.2822297923
4339 1 15.8426 21.0841 26.3469 8 24.7647651622 5.3023502774 0.159238182
4340 1 14.0713 22.9474 26.3922 12 10.8664989016 1.7523728998 1.9100194854
4341 1 38.7666 37.0497 40.7086 12 10.9073635601 1.7794040484 18.8612879062
4342 1 40.5177 35.4475 40.769 12 10.9176662301 1.7538839152 19.1186578792
4343 1 40.6076 37.0714 38.9458 12 11.1631582257 1.7548797543 19.1190839806
4344 1 38.9081 35.2824 38.9503 12 10.985324814 1.7871573936 16.9859282769
4345 1 35.4328 37.0591 40.675 12 11.0619722165 1.7702924669 17.1060862405
4346 1 37.1265 35.3468 40.7203 12 10.8933029543 1.7871573936 16.9689178516
4347 1 37.1603 37.1668 38.9281 12 11.1735504658 1.7871573936 17.0601818061
4348 1 35.341 35.2755 38.8626 12 11.3365358301 1.7871573936 14.8472705986
4349 1 31.8721 37.1916 40.55 12 10.7897526591 1.7324967968 15.5975633454
4350 1 33.5897 35.383 40.6657 12 11.2285376285 1.7570413672 15.1654889044
4351 1 33.5738 37.134 38.8926 12 10.8950486278 1.7588929667 15.276711333
4352 1 31.8329 35.2932 38.8696 12 11.1136039977 1.7572672958 13.2229312735
4353 1 28.2624 37.1339 40.6279 12 11.2834166859 1.7523055763 14.7845728927
4354 1 30.0112 22.8925 24.7263 9 15.7430591232 3.7955831674 0.0666377266
4355 1 30.0097 21.253 26.4984 8 28.9662525894 6.1569657548 0.2555692815
4356 1 30.171 35.4769 40.6147 12 10.9486794658 1.7610312508 13.9537381917
4357 1 31.7971 21.1797 24.7079 12 11.1261234107 1.7750839994 1.5915131914
4358 1 33.5563 23.003 24.5877 12 11.3816502533 1.8021077539 3.4789837593
4359 1 33.4842 21.195 26.3742 12 11.2721162521 1.8025807321 3.2009910474
4360 1 31.7716 22.882 26.4635 12 11.121539029 1.8015444323 1.7500175231
4361 1 35.3713 21.2787 24.7553 12 10.9804996665 1.7678721856 5.1594506967
4362 1 36.975 22.9355 24.6666 12 10.9391971953 1.7652750709 6.8748749939
4363 1 37.1366 21.1232 26.4275 12 10.9713599036 1.7636441658 6.8539859666
4364 1 35.4051 22.9203 26.4984 12 11.1508496505 1.8025807321 5.3084372799
4365 1 38.9286 21.1248 24.7574 12 10.9577699909 1.7629807385 8.70029351
4366 1 40.7086 22.9284 24.7062 12 10.9989457911 1.7540814471 10.5908772102
4367 1 40.6762 21.2266 26.5515 12 11.1376320851 1.7611730884 10.3941985323
4368 1 38.8987 22.939 26.3789 12 11.1005016247 1.7524559223 8.751378205
4369 1 42.3983 24.65 24.7498 12 11.3458780541 1.7583678518 12.4137393233
4370 1 1.75564 26.5054 24.8548 12 10.9427883401 1.7747891181 14.5021770366
4371 1 1.65391 24.7398 26.4971 12 11.0377448801 1.7464390197 14.1533000968
4372 1 42.3384 26.4977 26.4587 12 11.2762640397 1.7760572763 12.758923308
4373 1 3.43092 24.742 24.6723 12 11.1804776333 1.771466889 12.6690330589
4374 1 5.28372 26.4588 24.8414 12 11.1202734271 1.7832399218 11.2632622464
4375 1 5.34084 24.7213 26.5728 12 11.0481098991 1.7857829208 10.8084568978
4376 1 3.42678 26.4351 26.4856 12 11.0378482091 1.7857829208 13.0568937363
4377 1 7.05868 24.7388 24.7284 12 11.1228672758 1.7655104577 9.1247303588
4378 1 8.83046 26.4142 24.7973 12 11.1874340356 1.7565670253 7.907882418
4379 1 8.78755 24.6147 26.6074 12 11.0527166624 1.7453284856 7.4443115313
4380 1 6.99986 26.4352 26.5836 12 11.0360844015 1.7852133419 9.5721635132
4381 1 10.4978 24.6338 24.6677 12 10.8461026862 1.7444994046 5.7616097243
4382 1 12.248 26.538 24.7955 12 10.9659916394 1.7616292057 4.9424114858
4383 1 12.2586 24.7312 26.432 12 11.3200452694 1.8025110279 4.0661770944
4384 1 10.5311 26.4989 26.5407 12 11.1494650791 1.7631366259 6.2165209339
4385 1 14.0376 24.7218 24.7254 12 10.929348959 1.7317386426 2.5621786168
4386 1 15.8966 26.5111 24.708 12 11.1820107883 1.7662926114 1.9411015219
4387 1 15.8309 24.7081 26.4291 11 12.0263146425 2.4421765593 0.698051714
4388 1 14.0476 26.4968 26.444 12 11.271182757 1.7662926114 3.2217322637
4389 1 17.7844 24.7304 24.76 8 32.042449228 6.4415663212 0.6431263393
4390 1 19.4377 26.5233 24.649 8 24.6773850358 5.9245269679 0.4270246983
4391 1 29.962 37.1442 38.8609 12 10.757358787 1.7308522279 13.9945047162
4392 1 17.6261 26.481 26.388 11 11.7897918629 2.3843914143 0.502420126
4393 1 28.4568 35.2583 38.8522 12 11.1846082119 1.7884500857 12.2505331683
4394 1 24.8238 37.0856 40.5723 12 11.2198116333 1.761460582 14.3622598168
4395 1 26.5991 35.2384 40.6055 12 10.9985885851 1.7884500857 13.2604166761
4396 1 26.3795 37.094 38.7853 12 11.1863674064 1.7884500857 13.3313624054
4397 1 24.7687 35.3435 38.861 12 11.0961065178 1.783711799 11.9240231073
4398 1 26.4431 26.5179 24.7699 8 27.3736496385 6.3441446321 0.5025812779
4399 1 21.1885 37.0572 40.6586 12 11.1400301233 1.7582988238 14.413964132
4400 1 22.9631 35.3141 40.6937 12 11.2311736067 1.761460582 13.0522306828
4401 1 28.3265 24.6785 24.801 7 38.2610656095 6.5426836883 0.7443727726
4402 1 30.0657 26.4206 24.6397 12 10.6866310596 1.741039954 1.7086391762
4403 1 30.1389 24.7578 26.3784 11 11.5821182319 2.2499379565 0.7103581707
4404 1 28.2853 26.4748 26.4631 11 11.9385863121 2.4834245302 0.4549439777
4405 1 31.8353 24.7476 24.7251 12 10.9620766776 1.7752683781 2.2775955797
4406 1 33.5838 26.4936 24.8258 12 11.1451118074 1.7781514174 4.672195536
4407 1 33.5789 24.792 26.4873 12 11.3406558461 1.8025807321 3.908579622
4408 1 31.8544 26.4788 26.5707 12 10.8188720732 1.7341112804 3.1455438435
4409 1 35.3917 24.7211 24.7325 12 11.0725117646 1.767966157 5.5328024225
4410 1 37.0486 26.5235 24.8452 12 11.1064523065 1.767966157 7.7072295024
4411 1 37.1028 24.7817 26.5675 12 11.0194534847 1.767966157 7.3172211287
4412 1 35.3358 26.4672 26.5279 12 11.1618831728 1.798466208 6.1020199033
4413 1 38.9176 24.589 24.7852 12 11.0377823976 1.767966157 8.9546599261
4414 1 40.6225 26.514 24.7325 12 11.141189487 1.7555453061 11.0499189697
4415 1 40.628 24.642 26.562 12 11.0866321315 1.7478419394 10.7296196076
4416 1 38.8595 26.4293 26.4806 12 11.2880886151 1.7641524333 9.4096230568
4417 1 0.0104004 28.2933 24.7331 12 10.8396400421 1.7555453061 13.3746021143
4418 1 1.78071 30.0325 24.7786 12 10.9274413706 1.7588900656 15.6949910112
4419 1 1.85596 28.2104 26.513 12 11.0660282466 1.7693289587 14.9975101313
4420 1 0.00846876 29.8915 26.5408 12 11.0028141113 1.7531313102 13.9928895401
4421 1 3.47665 28.3048 24.7262 12 11.0381483747 1.771847798 13.5655302423
4422 1 5.3434 29.9947 24.7414 12 11.2757073259 1.7803047379 12.5314181728
4423 1 5.20847 28.2779 26.5046 12 11.2445110056 1.7857829208 11.8240815841
4424 1 3.60279 30.0588 26.4976 12 10.8275743465 1.7609975098 13.9899374749
4425 1 6.98645 28.1677 24.7526 12 11.1023122247 1.7565448364 10.2798748451
4426 1 8.80418 30.0129 24.7478 12 11.2253760481 1.7613780828 9.6370738919
4427 1 8.71024 28.2007 26.5423 12 11.1961002996 1.7573636978 8.5854167908
4428 1 7.02825 30.0105 26.5096 12 11.1950941544 1.7538647135 10.9473540072
4429 1 10.6163 28.2818 24.7224 12 11.1543140764 1.7573636978 7.197890391
4430 1 12.3487 30.1795 24.8162 12 10.8864505714 1.7456167855 7.0049819061
4431 1 12.1886 28.3304 26.5651 12 11.0059852682 1.7697719924 5.8314791181
4432 1 10.4199 30.0373 26.4541 12 10.9819054801 1.7456167855 8.2897062614
4433 1 14.0419 28.3828 24.8201 12 11.3621938646 1.7702708576 4.553200371
4434 1 15.8883 29.987 24.7248 12 11.0097748716 1.7554908009 4.3620906265
4435 1 15.9511 28.3017 26.4587 12 11.1024639824 1.7662926114 2.9697943462
4436 1 14.071 30.0237 26.5929 12 10.9361798807 1.7515621335 5.5140693049
4437 1 17.6836 28.2579 24.7127 12 10.8216498139 1.7464250796 1.8839837827
4438 1 19.3729 30.1171 24.7738 12 11.0913137955 1.7677999823 2.5793144395
4439 1 19.3901 28.1741 26.4396 11 12.1536722238 2.525972744 0.774428949
4440 1 17.7163 30.0304 26.5301 12 10.9229445303 1.748363804 3.2720978251
4441 1 21.126 28.3521 24.66 10 13.1990294596 2.7026576431 0.3172611437
4442 1 22.9719 30.08 24.775 12 11.3477582015 1.784131097 1.8280274133
4443 1 22.9617 28.1862 26.3667 8 28.0034660662 5.2613334957 0.2225416933
4444 1 21.1136 29.9737 26.5228 12 11.4920372854 1.7884938073 1.8223980446
4445 1 24.7472 28.3509 24.571 10 12.7141624616 2.5444318098 0.3117835249
4446 1 26.5723 29.9938 24.7018 12 11.0935446836 1.7606870485 2.4996846274
4447 1 26.532 28.3026 26.461 11 11.9763514764 2.3991905223 0.8571991928
4448 1 24.7769 29.9822 26.5067 12 11.2591403362 1.796072241 1.8179559084
4449 1 28.2885 28.1418 24.6625 12 11.056792017 1.7715856527 1.8227253163
4450 1 30.0519 30.0658 24.7293 12 11.4999678992 1.7794487487 4.4172672993
4451 1 30.0659 28.1197 26.5091 12 11.1290813939 1.7715856527 2.8681080046
4452 1 28.2479 30.0469 26.4699 12 11.0625344521 1.7715856527 3.2902149491
4453 1 31.7658 28.1963 24.7097 12 11.3638042571 1.7794487487 4.1636034615
4454 1 33.605 30.0564 24.6645 12 11.4029591551 1.7919349558 6.779757492
4455 1 33.5139 28.3139 26.5621 12 11.5573455805 1.798466208 5.6091166077
4456 1 31.7846 30.1135 26.5118 12 11.1679777426 1.7883894217 5.4962290009
4457 1 35.3173 28.3423 24.6354 12 11.089792363 1.798466208 7.1096514642
4458 1 37.1486 29.9964 24.7096 12 10.9303918862 1.7441584381 9.5220187901
4459 1 37.0969 28.3095 26.6004 12 11.2668844909 1.798466208 8.4863701096
4460 1 35.4313 30.0569 26.5062 12 11.4117386099 1.7984260989 8.1912119155
4461 1 38.9521 28.3041 24.7553 12 11.0961677773 1.7641524333 10.2120368875
4462 1 40.7071 30.0345 24.7912 12 10.8978537764 1.755331047 12.5771789738
4463 1 40.7249 28.2253 26.6069 12 10.9387252884 1.7626821055 11.7616870105
4464 1 38.9111 29.9654 26.4926 12 11.095578088 1.7636713373 10.8891611254
4465 1 0.0100828 31.7211 24.763 12 11.2496139029 1.7657904637 14.9299039731
4466 1 1.7882 33.4913 24.759 12 10.8999096932 1.7657904637 17.3293062103
4467 1 1.86018 31.7091 26.533 12 11.0302996044 1.761172829 16.2814209514
4468 1 0.0131392 33.5017 26.5626 12 10.9846254485 1.7653432768 15.8095216194
4469 1 3.56295 31.7787 24.7076 12 11.168503039 1.7609975098 14.940599178
4470 1 5.39897 33.6385 24.6955 12 10.7941101606 1.7523937689 14.5242074322
4471 1 5.37819 31.8667 26.5379 12 10.9995410709 1.7811183771 13.3489985346
4472 1 3.60705 33.5792 26.5326 12 11.2053077691 1.7763630729 15.7870374596
4473 1 7.028 31.8677 24.7881 12 11.1655471406 1.7613780828 12.1483214595
4474 1 8.87758 33.5723 24.7285 12 10.9086408223 1.7604189147 11.8448234341
4475 1 8.80029 31.8507 26.4876 12 10.9033104759 1.7579954995 10.7172121098
4476 1 6.98204 33.6355 26.4138 12 10.9147444097 1.7422502531 13.2652236119
4477 1 10.5388 31.8081 24.7965 12 10.6645933659 1.7613780828 9.4332050499
4478 1 12.324 33.5273 24.6986 12 10.9913147577 1.7639744372 9.369279757
4479 1 12.3338 31.7769 26.589 12 10.6917000811 1.75098362 7.9818544511
4480 1 10.6297 33.5106 26.4668 12 10.6890495639 1.7447766657 10.4122926706
4481 1 14.1961 31.6971 24.7856 12 10.8908856454 1.7515621335 6.7543561349
4482 1 15.8564 33.5656 24.7677 12 11.1038982475 1.7614068531 7.2578436509
4483 1 15.8637 31.7914 26.5158 12 11.1176022776 1.762367926 5.8098821619
4484 1 14.0495 33.5242 26.5311 12 11.0280769126 1.7589110096 8.3037830452
4485 1 17.6249 31.8604 24.7807 12 11.0661643274 1.7621139388 4.9219727774
4486 1 19.3417 33.6789 24.6902 12 10.928081747 1.7691138506 5.8807063013
4487 1 19.3329 31.8504 26.4738 12 10.8196669556 1.7691138506 3.9869614457
4488 1 17.7087 33.6639 26.5098 12 11.0116507058 1.762367926 6.2538810998
4489 1 21.2821 31.9197 24.7256 12 11.4534927874 1.7691138506 3.7875877884
4490 1 23.0534 33.517 24.6845 12 11.1545896696 1.7753991304 5.2179786532
4491 1 23.0207 31.8139 26.5812 12 11.2196724449 1.7756484902 3.389957692
4492 1 21.0594 33.5202 26.5194 12 11.3631618765 1.7872141244 5.3161099041
4493 1 24.697 31.752 24.712 12 11.3828781109 1.765358681 3.6262175061
4494 1 26.5085 33.6439 24.5958 12 11.7764472188 1.7807117607 5.8263685105
4495 1 26.5407 31.7801 26.5121 12 11.1660031486 1.7639756557 3.8962829647
4496 1 24.7644 33.4769 26.5867 12 11.3737711762 1.7706733227 5.2630310221
4497 1 28.2137 31.7515 24.7236 12 11.4523442169 1.7825119615 4.7988638424
4498 1 30.0912 33.6253 24.8444 12 11.2964513954 1.7825119615 7.312624961
4499 1 30.1044 31.8157 26.5275 12 10.9093143988 1.76721012 5.8317258421
4500 1 28.345 33.6063 26.5661 12 11.0341077783 1.7768267688 6.2630032166
4501 1 31.8081 31.8819 24.7148 12 11.1197503898 1.7777782201 6.9369699953
4502 1 33.6066 33.4915 24.7512 12 11.0197246735 1.7689008862 9.3270382925
4503 1 33.505 31.884 26.5147 12 11.3418326069 1.7919349558 7.9645304648
4504 1 31.7366 33.6012 26.5604 12 10.7548067942 1.7572342669 8.2454066954
4505 1 35.369 31.7893 24.7548 12 10.9541357459 1.7384713634 9.250043347
4506 1 37.2727 33.5258 24.793 12 10.7760075107 1.7323041884 11.824381648
4507 1 37.1661 31.8088 26.4256 12 11.0034082564 1.7482344856 10.6473808546
4508 1 35.4499 33.5105 26.505 12 10.8666079303 1.7722033732 10.4868057814
4509 1 39.0056 31.7736 24.6839 12 10.8033561048 1.7465755045 12.0528270354
4510 1 40.7128 33.6613 24.7458 12 10.9690681613 1.7657904637 14.5388864814
4511 1 40.6516 31.7757 26.5401 12 10.9678101936 1.7498212377 13.3374990295
4512 1 39.0654 33.5364 26.455 12 10.8832893527 1.7553352912 13.2129793049
4513 1 0.191551 35.2759 24.7757 12 10.9241873948 1.7643645952 17.0462305753
4514 1 1.8729 37.1021 24.7141 12 11.1494144238 1.766368173 19.4359166699
4515 1 1.84147 35.352 26.468 12 11.1795665563 1.7776906172 18.2644659423
4516 1 0.0364458 37.1383 26.5126 12 11.1105407516 1.761412147 18.1540611849
4517 1 3.53245 35.2274 24.669 12 10.9898478994 1.7776906172 16.9685948258
4518 1 5.30632 37.1363 24.815 12 10.8226924021 1.7523937689 16.8584031621
4519 1 5.39089 35.4138 26.5237 12 11.0399656659 1.7776906172 15.6312222037
4520 1 3.6726 37.2264 26.4942 12 11.0235672264 1.7776906172 18.0962985285
4521 1 7.0764 35.4456 24.7314 12 10.8402427056 1.75082329 14.4273561011
4522 1 8.80241 37.1332 24.7312 12 10.9244534625 1.7562857334 14.3934004038
4523 1 8.87008 35.3263 26.5166 12 11.070638818 1.7561807267 12.9406345446
4524 1 7.14808 37.2355 26.5112 12 10.8229954431 1.7449386278 15.5096684722
4525 1 10.5631 35.3139 24.782 12 11.0292854158 1.7637615051 11.8645645571
4526 1 12.4045 37.072 24.8604 12 11.2992860361 1.7731135245 12.069484704
4527 1 12.2654 35.3199 26.5375 12 10.8372678477 1.7639744372 10.7951153454
4528 1 10.4928 37.163 26.4529 12 11.0318974332 1.7674376346 13.3172187125
4529 1 14.1178 35.2916 24.7947 12 11.1671770782 1.7639744372 9.637863256
4530 1 15.7821 37.1721 24.6826 12 10.7319164416 1.741332516 10.3983464811
4531 1 15.8143 35.3067 26.5287 12 11.1788867353 1.762367926 8.6041552606
4532 1 14.066 37.0457 26.5944 12 10.6967323538 1.7300013492 11.0188535043
4533 1 17.5292 35.3852 24.6348 12 11.0616315325 1.7586005011 8.0753374064
4534 1 19.3008 37.1903 24.6547 12 11.4138064435 1.7721674592 9.3186004174
4535 1 19.367 35.3237 26.5147 12 11.3009921841 1.7684662105 7.3863567209
4536 1 17.5103 37.1132 26.4122 12 11.2300683056 1.7652628868 9.5496315174
4537 1 21.174 35.3192 24.7211 12 11.4653655634 1.7721674592 7.1418135441
4538 1 22.9422 37.1155 24.6599 12 10.8255162592 1.7639652486 8.7570106959
4539 1 22.9172 35.3455 26.3628 12 11.3330514804 1.7756484902 6.8846927991
4540 1 21.1853 37.174 26.37 12 10.9871039604 1.7721674592 8.8816075025
4541 1 24.7139 35.3533 24.7795 12 11.2919884708 1.7963614881 7.1652692776
4542 1 26.5296 37.0268 24.7746 12 11.1837953407 1.7802798529 9.1223890057
4543 1 26.588 35.258 26.5622 12 11.2352283049 1.7800201051 7.314088085
4544 1 24.6923 37.0761 26.4247 12 11.176490763 1.7802798529 8.7895771902
4545 1 28.2445 35.2984 24.7359 12 11.1639299538 1.7825119615 7.9241399676
4546 1 30.1348 36.9895 24.7708 12 11.1431288966 1.7599480423 10.2255519144
4547 1 30.0195 35.4028 26.5851 12 10.8957034938 1.7350849837 8.6497273478
4548 1 28.2939 37.1229 26.4507 12 11.0833724659 1.7793601019 9.5159153569
4549 1 31.9391 35.2679 24.752 12 11.1139513546 1.7650122358 9.6954694615
4550 1 33.6169 37.0572 24.7212 12 11.1908903475 1.7450768019 12.1186582982
4551 1 33.5984 35.2373 26.516 12 11.0368167766 1.7722033732 10.6653017712
4552 1 31.8756 37.1004 26.5621 12 11.0108046861 1.7515195711 11.0876403082
4553 1 35.3745 35.2343 24.6734 12 11.178424392 1.7722033732 11.8036855217
4554 1 36.9995 37.0416 24.6303 12 11.2249404345 1.7646744192 14.2318794187
4555 1 37.1564 35.2317 26.3996 12 10.9907324885 1.7718655587 12.9113593379
4556 1 35.3787 37.0474 26.5726 12 10.9960917014 1.7722033732 13.1737670731
4557 1 39.0463 35.3099 24.8407 12 10.7804740166 1.7581114111 14.3389210759
4558 1 40.7146 37.0227 24.7369 12 10.9592457331 1.761412147 16.7302573123
4559 1 40.877 35.3512 26.4965 12 10.7413334051 1.7416594125 15.7743003736
4560 1 38.9595 36.9769 26.4429 12 11.1123270037 1.7672092159 15.4199017196
4561 1 0.0293816 38.7886 24.6585 12 11.2157964062 1.7819310887 19.2243230263
4562 1 1.80969 40.4851 24.7594 12 11.1509314655 1.7720818574 21.6815457674
4563 1 1.81932 38.7771 26.5725 12 11.1063086861 1.7427056875 20.5116394566
4564 1 0.0692698 40.5845 26.3535 12 11.2865574897 1.7882294742 20.4852777057
4565 1 3.67757 38.925 24.6739 12 10.8784861703 1.7402595379 19.2690516552
4566 1 5.31452 40.6477 24.7448 12 11.0384494545 1.7663810371 19.3300791888
4567 1 5.33092 38.9291 26.5073 12 10.6126607531 1.7361147368 17.9909472288
4568 1 3.66774 40.6558 26.5319 12 10.9044854554 1.747574708 20.3882928382
4569 1 7.11259 38.9046 24.7719 12 10.9451595148 1.759650704 16.8335314809
4570 1 8.71748 40.7757 24.7049 12 11.0435511255 1.759650704 17.2399468805
4571 1 8.8567 38.9556 26.5601 12 11.0438087337 1.7658883908 15.7331506717
4572 1 7.0831 40.7335 26.4515 12 10.8900907868 1.7689357624 18.2178884119
4573 1 10.6176 38.8611 24.7134 12 11.3598050805 1.7650709623 14.5708811855
4574 1 12.4008 40.653 24.6336 12 11.0447632914 1.7537180429 15.0545865921
4575 1 12.4368 38.8579 26.5162 12 10.8826346624 1.7674376346 13.4391436643
4576 1 10.6684 40.6814 26.386 12 11.2910963666 1.7674376346 15.9580630486
4577 1 14.1207 38.8707 24.8277 12 10.7569202366 1.753921182 12.6353696501
4578 1 15.8104 40.668 24.7226 12 11.0233305256 1.7648185071 13.5687707467
4579 1 15.8501 38.8551 26.5145 12 10.8704502319 1.7549662499 11.7551472348
4580 1 14.1411 40.6254 26.5329 12 10.8445878674 1.7596393693 14.0737361875
4581 1 17.5916 38.8821 24.821 12 10.7655310313 1.7608179073 11.3274930086
4582 1 19.3998 40.5438 24.7131 12 11.225762902 1.7753974125 12.5826199588
4583 1 19.5476 38.8506 26.4338 12 10.9542982045 1.7684662105 10.8227469555
4584 1 17.7429 40.6462 26.5273 12 11.1114857805 1.7648185071 12.9168568189
4585 1 21.2931 38.9026 24.7829 12 10.9436625042 1.7693622074 10.635533697
4586 1 22.9626 40.659 24.7511 12 10.9792075046 1.7597279717 12.2589503213
4587 1 22.9629 38.8697 26.5891 12 10.8685207248 1.7722154189 10.4158667923
4588 1 21.2382 40.629 26.6137 12 11.2169506206 1.7772175737 12.2901621511
4589 1 24.6899 38.8763 24.6884 12 11.077457281 1.7783109111 10.638076451
4590 1 26.4869 40.5809 24.758 12 11.3805862511 1.7783109111 12.6071241093
4591 1 26.4992 38.8552 26.5257 12 11.3175283916 1.7802798529 10.8448636328
4592 1 24.6031 40.688 26.5697 12 11.2766999783 1.7722154189 12.3459633427
4593 1 28.2692 38.8743 24.6994 12 11.1817793877 1.7778789256 11.3048357849
4594 1 30.0414 40.5457 24.6585 12 11.0867560435 1.75868598 13.4338628433
4595 1 30.1215 38.8266 26.5026 12 11.2052865011 1.7585187672 11.746625632
4596 1 28.3438 40.5996 26.4383 12 11.0454530621 1.7725544993 12.8915303561
4597 1 31.8754 38.8207 24.8375 12 11.0481869533 1.75868598 12.6360205467
4598 1 33.5869 40.622 24.7412 12 10.5594622965 1.7571099094 15.0609322517
4599 1 33.7945 38.8884 26.4471 12 10.8289635477 1.7440268141 13.6634927569
4600 1 31.9961 40.535 26.502 12 11.0703107061 1.7948272148 14.0932710159
4601 1 35.3579 38.8599 24.7066 12 10.9429439649 1.7475199337 14.5958930177
4602 1 37.1723 40.705 24.5829 12 10.9084947538 1.7488818583 17.158689895
4603 1 37.1121 38.7568 26.4617 12 11.5304598593 1.7672092159 15.5733477865
4604 1 35.5571 40.6539 26.4143 12 11.1563645517 1.7469991158 16.1367166709
4605 1 38.8941 38.8184 24.7271 12 11.3131937876 1.7586339238 16.806655886
4606 1 40.6538 40.6184 24.6398 12 11.2157731492 1.7754515916 19.3212455459
4607 1 40.6029 38.8234 26.4524 12 11.241527298 1.781887395 17.8878271715
4608 1 38.8945 40.5965 26.4893 12 11.0635196476 1.7583377088 18.1154277895
4609 1 42.2998 42.3006 28.3188 12 11.2984302508 1.7882294742 20.4451316899
4610 1 1.74644 1.68441 28.2398 12 11.1049049117 1.7883929563 20.529508629
4611 1 1.73894 42.346 29.9764 12 10.9574380342 1.7475261856 21.8524875902
4612 1 0.0506973 1.71324 29.9937 12 11.0249341336 1.747759539 19.3969691023
4613 1 3.32848 42.38 28.2312 12 10.874027932 1.7510782831 21.2170694785
4614 1 5.21616 1.67044 28.3216 12 11.0893617741 1.7510782831 18.6892997075
4615 1 5.22949 -0.00718953 30.0325 12 10.880610047 1.7504174595 20.2203018708
4616 1 3.52289 1.63705 30.0461 12 10.8248827261 1.7471242151 20.1126397144
4617 1 7.12758 0.00740885 28.3262 12 11.0690083103 1.7689357624 18.7953228374
4618 1 8.8769 1.72446 28.2137 12 11.2871434564 1.7769328152 16.3936322499
4619 1 8.89841 42.3878 30.0336 12 11.2616568844 1.7769328152 18.2346990196
4620 1 7.0391 1.70762 30.0486 12 11.2594921983 1.7769328152 17.8134426047
4621 1 10.6412 -0.00246097 28.2319 12 11.1243661814 1.7694398083 16.8779712186
4622 1 12.4029 1.67475 28.1593 12 11.0628481678 1.772491958 14.6156600571
4623 1 12.4332 0.00847417 30.0098 12 11.1533589668 1.7707376353 16.4730061627
4624 1 10.5873 1.80246 30.0855 12 11.6641939716 1.7769328152 15.871797311
4625 1 14.1814 42.4155 28.2774 12 10.9625066995 1.7598531661 15.497761464
4626 1 15.8108 1.88919 28.3204 12 11.1137200684 1.7615473209 13.1900927944
4627 1 15.7883 42.3577 30.1042 12 11.1968462969 1.7579248316 15.3873684073
4628 1 14.0971 1.78657 30.0956 12 11.1153404784 1.7728161255 14.2318488405
4629 1 17.602 42.3965 28.3117 12 11.1676126464 1.7500483808 14.6451254517
4630 1 19.2912 1.73296 28.2786 12 11.0083630438 1.7737028765 12.6420337076
4631 1 19.4129 42.4255 30.0687 12 10.9725663782 1.7588992259 14.5992918435
4632 1 17.6459 1.68445 30.0676 12 10.9855410614 1.7579248316 13.2655709438
4633 1 21.1158 -0.0474108 28.3622 12 11.444990079 1.781857299 14.1038123674
4634 1 22.8433 1.79185 28.3206 12 11.2166028593 1.7788397797 12.0731877951
4635 1 22.9156 42.3293 30.1582 12 11.3386386595 1.7799165899 14.15987784
4636 1 21.1373 1.63852 30.0377 12 10.8534439697 1.7563002717 12.6945513216
4637 1 24.6664 42.3609 28.376 12 11.4684589042 1.781857299 13.864102106
4638 1 26.5263 1.65406 28.2623 12 11.3374906292 1.7598066091 12.2531552515
4639 1 26.5053 42.3989 30.0911 12 11.1765077355 1.7598066091 14.1299840609
4640 1 24.6133 1.70834 30.0701 12 11.1515706537 1.7598066091 12.273100559
4641 1 28.295 42.336 28.3086 12 11.0747405673 1.7725544993 14.1829161996
4642 1 29.9364 1.655 28.247 12 11.1830529021 1.7772018848 12.7268545127
4643 1 29.9783 42.3573 30.1197 12 11.1562102826 1.7494730243 14.6653753896
4644 1 28.3132 1.75268 30.1007 12 11.1397728756 1.762076034 12.5598149239
4645 1 31.6664 42.396 28.2314 12 11.4634222269 1.7952594894 14.8224769336
4646 1 33.5489 1.64697 28.2602 12 11.1698342474 1.7746609566 13.9194733136
4647 1 33.6342 -0.00682208 29.9276 12 11.3791304523 1.7770914955 15.5482118469
4648 1 31.7224 1.72173 29.9831 12 11.3262426546 1.7655572859 13.298365514
4649 1 35.4274 -0.0353663 28.225 12 11.1766487564 1.7646284394 16.2579778995
4650 1 37.2213 1.66485 28.2664 12 11.0855129985 1.7509194387 15.7675881453
4651 1 37.1465 42.362 30.121 12 11.1888788832 1.7622979797 17.2461852767
4652 1 35.3614 1.70202 30.021 12 10.833380344 1.7597245351 14.7913727562
4653 1 38.8814 42.2752 28.347 12 11.0361327533 1.745480511 18.2306829052
4654 1 40.6935 1.80146 28.2989 12 11.0955391257 1.7538885293 17.9290315513
4655 1 40.741 42.37 30.0731 12 11.0204453728 1.7452625042 19.4085502651
4656 1 38.9545 1.67162 30.0153 12 10.9965806707 1.74695966 16.9210841571
4657 1 0.0111966 3.46848 28.2894 12 10.9769495317 1.7673896493 18.0626220291
4658 1 1.76526 5.21862 28.2258 12 10.861461747 1.7854497716 18.3856373999
4659 1 1.72808 3.35884 29.9839 12 10.969230678 1.7673264026 19.6551299546
4660 1 0.0655232 5.23439 30.1635 12 11.1183148821 1.7614717746 17.2280637392
4661 1 3.54451 3.4522 28.2581 12 11.148400705 1.7854497716 18.5945483126
4662 1 5.32914 5.34604 28.1865 12 11.2980502148 1.7854497716 16.0137536475
4663 1 5.18004 3.48301 30.0097 12 11.4801925688 1.7657715369 17.6784046854
4664 1 3.27106 5.29825 30.0465 12 11.2847238342 1.7854497716 17.9471219441
4665 1 7.03328 3.45001 28.2568 12 11.4426935908 1.7657715369 16.1654093301
4666 1 8.83283 5.22782 28.2153 12 11.3837887057 1.7610109662 13.6647777023
4667 1 8.77449 3.53096 30.0516 12 11.4531988069 1.7765515298 15.3861202169
4668 1 6.93571 5.27013 30.1043 12 11.1121817137 1.7731256054 15.2639980426
4669 1 10.6063 3.59634 28.2406 12 11.2939154849 1.772491958 13.9255029276
4670 1 12.342 5.3078 28.307 12 10.8095495324 1.759725279 11.6305753442
4671 1 12.3625 3.58093 30.1116 12 11.2018824857 1.7660097017 13.5237492696
4672 1 10.5728 5.25899 30.0948 12 11.0986007763 1.7625241789 13.0425462154
4673 1 13.9623 3.48934 28.3546 12 10.9667737568 1.7659654085 12.4012434027
4674 1 15.8387 5.29382 28.3122 12 11.0610377061 1.7626874521 10.0251406393
4675 1 15.8941 3.56726 30.1009 12 11.0116250081 1.7660097017 11.9919783231
4676 1 14.0862 5.3299 30.0088 12 10.9142851209 1.7658811184 11.1850512473
4677 1 17.4856 3.50305 28.3454 12 10.8857423325 1.7737028765 11.223007751
4678 1 19.3717 5.28412 28.1633 12 11.1545034061 1.7737026636 9.1453141793
4679 1 19.4041 3.53907 30.0228 12 10.9777502329 1.7737028765 11.1239966193
4680 1 17.6493 5.27537 29.9057 12 10.8059011519 1.7618472255 9.8552151741
4681 1 21.1122 3.43508 28.2243 12 11.0023596215 1.7716514475 10.6807377204
4682 1 22.884 5.13375 28.2468 12 11.3014977375 1.8005200355 8.7529255801
4683 1 22.8929 3.46551 30.0329 12 10.608207475 1.7494829495 10.6434776584
4684 1 21.1618 5.20489 30.0031 12 10.9027484816 1.7587689727 9.215340308
4685 1 24.7755 3.4117 28.2903 12 11.2326767409 1.8005381063 10.3719690849
4686 1 26.4965 5.13086 28.2246 12 11.2410601701 1.8005400891 8.803769797
4687 1 26.4372 3.46468 30.0581 12 11.195570005 1.7636347344 10.6510685308
4688 1 24.6155 5.16615 30.0595 12 11.0568274665 1.8005400891 8.885150388
4689 1 28.2868 3.43144 28.2605 12 11.2843404113 1.7636347344 10.6857731129
4690 1 29.9038 5.24844 28.2068 12 11.031483748 1.7524161443 9.2567758948
4691 1 29.9586 3.54943 30.086 12 11.1045971688 1.7655572859 11.1258433246
4692 1 28.2727 5.34018 30.0675 12 10.8679964607 1.7636347344 9.0457114597
4693 1 31.7846 3.52241 28.2212 12 10.9299342329 1.7645240464 11.4997812294
4694 1 33.6002 5.175 28.2826 12 11.0641087545 1.7469710556 10.8255767294
4695 1 33.5425 3.43231 29.8761 12 10.9430152805 1.7653958054 12.3932374444
4696 1 31.778 5.24611 29.8719 12 11.1025437817 1.7655572859 10.0161495174
4697 1 35.4863 3.40502 28.3525 12 11.0929174719 1.7802638472 13.3416041348
4698 1 37.3382 5.25535 28.388 12 10.5688804966 1.7475603753 13.1194243815
4699 1 37.1044 3.4676 30.0721 12 10.8652819082 1.7454882725 14.3722033961
4700 1 35.439 5.30247 29.9667 12 10.9421460193 1.7492610175 11.9012031864
4701 1 38.9561 3.43366 28.2833 12 11.1827221961 1.7651008269 15.5487577185
4702 1 40.7908 5.43724 28.2434 12 11.2183014111 1.7651008269 15.5279182749
4703 1 40.7524 3.5179 30.0798 12 11.2106441793 1.7651008269 16.9176167368
4704 1 38.9213 5.22675 30.0013 12 10.8415088916 1.7608499714 14.4222835676
4705 1 0.0846775 6.96 28.3307 12 11.2231279443 1.7714741485 16.022549335
4706 1 1.92912 8.78759 28.233 12 10.7988361478 1.7688493152 16.6197088061
4707 1 1.73648 7.047 30.0968 12 10.6730431682 1.7341148297 17.4463397238
4708 1 42.3658 8.77342 30.0669 12 10.8786058135 1.7688493152 14.9923114659
4709 1 3.46222 7.02274 28.2616 12 10.8682953716 1.7853951494 16.4156233236
4710 1 5.22572 8.71146 28.1892 12 11.2118989349 1.7802205798 14.0328622319
4711 1 5.26135 6.89185 30.0349 12 11.330711581 1.7982855926 15.4631436485
4712 1 3.58588 8.74514 30.0726 12 10.9360458241 1.7514404278 15.708292545
4713 1 7.07651 6.97997 28.1926 12 11.3889038191 1.7731256054 13.6469579935
4714 1 8.84161 8.82605 28.2043 12 11.2722516338 1.7656481192 11.1450606179
4715 1 8.85271 6.93132 30.0755 12 11.2565133888 1.7731256054 12.8244387547
4716 1 6.99442 8.80086 30.0325 12 11.4781393567 1.7731256054 13.018630191
4717 1 10.5624 7.07765 28.2864 12 11.2677919917 1.7581814529 11.1843080315
4718 1 12.329 8.80879 28.1532 12 11.1680446718 1.773394067 8.7581823518
4719 1 12.4167 7.13613 30.1389 12 11.1660651101 1.763385137 10.5647817819
4720 1 10.5575 8.84841 29.9716 12 11.2308889726 1.7654947927 10.3672677973
4721 1 14.074 7.12737 28.3318 12 10.6247941643 1.7581814529 9.2733803524
4722 1 15.8094 8.812 28.2905 12 10.8490023991 1.7922801162 7.00816398
4723 1 15.8214 7.1125 30.1082 12 10.8777221978 1.7626874521 8.912084094
4724 1 14.0734 8.88762 30.099 12 11.0611671796 1.7654947927 8.2659584531
4725 1 17.4923 7.09078 28.2468 12 11.2443217862 1.7922636483 7.7907459875
4726 1 19.4463 8.87247 28.2781 12 11.4227838058 1.7903158554 5.6525569838
4727 1 19.301 6.9194 29.9757 12 11.3763047793 1.7672454403 7.9042968791
4728 1 17.5823 8.78997 30.0764 12 11.2352231573 1.7922801162 6.7966897165
4729 1 21.2203 6.95044 28.2697 12 11.003824802 1.7697105458 7.2401378142
4730 1 22.9096 8.71693 28.1805 12 10.9659860465 1.7681571182 5.2262969746
4731 1 22.9293 6.99251 30.0135 12 11.1063561576 1.7693049138 7.2011013016
4732 1 21.1943 8.73947 29.9812 12 11.295428651 1.7773737246 5.7708509576
4733 1 24.7546 7.0099 28.237 12 11.3485158276 1.8005400891 6.7791641862
4734 1 26.4076 8.7537 28.2152 12 10.5478878754 1.7529940744 5.2148971847
4735 1 26.4553 7.00145 29.9424 12 10.9427368474 1.7649678247 7.1465382148
4736 1 24.7112 8.75775 30.0547 12 11.087848686 1.7636730133 5.3826013448
4737 1 28.1362 6.92538 28.1796 12 10.9098231681 1.7528556375 7.2327054976
4738 1 29.9096 8.7195 28.1873 12 11.3797753888 1.7761371901 5.9801689716
4739 1 30.1304 6.94257 30.0427 12 11.0613901889 1.772127915 7.9140246693
4740 1 28.0919 8.77792 29.8695 12 10.9807964211 1.772127915 5.6460940681
4741 1 31.7826 7.0362 28.2279 12 11.2794618588 1.7765263955 8.3042051762
4742 1 33.5796 8.92136 28.3128 12 11.1547537796 1.7765263955 7.8710582398
4743 1 33.5985 7.09295 30.0017 12 11.1455784098 1.7469710556 9.3830497839
4744 1 31.8377 8.74322 30.0455 12 11.3090899594 1.7761582627 7.0599298521
4745 1 35.3354 7.09547 28.3385 12 10.9492501153 1.7638561354 10.4035858412
4746 1 37.1336 8.80098 28.3033 12 10.795208542 1.7638561354 10.6145981011
4747 1 37.0027 7.00503 30.0174 12 10.5956344606 1.7314412367 11.8323634245
4748 1 35.3309 8.81897 30.05 12 10.7394028083 1.7625515615 9.4326535035
4749 1 38.8268 6.93395 28.3498 12 10.3885324989 1.7350788333 13.087950166
4750 1 40.611 8.714 28.3465 12 10.8926399175 1.7588714596 13.4530698085
4751 1 40.6483 7.03221 30.1047 12 10.8446518762 1.7614717746 14.6646396529
4752 1 38.8484 8.78871 29.9643 12 10.8855152058 1.7484958285 12.1632067746
4753 1 42.3641 10.4944 28.2074 12 10.7755399005 1.7686787799 14.0456033441
4754 1 1.72626 12.3521 28.2448 12 10.7447954853 1.7454174146 15.0202239459
4755 1 1.72891 10.3808 29.8699 12 10.9448031647 1.7514404278 15.8076385216
4756 1 0.0193811 12.2271 30.015 12 10.9630376824 1.7512082954 13.5635483392
4757 1 3.52036 10.5287 28.2668 12 11.0094172608 1.7863623242 14.4910116859
4758 1 5.29435 12.3954 28.3475 12 11.2759808915 1.7827807378 12.1111107187
4759 1 5.26368 10.5551 30.0478 12 10.9728461545 1.7804941555 13.3704306223
4760 1 3.46397 12.2867 30.0293 12 10.9572657523 1.7593465755 14.1289834724
4761 1 7.07527 10.5089 28.3164 12 11.3112327962 1.7827807378 11.5630047862
4762 1 8.77689 12.398 28.2482 12 11.0318850405 1.7600627566 9.1182537526
4763 1 8.82567 10.6154 30.044 12 11.0252245589 1.7597310441 10.5644477451
4764 1 7.07371 12.2939 30.0748 12 10.9739171564 1.7690123361 11.0297865599
4765 1 10.589 10.6532 28.2409 12 11.2243210475 1.7727951822 8.7040694704
4766 1 12.4453 12.5023 28.1495 12 11.0827989571 1.7704473179 6.1735985092
4767 1 12.3178 10.714 30.0305 12 11.2723451011 1.773394067 7.9793768575
4768 1 10.6159 12.3483 30.0563 12 11.3492581068 1.7925290326 8.1892507077
4769 1 14.1555 10.5937 28.3229 12 11.1693105173 1.773394067 6.3768266588
4770 1 15.9474 12.4153 28.5416 12 11.173143855 1.7448220037 4.0184828547
4771 1 15.8766 10.6268 30.0481 12 10.8508851725 1.7588510465 5.9019634687
4772 1 14.03 12.4298 29.9681 12 10.8670765386 1.7502674122 5.6836968392
4773 1 17.6657 10.6703 28.3323 12 11.4724248424 1.7922801162 4.5634560798
4774 1 19.4013 12.4203 28.2922 12 11.2342743132 1.7557955302 2.3946276029
4775 1 19.4707 10.6779 30.0598 12 11.3657834365 1.759989912 4.4884212194
4776 1 17.7226 12.4678 30.2773 13 11.1683149725 1.7364856245 3.5778918873
4777 1 21.1495 10.6027 28.276 12 11.0771020722 1.7749723278 3.6888950246
4778 1 22.9587 12.3048 28.1031 12 11.0287677874 1.7573846453 1.7067342136
4779 1 22.9875 10.4971 29.9676 12 11.1946715488 1.7601397139 3.7766899813
4780 1 21.2931 12.4026 29.9469 12 11.2977878121 1.7716604249 2.3470988784
4781 1 24.6822 10.5364 28.2796 12 11.0094777739 1.7598445487 3.278182102
4782 1 26.4943 12.3127 28.277 12 10.6855675995 1.765100365 1.7160841515
4783 1 26.5045 10.5305 30.0358 12 10.9585731133 1.7611295572 3.6768458451
4784 1 24.764 12.3177 30.0532 12 11.0539346649 1.7599756151 1.9128645431
4785 1 28.1724 10.5467 28.1699 12 10.6280246986 1.7387931574 3.7230025898
4786 1 29.9035 12.2017 28.2436 12 10.9954578466 1.7644886401 2.9640062299
4787 1 29.9591 10.4597 29.9539 12 11.2722179016 1.7728774669 4.6733446211
4788 1 28.1888 12.2693 30.0752 12 10.9548753409 1.7466201747 2.5006453872
4789 1 31.6941 10.584 28.2436 12 11.4906936621 1.7765263955 5.3651011496
4790 1 33.5005 12.3095 28.2943 12 11.3514459543 1.7609546365 5.6286736998
4791 1 33.531 10.5398 30.1775 12 11.193376814 1.7746513787 7.0477939261
4792 1 31.826 12.4252 30.0399 12 11.0361040363 1.7746513787 4.6391267239
4793 1 35.2855 10.6161 28.3548 12 10.975028684 1.7638561354 8.0662091204
4794 1 37.079 12.3712 28.2573 12 10.8649474302 1.7481571518 8.5067882966
4795 1 37.0809 10.5326 30.0028 12 10.7886002959 1.7441189041 9.7229502411
4796 1 35.4697 12.3299 29.9769 12 11.1992447431 1.7806325982 7.3778907252
4797 1 38.9107 10.5819 28.2793 12 10.9238171492 1.7462053393 11.0056823985
4798 1 40.6409 12.332 28.3143 12 10.8006492635 1.7760975868 11.7141833713
4799 1 40.6845 10.5793 30.0867 12 10.8307042974 1.7462053393 12.642244372
4800 1 38.8986 12.3213 30.0296 12 11.074489352 1.7747771568 10.2684225519
4801 1 42.3855 14.0173 28.3071 12 10.9449158277 1.7802435254 12.8604673975
4802 1 1.6351 15.7772 28.2441 12 11.1280655871 1.7661237113 14.2315350405
4803 1 1.71312 14.0849 30.0283 12 11.0747350768 1.7676316469 14.7143733857
4804 1 42.3056 15.8814 30.0814 12 11.0820971418 1.7676316469 12.6468470756
4805 1 3.46829 14.0182 28.273 12 10.8750095224 1.7622235061 13.2325554219
4806 1 5.15362 15.7825 28.2683 12 11.1526851463 1.7885480521 11.2234284481
4807 1 5.30113 14.0887 30.0035 12 10.9431126655 1.7583749613 11.8591834528
4808 1 3.48966 15.8419 29.9223 12 10.9430264558 1.7644845001 13.130854604
4809 1 6.99791 14.1455 28.3206 12 10.9972627999 1.7607832315 9.8826223155
4810 1 8.71579 15.8203 28.3713 12 10.7311439797 1.7483738037 7.8037007099
4811 1 8.72999 14.1237 30.0862 12 11.0952640472 1.7925177437 8.8490781156
4812 1 7.00562 15.996 30.0986 12 10.9456722843 1.750550119 9.8369559695
4813 1 10.4766 14.2271 28.2891 12 10.9402884195 1.7925290326 6.76576441
4814 1 12.3671 15.9171 28.1754 12 11.2238525844 1.7802005498 4.3902588303
4815 1 12.3219 14.2073 29.997 12 11.2027830165 1.7925290326 5.7922216243
4816 1 10.5146 15.9574 30.0477 12 11.2183367457 1.7917942298 6.6849749839
4817 1 14.0784 14.1798 28.2209 12 10.8182581716 1.7509839464 3.9673495874
4818 1 15.7749 15.8787 28.1795 12 10.8555042515 1.7789776295 1.6691933467
4819 1 15.8433 14.2211 30.0733 12 11.06746495 1.7786981916 3.1548261968
4820 1 14.0953 16.0057 29.9717 12 11.0459854528 1.7801268876 3.4762190155
4821 1 17.6568 14.1805 28.2959 12 11.0628201483 1.7585613609 1.6297491445
4822 1 19.4084 15.9822 28.3615 8 37.9393664034 6.5527826211 0.7258816178
4823 1 19.5112 14.1372 30.0651 12 11.192559681 1.7645669274 1.4859700364
4824 1 17.6541 15.8311 30.0458 11 11.403526041 2.2063544385 0.7409678605
4825 1 21.3182 14.1457 28.1958 10 14.4670330152 3.1129278735 0.1944900501
4826 1 22.9604 37.0168 38.7152 12 11.2977709306 1.761460582 12.9660480322
4827 1 23.1606 14.1398 29.9877 10 14.8007572479 3.164102642 0.2174934105
4828 1 21.1534 15.9199 30.0054 8 30.9190390153 6.492724508 0.5939900616
4829 1 24.6986 14.0351 28.0617 8 24.7195665323 4.9916281111 0.2031262943
4830 1 21.0899 35.1998 38.9108 12 10.6899328088 1.7483035052 11.9045903713
4831 1 26.4306 14.0846 29.9706 10 14.3944050347 3.0621482886 0.2887389631
4832 1 17.6796 37.1728 40.6134 12 11.2461130505 1.7683724202 15.1746289828
4833 1 28.2458 13.9167 28.3085 11 11.5105611489 2.2801197564 0.5866777513
4834 1 30.0096 15.8454 28.2223 11 11.933454439 2.3861578212 0.7461847899
4835 1 30.0723 14.0027 29.9501 12 11.0178269467 1.7874508132 2.3675888791
4836 1 28.3086 15.8428 29.8647 9 18.1375110228 3.634992391 0.0012751285
4837 1 31.7743 14.1045 28.2945 12 11.0705689317 1.7643156465 3.1821833342
4838 1 33.5662 15.9116 28.2359 12 10.8577770006 1.769032776 3.8569038128
4839 1 33.5704 14.1556 29.9648 12 11.1256126668 1.769032776 4.859562803
4840 1 31.7381 15.9464 30.062 12 11.1260155239 1.769032776 2.5838143564
4841 1 35.3523 14.172 28.1164 12 10.7992041357 1.7484760464 6.1298439164
4842 1 37.1105 15.9004 28.2293 12 11.1378533259 1.7778948826 7.3344122744
4843 1 37.0812 14.1012 29.9909 12 10.9283383925 1.7747771568 7.9313467106
4844 1 35.3328 15.7707 29.942 12 10.9778018465 1.7670135984 5.8435118045
4845 1 38.8408 14.0673 28.1667 12 11.3166226148 1.7802435254 9.4230608304
4846 1 40.7419 15.9539 28.1882 12 11.0618727766 1.7802435254 10.9076982607
4847 1 40.6682 14.1118 30.0709 12 11.3773383074 1.7802435254 11.3289015852
4848 1 38.8786 15.8677 29.9103 12 11.3020859897 1.7747771568 9.2642548207
4849 1 0.0265226 17.6656 28.3066 12 10.7090478421 1.7360169561 12.4270237443
4850 1 1.72258 19.4116 28.2006 12 10.9471868921 1.7655320619 14.0209896272
4851 1 1.81265 17.6047 30.0244 12 11.2630422177 1.7676316469 14.3449466054
4852 1 0.00589004 19.333 30.0385 12 10.967173672 1.755718803 12.5041760093
4853 1 3.47876 17.6376 28.128 12 10.9045755132 1.7645143471 12.570707251
4854 1 5.16867 19.328 28.2932 12 10.6931171523 1.7430062949 10.7555669766
4855 1 5.2078 17.6312 29.9223 12 10.8216762268 1.7383524091 11.1451477425
4856 1 3.46064 19.4244 29.9661 12 10.9610641122 1.7674574612 12.6669613507
4857 1 6.97492 17.6247 28.1105 12 11.0569881798 1.750550119 9.1446926585
4858 1 8.73401 19.414 28.2573 12 11.0130984571 1.7671725958 7.216759901
4859 1 8.72524 17.6375 30.0013 12 10.8619330974 1.7575270253 7.8231228738
4860 1 6.96588 19.34 29.9217 12 11.0207274343 1.7838599111 9.2221338257
4861 1 10.5234 17.6605 28.2448 12 10.9887050853 1.7490977725 5.6896260543
4862 1 12.3105 19.4035 28.2028 12 10.5900192984 1.745130721 3.6730966167
4863 1 12.2959 17.7668 29.9344 12 11.0664963572 1.7802005498 4.5564153997
4864 1 10.5001 19.3944 30.0634 12 10.9524062947 1.7365499588 5.861316118
4865 1 14.1347 17.7477 28.2273 12 10.6892028918 1.7444187077 2.3065368868
4866 1 15.9776 19.5704 28.094 10 14.9088076273 3.538709653 0.1152334231
4867 1 15.8063 17.783 29.9392 12 10.9208999201 1.7789776295 1.4801495506
4868 1 14.0096 19.4605 29.8724 12 10.9260223786 1.7363246685 2.6040144135
4869 1 17.5461 17.5532 28.4594 8 23.7965193436 5.6956188735 0.5845111931
4870 1 19.4203 35.3014 40.6404 12 10.7818718746 1.761016903 13.4595919725
4871 1 19.4857 37.0804 38.8036 12 11.0553403251 1.7587088538 13.4859300884
4872 1 17.5691 19.4727 29.9093 8 28.6697625097 6.0208528619 0.4987041414
4873 1 17.6867 35.3165 38.904 12 11.3272751252 1.759573227 12.7420719625
4874 1 14.0278 37.1392 40.598 12 11.1599896344 1.7666262292 16.4240812076
4875 1 15.9308 35.3589 40.6711 12 11.3231575076 1.7479328234 14.5226537106
4876 1 15.897 37.1584 38.8795 12 11.3111332246 1.7584989726 14.6098409131
4877 1 14.0993 35.3631 38.8624 12 11.1315086167 1.7412813642 14.1870515441
4878 1 10.6658 37.1872 40.7765 12 11.3079332654 1.7406610587 18.1366798414
4879 1 12.3095 35.4233 40.6276 12 11.1131388476 1.7464785857 16.142465379
4880 1 12.3087 37.1954 38.8585 12 10.9821767424 1.7419028438 16.2737334703
4881 1 10.5578 35.3386 38.9314 12 11.1405762752 1.7558071023 15.9364998636
4882 1 30.0 19.3234 28.1278 9 17.6326036997 4.3329253501 0.0694531091
4883 1 30.0908 17.7098 30.0367 11 11.8005129533 2.3192964884 0.6206730419
4884 1 28.2798 19.3586 30.0588 7 38.4354439012 6.5225540187 0.7141244608
4885 1 31.8218 17.6156 28.2715 12 11.1570460984 1.7706335473 1.8873191432
4886 1 33.5203 19.4502 28.3823 12 11.2689228553 1.7717939081 3.4341007467
4887 1 33.6156 17.6869 30.0828 12 11.2261658348 1.769032776 3.9464935194
4888 1 31.7505 19.4557 30.1533 12 11.3414792236 1.7717939081 2.3820612258
4889 1 35.2948 17.7283 28.3067 12 10.9284860014 1.745632087 5.3030380923
4890 1 37.1623 19.3767 28.2408 12 10.824785113 1.7536079451 7.0371066717
4891 1 37.0587 17.6412 30.0272 12 10.9846590384 1.7530187024 7.2920757283
4892 1 35.4266 19.4423 29.9041 12 10.6293467629 1.7246560543 5.6281356171
4893 1 38.8753 17.5617 28.2054 12 11.0192351057 1.7530187024 8.8555441674
4894 1 40.6588 19.4497 28.279 12 10.8558291186 1.7522853567 10.5242072201
4895 1 40.7019 17.6343 29.9217 12 10.7624068495 1.7527531086 10.8300444044
4896 1 38.8691 19.4362 29.9816 12 10.8122309992 1.7530187024 8.9776136162
4897 1 -0.020957 21.0555 28.2732 12 10.8535510899 1.7668803535 12.2721564602
4898 1 1.78648 22.979 28.2329 12 10.9640287682 1.7668803535 14.1037607076
4899 1 1.71618 21.2552 30.0148 12 11.1105958812 1.7652313665 14.2799592339
4900 1 42.3929 22.8338 29.9884 12 11.0307529333 1.755718803 12.6774139613
4901 1 3.50175 21.1906 28.2806 12 11.0555282074 1.7668803535 12.3239243701
4902 1 5.25132 22.8239 28.1321 12 10.9716599059 1.7483999764 10.6626488543
4903 1 5.14782 21.1055 30.0108 12 10.893899922 1.7837414067 11.0391518902
4904 1 3.49245 22.9568 30.1273 12 11.0286273156 1.7468495535 12.7373517683
4905 1 6.87346 21.1124 28.133 12 11.0800542478 1.7839922363 8.9832857473
4906 1 8.72987 22.9661 28.3368 12 10.936851717 1.7522513852 7.2822017306
4907 1 8.7338 21.2135 29.9721 12 11.1102543432 1.7839922363 7.5086710313
4908 1 6.93507 22.9372 30.049 12 10.9572524601 1.7839922363 9.3453072965
4909 1 10.5733 21.2249 28.2492 12 10.9578353138 1.7583213816 5.3810382673
4910 1 12.4335 22.8717 28.2274 12 11.1325988568 1.8025110279 3.6110864401
4911 1 12.2565 21.1259 29.9533 12 10.7511031591 1.7574327075 4.0387716818
4912 1 10.4966 22.9697 30.0401 12 11.0229640121 1.7668196535 5.8969178975
4913 1 14.017 21.1708 28.1268 12 10.7191277859 1.7363246685 1.9789957126
4914 1 15.8385 22.8897 28.1784 10 14.9878159458 3.1577249471 0.3827684121
4915 1 15.8728 21.2033 29.943 11 11.9950822862 2.4286619437 0.6159567905
4916 1 14.0257 22.9169 30.0222 12 11.4907895964 1.7985871947 2.6813962466
4917 1 7.06871 37.1802 40.7591 12 10.9318239649 1.7718669524 20.0468967366
4918 1 8.8359 35.3939 40.7175 12 11.0316189789 1.7414262633 17.9263286334
4919 1 8.84228 37.0779 38.9793 12 10.9578759266 1.7406610587 18.0547922579
4920 1 17.6175 23.003 30.0416 9 21.2311260454 5.0729404412 0.1384553733
4921 1 6.93628 35.5036 38.9456 12 11.2405568794 1.757413472 18.2303616614
4922 1 3.51197 37.0881 40.7201 12 10.9367181646 1.7715218263 22.2843865335
4923 1 5.2145 35.3282 40.6651 12 11.2689879701 1.7718669524 20.1507225676
4924 1 5.1607 37.1635 38.9226 12 10.9408849502 1.7717274167 20.3735901687
4925 1 3.52758 35.2488 38.8456 12 10.9896064188 1.7468553887 20.3877943375
4926 1 0.0059018 37.011 40.629 12 11.1934691572 1.7597060959 21.1535833242
4927 1 1.75414 35.3455 40.6729 12 10.7911470201 1.7412494372 21.6479419832
4928 1 1.81634 37.0352 38.976 12 11.2035555236 1.7870283741 21.7279522868
4929 1 0.0648916 35.2364 38.8839 12 11.1929096201 1.7548797543 19.4774951496
4930 1 29.9582 22.9211 28.1869 10 13.59727095 2.9208915928 0.2677341158
4931 1 30.0087 21.2448 29.9465 11 12.1132799093 2.5104482384 0.7511099606
4932 1 28.1224 22.8841 29.9524 8 30.3544568983 6.5527826211 0.5222446787
4933 1 31.7302 21.2249 28.2822 12 11.1809836338 1.7717939081 1.7859416995
4934 1 33.5515 22.9184 28.2945 12 11.4973499462 1.8025807321 3.7425769682
4935 1 33.643 21.2194 30.0904 12 11.0528836446 1.7682096149 4.0333148271
4936 1 31.7338 22.857 30.1201 12 11.1596494395 1.7682096149 2.6239988518
4937 1 35.2525 21.2528 28.2454 12 10.8726508257 1.7536079451 5.2197700151
4938 1 37.0979 22.8704 28.2597 12 10.74247964 1.7536079451 7.181893554
4939 1 37.063 21.1393 29.9703 12 10.5713601951 1.7523097628 7.3311725492
4940 1 35.4377 22.9956 29.9971 12 10.6311001367 1.7628059541 5.9491490161
4941 1 38.8202 21.2043 28.3029 12 10.8653687272 1.7499382149 8.718137969
4942 1 40.5898 22.9582 28.3763 12 10.9193002083 1.7449703251 10.6190616382
4943 1 40.6308 21.1354 29.9755 12 10.8891893538 1.755718803 10.8157409032
4944 1 38.7764 22.9285 30.0051 12 10.9080571088 1.7892972638 9.174817224
4945 1 0.0652773 24.7602 28.2899 12 10.9185169241 1.7760572763 12.7903554339
4946 1 1.83684 26.4544 28.3128 12 11.2817511347 1.7753442585 14.6841187922
4947 1 1.72497 24.617 29.9825 12 11.0408099859 1.7699899174 14.5901107713
4948 1 0.0274086 26.4298 30.0613 12 11.0517575245 1.7733725594 13.3208508225
4949 1 3.60789 24.6888 28.2464 12 11.1353337525 1.7468495535 12.5700159779
4950 1 5.30157 26.5757 28.4462 12 11.1713418725 1.7857829208 11.3801196335
4951 1 5.26565 24.766 30.0078 12 10.7128140101 1.7401863725 11.172994439
4952 1 3.53016 26.4285 30.0774 12 11.116141068 1.767213785 13.2403038505
4953 1 6.98199 24.7498 28.3697 12 10.9260561812 1.7483999764 9.2996340465
4954 1 8.74925 26.5128 28.251 12 10.9581489633 1.7464545078 8.0758995743
4955 1 8.70167 24.7448 30.0897 12 10.7907847646 1.7453284856 7.9338626495
4956 1 7.05414 26.5703 30.1436 12 10.7618874277 1.7333661668 10.0473703586
4957 1 10.4802 24.7263 28.3156 12 11.1608235515 1.8005765906 5.9161994998
4958 1 12.349 26.5542 28.3524 12 11.271781823 1.8014629711 4.9449288361
4959 1 12.2225 24.7415 30.0294 12 11.345692108 1.8025110279 4.844324301
4960 1 10.5105 26.4986 29.9987 12 10.8519618758 1.738645002 7.008935509
4961 1 14.1367 24.7364 28.1722 12 11.571092806 1.8025110279 2.5962091562
4962 1 15.9096 26.4652 28.2341 12 11.2277580372 1.7662926114 2.1210671419
4963 1 15.8105 24.8203 30.0627 12 11.4179676544 1.7985871947 2.0753248174
4964 1 14.0707 26.5556 30.0939 12 11.5346931747 1.7964376376 4.2238902338
4965 1 17.613 24.7677 28.284 9 20.5882802068 4.9111795412 0.0944033458
4966 1 19.3251 26.4658 28.2841 9 21.4964854852 5.1598287797 0.1212222066
4967 1 19.3831 24.7354 30.0444 9 34.7764752647 6.5527826211 0.4667527193
4968 1 17.5431 26.5302 30.1377 12 10.9241726264 1.7819351123 1.8672579772
4969 1 38.8899 33.5637 40.8043 12 10.9677749362 1.7776576605 17.1881488075
4970 1 40.4689 31.7675 40.8287 12 11.0430607372 1.7506926423 17.5873458722
4971 1 40.627 33.5799 39.1044 12 11.1643841402 1.7548797543 17.4231151888
4972 1 21.0981 26.5378 30.1128 9 19.039539642 4.5787527475 0.0526365978
4973 1 38.8433 31.8838 38.9085 12 11.3211435762 1.7746205166 15.3172764819
4974 1 26.4867 26.5622 28.2105 8 23.2893526393 5.5222315873 0.4627025451
4975 1 35.339 33.5677 40.674 12 10.975992978 1.7776576605 15.0496042144
4976 1 24.6608 26.4014 29.9022 8 32.0579448613 6.2100310106 0.5566057981
4977 1 28.2629 24.6649 28.2585 8 25.7159188732 5.9871120372 0.5012895562
4978 1 30.0672 26.4644 28.1933 12 11.1844259135 1.7947603998 1.9747409065
4979 1 29.9668 24.5685 29.9745 12 11.2305973208 1.7947603998 1.6134046623
4980 1 28.3045 26.4972 29.9996 11 11.8850534939 2.3044526367 0.7174765728
4981 1 31.7319 24.6763 28.3213 12 11.3849036786 1.789933127 2.4973441997
4982 1 33.6183 26.4941 28.2893 12 11.1760333347 1.789933127 4.870226691
4983 1 33.6411 24.7424 30.1255 12 11.2572482877 1.789933127 4.7881062691
4984 1 31.9007 26.3894 30.01 12 11.2511191535 1.7947603998 3.827098894
4985 1 35.3759 24.6555 28.2549 12 11.0254956975 1.7887605835 5.8236715362
4986 1 37.1585 26.4714 28.3455 12 10.9737845203 1.7659298237 8.0292055562
4987 1 37.1632 24.699 29.9406 12 10.6882177032 1.7510547571 7.848862148
4988 1 35.3634 26.4897 30.0561 12 11.0172853756 1.7659298237 6.8838984134
4989 1 38.9143 24.6296 28.2333 12 10.8111830342 1.7521345304 9.2497023032
4990 1 40.6512 26.4336 28.2925 12 11.1763595139 1.7760572763 11.3333460406
4991 1 40.709 24.6851 30.0552 12 11.0779279719 1.7668859489 11.2678820521
4992 1 38.9424 26.4231 29.9837 12 10.9883076849 1.7694963609 9.9960454395
4993 1 0.0260366 28.3008 28.3985 12 11.190017767 1.7760572763 13.5747003011
4994 1 1.73846 30.0431 28.2544 12 11.1147155259 1.7682063166 15.7422457399
4995 1 1.67264 28.2693 30.1801 12 11.0983995169 1.7687933468 15.4187879754
4996 1 0.0265529 30.0704 30.0475 12 11.2035876237 1.7849833864 14.5193296705
4997 1 3.55782 28.2794 28.3159 12 11.2957629975 1.7693289587 13.5021762847
4998 1 5.22038 30.0886 28.309 12 11.2647806445 1.7843504067 12.6757870698
4999 1 5.31596 28.349 30.1565 12 11.0649373517 1.7650691437 12.269597597
5000 1 3.41553 30.0444 30.0405 12 11.0227075937 1.7646832386 14.5784385051
5001 1 7.09926 28.347 28.3597 12 11.2362051349 1.7637025333 10.2593457329
5002 1 8.79934 30.101 28.3328 12 11.0435170794 1.7484583861 9.7133875523
5003 1 8.74797 28.2942 30.1591 12 10.9252724648 1.7476702504 9.319252668
5004 1 7.0916 30.1376 30.1325 12 11.1196425955 1.7479043429 11.5327669551
5005 1 10.5856 28.1984 28.3568 12 11.1925051266 1.7724584374 7.2096018722
5006 1 12.2341 30.1396 28.2309 12 11.2425063568 1.7724584374 7.1849171215
5007 1 12.3052 28.3471 30.145 12 11.382352693 1.7724584374 6.4841455752
5008 1 10.4999 30.0181 30.1192 12 11.0604891015 1.7574289345 8.8120535376
5009 1 14.0991 28.2173 28.1423 12 11.5104395275 1.7724584374 4.5586719782
5010 1 15.9875 30.0513 28.3119 12 11.0592145766 1.7618548585 4.5598507456
5011 1 15.8286 28.2843 30.0485 12 11.3080832397 1.7845956304 4.0244439605
5012 1 14.1594 30.0092 30.0598 12 11.5043065799 1.77870024 6.2224879517
5013 1 17.6131 28.2263 28.2361 12 11.0764275416 1.7845956304 2.1481165032
5014 1 19.3444 30.0683 28.2705 12 11.0528199026 1.7488613059 2.7344721033
5015 1 19.3907 28.2531 29.9734 12 11.0370691613 1.7845497448 1.9534983387
5016 1 17.6257 30.1699 29.9505 12 11.1116579474 1.7845956304 4.2108547319
5017 1 21.0963 28.1515 28.2801 10 14.6210773917 3.1847071309 0.3082315246
5018 1 22.895 29.9562 28.2534 12 11.2607371623 1.7742405795 1.8475704504
5019 1 22.8557 28.3305 30.015 11 11.6481156508 2.3447975404 0.6728854037
5020 1 21.1418 30.0533 29.9591 12 11.0170342171 1.7512262215 2.5625983622
5021 1 24.6216 28.2363 28.3793 10 13.6906401519 2.7895242851 0.307939666
5022 1 26.4729 29.9716 28.2617 12 10.9642905165 1.7478160843 2.5532344493
5023 1 26.4126 28.1881 30.0209 12 10.7136659036 1.7177690113 1.5724276969
5024 1 24.7587 30.0295 30.0985 12 11.0061861118 1.7475086284 2.6012129012
5025 1 28.2082 28.2524 28.2506 12 10.9343916159 1.7707110685 1.9127338058
5026 1 30.0271 29.8937 28.144 12 10.9130182334 1.746222132 4.3181346336
5027 1 30.0982 28.2239 30.0483 12 11.236443563 1.7926950574 3.2050300514
5028 1 28.3248 29.905 29.9623 12 11.0725588294 1.7474204607 3.6675209047
5029 1 31.792 28.3479 28.2581 12 10.8875141513 1.7380795093 4.4974409643
5030 1 33.5712 30.1049 28.3134 12 11.3746222859 1.790160046 6.9792566183
5031 1 33.5639 28.2737 29.9619 12 11.0757094913 1.7617925247 6.0453477462
5032 1 31.8032 29.9996 30.0629 12 11.0067085452 1.7620790419 5.6661831971
5033 1 35.4298 28.3079 28.3127 12 11.2417692952 1.7932462272 7.2865555933
5034 1 37.089 30.081 28.3967 12 11.0644314324 1.7619214717 9.6423491696
5035 1 37.2489 28.196 30.0768 12 11.0108811953 1.7777647698 9.2237396878
5036 1 35.3252 30.0673 30.0604 12 11.0945220355 1.7742115712 8.4743587556
5037 1 38.9231 28.2664 28.2746 12 11.040784581 1.7641524333 10.2587556271
5038 1 40.6851 29.9962 28.2568 12 10.9718468423 1.7839110102 12.5666678163
5039 1 40.6565 28.2946 30.0736 12 11.1745334428 1.784724484 12.2333303609
5040 1 38.907 29.988 30.0503 12 11.2333444926 1.7849833864 11.4254883892
5041 1 42.4184 31.8464 28.2474 12 11.1025967069 1.7531313102 14.9637487927
5042 1 1.89488 33.4904 28.2768 12 11.1422079574 1.7638008992 17.2331746699
5043 1 1.74511 31.8205 30.1252 12 11.0989949304 1.7515551475 16.7898495582
5044 1 0.00818357 33.5756 30.0446 12 11.0941931155 1.7806152145 16.2285083982
5045 1 3.58588 31.7577 28.2602 12 10.960260736 1.7821371947 14.8948586168
5046 1 5.36759 33.641 28.2822 12 11.523408875 1.7843504067 14.5524849638
5047 1 5.23564 31.8219 30.1791 12 11.3051395369 1.7843504067 13.9220902672
5048 1 3.51454 33.5784 30.07 12 11.3218121518 1.8001130099 16.2471781197
5049 1 7.17939 31.8181 28.2412 12 11.3518309773 1.7843504067 12.0077805582
5050 1 8.81792 33.6674 28.2595 12 11.2309943114 1.7560341461 11.9863372571
5051 1 8.85362 31.8878 30.1324 12 11.0115416128 1.7574289345 11.2013982777
5052 1 7.05673 33.5888 30.095 12 11.3104000022 1.773920053 13.6095818153
5053 1 10.5519 31.7339 28.3189 12 10.9661529844 1.7574289345 9.4703838693
5054 1 12.2386 33.4864 28.2788 12 11.0349884607 1.7759222033 9.5002892692
5055 1 12.3616 31.7859 30.1599 12 11.3532949028 1.7759222033 8.667652939
5056 1 10.5135 33.5975 30.0678 12 11.1511470187 1.7759222033 11.1307108238
5057 1 14.1428 31.8117 28.2971 12 10.8783287215 1.7514095049 7.0452344319
5058 1 15.7804 33.4959 28.3331 12 10.8834131811 1.762367926 7.3724218273
5059 1 15.8347 31.8193 30.095 12 10.7307377704 1.7393420649 6.4303930538
5060 1 14.0684 33.4861 30.0496 12 10.8290491451 1.7757298892 8.7054150228
5061 1 17.6212 31.894 28.2578 12 10.8170359808 1.7399130439 5.0709116054
5062 1 19.3523 33.5467 28.2507 12 10.9387542364 1.7872141244 5.82208425
5063 1 19.4304 31.9103 30.0073 12 10.9733255069 1.7512262215 4.7324173091
5064 1 17.5748 33.5732 30.1271 12 10.9447721135 1.73451638 7.0250244911
5065 1 21.1293 31.7939 28.1938 12 11.0487955147 1.7790335113 3.7471574537
5066 1 23.0115 33.567 28.2844 12 11.3082919242 1.7871420858 5.4063884669
5067 1 22.9247 31.8074 29.9235 12 11.117152825 1.7512262215 3.9729211174
5068 1 21.2919 33.5724 30.0674 12 11.1077911833 1.7872141244 5.7968203597
5069 1 24.7742 31.7236 28.2671 12 10.9913844415 1.748594156 3.6621063438
5070 1 26.5249 33.5193 28.256 12 11.1956832514 1.770331117 5.7768277042
5071 1 26.5345 31.8241 29.9845 12 11.1270412823 1.7675070843 4.6638385177
5072 1 24.6341 33.6969 29.9786 12 11.2963948903 1.770331117 5.8562360818
5073 1 28.2491 31.7312 28.2388 12 11.1201456275 1.7641415278 4.8239624726
5074 1 30.0078 33.5557 28.3172 12 10.7390492191 1.7543570755 7.2652366057
5075 1 29.9998 31.7511 30.0335 12 10.8781231278 1.7525406903 5.9994663718
5076 1 28.2718 33.6168 30.0684 12 11.0498814977 1.7694174868 6.935185157
5077 1 31.6489 31.7832 28.3516 12 10.935523442 1.7568220802 6.8166107476
5078 1 33.6312 33.5396 28.2576 12 11.3769033219 1.7572342669 9.4174737859
5079 1 33.5447 31.826 30.088 12 11.1089377936 1.7742115712 8.189488873
5080 1 31.8077 33.4453 30.0638 12 10.9821374867 1.7832389639 8.3649937201
5081 1 35.4701 31.8662 28.2416 12 11.2848572358 1.7742115712 9.5386261181
5082 1 37.2317 33.4913 28.2539 12 10.954252753 1.7553352912 11.9176603027
5083 1 37.1818 31.7946 30.1215 12 10.9046126968 1.7718100548 10.9757954898
5084 1 35.4858 33.5984 30.1823 12 11.2707568993 1.7742115712 10.8154457965
5085 1 38.9425 31.7349 28.246 12 11.1592374155 1.7605770331 12.0679600609
5086 1 40.7353 33.619 28.2843 12 10.9619973016 1.7553352912 14.6334705429
5087 1 40.7368 31.8701 30.0518 12 11.3319678263 1.7849833864 13.9005265354
5088 1 38.8672 33.5033 29.9937 12 10.8931720193 1.7605935919 13.3299828573
5089 1 0.178185 35.2682 28.1845 12 11.0611504219 1.7348870998 17.1145905304
5090 1 1.87133 37.1059 28.3473 12 11.0530359307 1.7505778306 19.4458071828
5091 1 1.74637 35.293 30.1294 12 11.2586386701 1.8004001778 18.6184457165
5092 1 42.392 37.0377 29.9304 12 11.29418936 1.75267515 18.276432268
5093 1 3.59133 35.3508 28.2498 12 11.3490406606 1.8004001778 16.996550188
5094 1 5.28605 37.1688 28.2706 12 11.1145843247 1.7680938147 16.9086525503
5095 1 5.344 35.4424 30.1507 12 11.3582822279 1.8002438004 16.0837806513
5096 1 3.52198 37.2039 30.0157 12 11.2358267073 1.8004001778 18.5376001202
5097 1 7.13019 35.5294 28.3011 12 11.2146224943 1.7680938147 14.4610359506
5098 1 8.85967 37.1797 28.3251 12 10.9814074208 1.7613040978 14.4441547198
5099 1 8.83111 35.3621 30.0236 12 11.0286801502 1.7714382569 13.4644354606
5100 1 7.10935 37.2011 30.1137 12 10.8130214426 1.7465003186 15.9288303111
5101 1 10.6477 35.2909 28.2108 12 11.1523086066 1.7714382569 11.8596887897
5102 1 12.4307 37.1105 28.2394 12 10.9750562887 1.7599208373 12.2048728257
5103 1 12.3633 35.3308 30.1006 12 11.2251484318 1.7759222033 11.1624686429
5104 1 10.6327 37.2142 30.0405 12 11.0436892023 1.7714382569 13.6635810545
5105 1 14.1027 35.291 28.2322 12 10.9547450647 1.746149994 9.7618180743
5106 1 15.8533 37.1132 28.3551 12 11.1448872281 1.754637109 10.3458562392
5107 1 15.7644 35.3066 30.0249 12 10.8938180448 1.754637109 9.3016102249
5108 1 14.133 37.0973 30.035 12 11.1844391538 1.7842891216 11.5769080722
5109 1 17.5666 35.3238 28.3935 12 11.1277257677 1.748534824 8.0748464749
5110 1 19.2597 37.0394 28.1812 12 11.2420380428 1.7684662105 9.2136150123
5111 1 19.5738 35.2055 30.0076 12 11.283374841 1.7738529722 7.6253918093
5112 1 17.7234 36.9977 30.0162 12 11.3417933579 1.754637109 9.8808046212
5113 1 21.2425 35.5037 28.2129 12 11.4459623317 1.7872141244 7.3860572066
5114 1 22.9038 37.1708 28.237 12 10.944283382 1.7566549156 8.9493337807
5115 1 22.9197 35.5161 30.0806 12 11.1826870264 1.7558009206 7.6439840742
5116 1 21.0861 37.0827 30.0419 12 11.2014385162 1.7354350229 9.2168515363
5117 1 24.6536 35.4857 28.2684 12 11.3931527335 1.7614001077 7.3545610591
5118 1 26.5227 37.058 28.3325 12 11.0254835154 1.7802798529 9.2019605244
5119 1 26.423 35.4142 30.0491 12 11.3295329653 1.770331117 7.8421097601
5120 1 24.7363 37.2113 30.0986 12 10.7749894947 1.7557292685 9.3032830717
5121 1 28.3182 35.3352 28.2364 12 10.9670272332 1.7575757132 8.035822966
5122 1 30.022 37.1807 28.3957 12 11.247838354 1.7515195711 10.3947475898
5123 1 30.0607 35.342 29.9198 12 11.1831945124 1.783211382 9.1389807637
5124 1 28.3239 37.181 30.1874 12 11.0636714598 1.7575757132 10.136892961
5125 1 31.8391 35.3158 28.2056 12 11.1576847176 1.7832389639 9.7250889824
5126 1 33.6524 37.0647 28.1857 12 10.744363005 1.7446112986 12.2032068301
5127 1 33.6296 35.2933 29.9742 12 11.5072351203 1.7832389639 10.9004936254
5128 1 31.9793 37.205 30.0427 12 11.2304241134 1.7794003089 11.6345396147
5129 1 35.4789 35.3275 28.2281 12 11.1482699811 1.771444793 11.9618226893
5130 1 37.2014 36.9852 28.3042 12 10.8640374493 1.7672092159 14.3375527358
5131 1 37.1477 35.3095 30.0606 12 10.9243526678 1.7657346375 13.1999078059
5132 1 35.3679 37.1638 29.9722 12 11.2140799665 1.765763022 13.4320327412
5133 1 38.8287 35.2778 28.2563 12 11.0514214369 1.7542781983 14.273638527
5134 1 40.6588 37.0497 28.217 12 11.2877336809 1.781887395 16.7971066244
5135 1 40.6488 35.3232 29.9998 12 11.1629902369 1.7475043086 15.8490164954
5136 1 38.9061 37.1201 30.0232 12 11.1192677629 1.7648953279 15.7236940379
5137 1 0.029285 38.9082 28.2274 12 11.2677090441 1.781887395 19.3776631148
5138 1 1.7341 40.6934 28.2199 12 10.7694044501 1.7427056875 21.8298880627
5139 1 1.75659 38.8212 30.023 12 10.9783738281 1.7511873859 20.807779819
5140 1 0.0332153 40.5363 30.0579 12 10.9176909982 1.7513639864 20.6654457503
5141 1 3.55152 38.9974 28.2649 12 10.7483085992 1.7409136257 19.4068623283
5142 1 5.30734 40.6361 28.3193 12 11.0294608877 1.7677346798 19.3471159891
5143 1 5.43716 38.9344 30.0577 12 11.0510273676 1.7438085652 18.2713939527
5144 1 3.47782 40.6612 29.9217 12 10.8958681085 1.7438085652 20.8098373531
5145 1 7.10417 38.9218 28.2207 12 11.0555473955 1.7689357624 16.8783184979
5146 1 8.96186 40.7132 28.2363 12 11.2332126837 1.7689357624 17.1654752878
5147 1 8.84055 38.9837 30.026 12 11.0895082189 1.7398427094 16.1242848234
5148 1 7.10235 40.7444 30.0711 12 11.0512927282 1.7683998762 18.5554152897
5149 1 10.7287 38.8072 28.2925 12 11.1790459308 1.7674376346 14.5885825605
5150 1 12.3408 40.708 28.2942 12 11.0985431179 1.7486961565 15.1395391763
5151 1 12.3461 38.9256 30.232 12 11.1765913532 1.7842891216 14.0516660296
5152 1 10.5804 40.5932 30.1251 12 11.2918571016 1.7707376353 16.3514356984
5153 1 14.0433 38.8927 28.2922 12 10.9608632684 1.7842891216 12.7266725862
5154 1 15.8741 40.5478 28.2175 12 11.0143546889 1.7550921629 13.4450370812
5155 1 15.9065 38.9154 30.0397 12 11.2480924061 1.7842891216 12.2992127782
5156 1 14.0715 40.6893 30.0051 12 11.0122594048 1.7839157362 14.6045874885
5157 1 17.665 38.894 28.2246 12 11.0623883597 1.7423200347 11.3627488897
5158 1 19.3485 40.5459 28.3481 12 11.0159093035 1.7614969377 12.6557842996
5159 1 19.2612 38.8212 30.0985 12 11.0238554398 1.7334925974 11.1654924129
5160 1 17.6028 40.6694 30.1063 12 10.9500771665 1.7435487068 13.3489857569
5161 1 21.1182 38.829 28.319 12 11.0954166673 1.7584903613 10.6933016598
5162 1 22.8603 40.474 28.4142 12 11.2092577948 1.781857299 12.2337784632
5163 1 22.9915 38.8188 30.1626 12 11.187614022 1.765410756 10.9028815682
5164 1 21.0078 40.5222 30.1691 12 11.4653163615 1.765410756 12.6286900606
5165 1 24.7804 38.8315 28.2627 12 10.9663878294 1.7705966111 10.6757688818
5166 1 26.4752 40.6999 28.2371 12 11.1068569838 1.772248565 12.767437705
5167 1 26.4785 38.7954 29.9878 12 10.9016520797 1.7614640573 11.0676229408
5168 1 24.6636 40.4867 30.0479 12 11.2048712894 1.7564530188 12.5206611448
5169 1 28.2006 38.7961 28.2462 12 11.1895857291 1.7725544993 11.2464997049
5170 1 30.0569 40.5732 28.2749 12 11.454784449 1.7918738095 13.4740030004
5171 1 30.0154 38.9519 30.0781 12 11.2719376122 1.7573392758 12.345473127
5172 1 28.0759 40.6373 30.0454 12 11.1836447578 1.7712916663 13.2350351741
5173 1 31.9397 38.828 28.2092 12 11.1005918649 1.7952594894 12.6974093403
5174 1 33.7154 40.5174 28.2746 12 11.4395500068 1.7952594894 15.0600826092
5175 1 33.6374 38.8484 29.9728 12 10.8855925779 1.7751777813 13.8442409219
5176 1 31.8525 40.6825 30.0965 12 11.3444063002 1.7952594894 14.618759559
5177 1 35.4014 38.7534 28.3592 12 10.9771241626 1.7566890795 14.6144934211
5178 1 37.1825 40.6096 28.3542 12 11.3061807459 1.7637646639 17.1735612988
5179 1 37.252 38.7516 30.0771 12 11.0727909948 1.7637646639 15.847164448
5180 1 35.3877 40.6365 30.1549 12 11.4405852918 1.7705713435 16.2902652232
5181 1 38.9056 38.8461 28.2261 12 11.0769727001 1.7816573996 16.8389735994
5182 1 40.5967 40.6355 28.2133 12 10.9649217768 1.7811402576 19.2865389212
5183 1 40.6642 38.9665 30.0084 12 11.1201474656 1.781887395 18.2727348756
5184 1 38.9149 40.5917 30.0969 12 10.8947575889 1.7637646639 18.32168067
5185 1 -0.0192286 42.3771 31.8737 12 11.3556661321 1.7475261856 20.7806561732
5186 1 1.85761 1.60226 31.8579 12 11.2426126213 1.7490873069 21.0834743017
5187 1 1.75809 0.0123316 33.6628 12 10.889821628 1.7457916941 22.3587170053
5188 1 42.4505 1.72704 33.7563 12 11.1369222294 1.7894183389 20.0109922821
5189 1 3.55065 42.3495 31.7613 12 11.0099876631 1.7533698849 21.7128293971
5190 1 5.30969 1.71157 31.8172 12 11.2399962986 1.7533698849 19.3040222049
5191 1 5.23366 -0.0155815 33.6876 12 11.0135890419 1.7533698849 21.1788503905
5192 1 3.5672 1.68807 33.6403 12 11.2255307613 1.747070993 20.9937141404
5193 1 7.04488 42.3614 31.8368 12 11.0205923437 1.753359922 19.6775111193
5194 1 8.75416 1.758 31.8727 12 11.4555576958 1.7760996555 17.2978142351
5195 1 8.65176 7.12449e-04 33.6485 12 11.0471427981 1.7548126651 19.2339711904
5196 1 6.94217 1.7999 33.65 12 11.035512335 1.7548126651 18.7294507837
5197 1 10.645 -0.00796443 31.8749 12 11.3864069294 1.775786397 17.7966842276
5198 1 12.3038 1.79019 31.8628 12 11.1002810022 1.7760996555 15.4907067646
5199 1 12.332 0.0769108 33.6321 12 10.9181527827 1.7685526578 17.4564417537
5200 1 10.4827 1.76554 33.698 12 11.1588434475 1.7760996555 16.8583199277
5201 1 13.9182 0.0483222 31.8491 12 10.8840559894 1.7725334641 16.3325914346
5202 1 15.8638 1.68139 31.8202 12 11.0194647765 1.7724249677 14.2228738023
5203 1 15.7754 42.4304 33.4772 12 10.8864400588 1.7663253558 16.291037736
5204 1 14.1358 1.83536 33.6392 12 11.0298886613 1.7728161255 15.2642771602
5205 1 17.6054 -0.0216696 31.8581 12 10.8351628545 1.7625701583 15.2908943282
5206 1 19.3391 1.68415 31.7885 12 11.0807954726 1.7701305731 13.2694484827
5207 1 19.3917 42.3408 33.752 12 11.1852290054 1.7701305731 15.4222547673
5208 1 17.5435 1.59937 33.6276 12 11.0271575668 1.7701305731 14.3374035454
5209 1 21.1732 42.3785 31.9761 12 11.2761521406 1.7641326409 14.6807344743
5210 1 22.7561 1.69473 31.7921 12 10.953287627 1.7545178573 12.7233088056
5211 1 22.9565 -0.0122241 33.6166 12 11.3821652708 1.7545178573 14.7618021855
5212 1 21.0758 1.74736 33.6656 12 11.0676905614 1.7701305731 13.2855158693
5213 1 24.7004 42.3675 31.7191 12 11.1445956157 1.7514608651 14.3650884364
5214 1 26.4118 1.73565 31.7786 12 10.9742543489 1.7596411972 12.6119772859
5215 1 26.4376 -0.024018 33.4245 12 11.1053704073 1.7527778375 14.6771524746
5216 1 24.6736 1.79189 33.5562 12 11.130619557 1.762658229 12.9497411449
5217 1 28.261 42.367 31.8394 12 11.162661579 1.7494730243 14.5631367669
5218 1 30.1349 1.79788 31.8752 12 10.8772481577 1.7494730243 13.145015136
5219 1 30.1676 0.0169752 33.6048 12 11.3842497538 1.7989457082 15.206117034
5220 1 28.4001 1.61289 33.4444 12 10.9891573903 1.7437015987 13.2837152044
5221 1 31.8767 0.0027065 31.7796 12 11.0876508832 1.7490333983 15.2709631561
5222 1 33.6253 1.79469 31.735 12 10.8791416924 1.7490333983 14.2047876436
5223 1 33.5638 -0.00963141 33.5632 12 10.9653228711 1.7301288761 16.2796898392
5224 1 31.9829 1.82269 33.5075 12 10.9713416016 1.7476864111 14.0992191945
5225 1 35.2985 0.113644 31.9201 12 11.1556042427 1.7588126693 16.4365671972
5226 1 37.1414 1.75993 31.7519 12 10.9334473284 1.7482119147 15.9886667693
5227 1 37.1778 0.006395 33.4832 12 11.3256356914 1.7542634774 17.8329045118
5228 1 35.4112 1.89779 33.5553 12 11.1482077498 1.7412767014 15.4356599033
5229 1 38.9319 42.3939 31.8297 12 11.01293185 1.7482119147 18.4795944432
5230 1 40.634 1.70413 31.7579 12 11.1599776023 1.7894183389 18.2780370115
5231 1 40.571 42.3077 33.5217 12 11.1475852447 1.7894183389 19.9317947178
5232 1 38.8666 1.89416 33.5596 12 10.9188927992 1.7888219002 17.3922116387
5233 1 0.0970732 3.35975 31.9264 12 11.3823431797 1.7383164746 18.6672762298
5234 1 1.70527 5.19793 31.8827 12 10.953538191 1.7758717803 18.7654597114
5235 1 1.84462 3.55822 33.6926 12 11.1557414902 1.779889543 20.3159850955
5236 1 -0.00665325 5.3721 33.6355 12 11.2019023403 1.7798148719 17.8130026109
5237 1 3.42138 3.49835 31.8196 12 11.2459912611 1.7527620603 19.3689849068
5238 1 5.16376 5.28438 31.841 12 11.166296008 1.7982946086 17.0044543895
5239 1 5.3071 3.60489 33.5037 12 11.0717220315 1.7527620603 18.4227162739
5240 1 3.54519 5.20051 33.7137 12 11.2190771578 1.779889543 18.7252981774
5241 1 7.0074 3.53772 31.7837 12 11.0360684485 1.7669123792 16.9229135977
5242 1 8.7268 5.40143 31.8684 12 10.7560418766 1.7670797537 14.5564527078
5243 1 8.66615 3.54064 33.5766 12 10.9616355757 1.7670797537 16.3358080432
5244 1 6.97932 5.29219 33.6606 12 10.7930225084 1.7440285398 16.125105105
5245 1 10.5421 3.58426 31.877 12 11.1057953434 1.7760996555 14.8806041506
5246 1 12.2855 5.34691 31.9173 12 10.8685804124 1.7625241789 12.5487691166
5247 1 12.1908 3.56101 33.5801 12 11.0960436163 1.759802 14.518233144
5248 1 10.5108 5.40381 33.4817 12 10.8158111588 1.7686057011 13.792567372
5249 1 14.1574 3.61318 31.8845 12 11.3410674182 1.7728161255 13.139958782
5250 1 15.968 5.36009 31.8325 12 11.0161463294 1.7626874521 10.9435850773
5251 1 15.917 3.46896 33.6034 12 11.0613035773 1.7677011716 13.2256785784
5252 1 14.2025 5.29146 33.569 12 11.0956768551 1.7473268584 12.2099727554
5253 1 17.6978 3.47715 31.759 12 11.0012413041 1.7547330686 12.0103557591
5254 1 19.3719 5.15417 31.8016 12 10.8532264465 1.756360804 10.0142553408
5255 1 19.3256 3.44396 33.5692 12 10.8637797258 1.7700082513 12.1251554263
5256 1 17.6392 5.16927 33.5888 12 11.1550682147 1.7735939821 11.2051703318
5257 1 21.1006 3.39579 31.7727 12 10.6678330097 1.7486009914 11.2917566294
5258 1 22.8275 5.14276 31.6994 12 10.759625988 1.7530157984 9.3333898949
5259 1 22.854 3.49025 33.5512 12 10.9410432194 1.7545178573 11.3704880451
5260 1 21.0275 5.09688 33.5151 12 10.9765749541 1.7513982119 10.1297434538
5261 1 24.549 3.5409 31.8269 12 10.8189981869 1.7499341871 10.8662148969
5262 1 26.4637 5.16488 31.7225 12 11.0401012035 1.7646230146 9.2368828373
5263 1 26.5272 3.43382 33.4484 12 10.9973066877 1.7562975097 11.3555265392
5264 1 24.7489 5.28577 33.4504 12 11.2251625346 1.7548308658 9.5158481134
5265 1 28.2782 3.41598 31.8045 12 10.7642147002 1.7628610468 11.1577859053
5266 1 30.0602 5.24293 31.7936 12 10.7249061336 1.7304993163 9.8934688319
5267 1 30.0982 3.53595 33.5214 12 10.9392785274 1.7302937187 11.9446399724
5268 1 28.2635 5.23906 33.4512 12 11.0509433031 1.7591087649 9.8920354548
5269 1 31.8979 3.53183 31.7684 12 11.0306119602 1.7655572859 12.0190879394
5270 1 33.6894 5.25001 31.6771 12 11.202817411 1.7522436795 11.2819567995
5271 1 33.685 3.57881 33.5699 12 10.758731482 1.7374125329 13.2770157003
5272 1 31.9097 5.16013 33.5334 12 10.9740294833 1.739203374 11.236062916
5273 1 35.2934 3.51919 31.7156 12 10.8794534195 1.7520985342 13.5390403573
5274 1 37.186 5.29249 31.7673 12 11.0035482505 1.7574970244 13.4188181016
5275 1 37.1981 3.59991 33.4545 12 10.7233432313 1.7506831947 15.0961711237
5276 1 35.4865 5.20334 33.5761 12 11.0375271429 1.7522436795 12.9687254416
5277 1 38.9739 3.46961 31.7384 12 10.8689971346 1.7574970244 15.898554277
5278 1 40.697 5.31617 31.7872 12 11.1523508939 1.7600208996 16.0484556411
5279 1 40.7785 3.48548 33.5233 12 10.9919178162 1.7878509056 17.6272483651
5280 1 38.9751 5.215 33.5587 12 11.0596667458 1.7574970244 15.2691943535
5281 1 42.43 7.07003 31.7661 12 10.7539548145 1.7412775433 16.2826848224
5282 1 1.73022 8.83761 31.7299 12 10.7969814383 1.7632270848 16.7633187561
5283 1 1.63576 7.1026 33.6378 12 11.400192843 1.779889543 18.0342869862
5284 1 42.3418 8.84478 33.4711 12 10.9527609409 1.7608556013 15.6917664047
5285 1 3.31135 7.09156 31.8862 12 11.3814043367 1.7982946086 17.3443152498
5286 1 5.27075 8.87253 31.8289 12 11.0857043251 1.7982946086 14.7923191288
5287 1 5.19587 7.06234 33.656 12 11.4352447763 1.7982946086 16.3257980437
5288 1 3.52238 8.99735 33.5189 12 11.153313538 1.7632270848 16.5960990218
5289 1 6.93729 6.99234 31.8343 12 11.1966106846 1.7965954097 14.6629312712
5290 1 8.79568 8.81284 31.7132 12 10.9624492243 1.7610601983 12.1241808529
5291 1 8.80625 7.09776 33.4811 12 10.7719787396 1.7483851712 13.5837480124
5292 1 7.15371 8.94537 33.5371 12 11.0147417724 1.7605533698 13.6843640466
5293 1 10.5438 7.04572 31.7658 12 10.7506401079 1.7455263327 12.157783272
5294 1 12.2337 8.88579 31.8668 12 11.2907314037 1.7627279452 9.7100215597
5295 1 12.3941 7.1659 33.6116 12 11.1517515622 1.7516978443 11.4145460685
5296 1 10.5101 8.85496 33.5936 12 10.9119272974 1.7418325454 11.2593169318
5297 1 14.0963 6.89319 31.8033 12 10.9560318057 1.7579725999 10.3334448836
5298 1 15.786 8.86081 31.7948 12 11.0696305171 1.760652692 7.9312820338
5299 1 15.8689 7.11992 33.6351 12 11.2306288315 1.7696338924 10.1137354693
5300 1 14.0494 8.87188 33.5795 12 11.2991790125 1.7817279473 9.2303530243
5301 1 17.6393 7.02848 31.8 12 11.1346525315 1.7696338924 8.9016584744
5302 1 19.4257 8.82819 31.7751 12 11.3176640282 1.7773370005 6.7581756217
5303 1 19.4052 6.96661 33.5346 12 11.3172110851 1.7695723063 9.0253930041
5304 1 17.6427 8.78753 33.5071 12 11.2040270969 1.766017339 8.0673908849
5305 1 21.143 7.01745 31.7555 12 11.2633967443 1.7750645018 7.8215040722
5306 1 22.9817 8.82093 31.7468 12 10.8922642653 1.7773737246 5.7550782646
5307 1 22.8888 6.98363 33.4242 12 11.4774553142 1.7858662754 8.0308207197
5308 1 21.1358 8.76467 33.5289 12 11.1117388268 1.7773737246 6.9162544696
5309 1 24.6892 6.95982 31.7742 12 11.0861077945 1.7649678247 7.5196579195
5310 1 26.5354 8.75851 31.7408 12 11.1714485777 1.7611295572 5.7794084514
5311 1 26.553 7.11046 33.4576 12 11.2475699241 1.7646230146 7.8939673777
5312 1 24.7143 8.74472 33.5336 12 11.0954640081 1.7527026963 6.2295650405
5313 1 28.3168 6.97161 31.5888 12 10.9050958293 1.7646230146 7.7360173163
5314 1 29.9714 8.61767 31.809 12 11.2232590854 1.7777328001 6.9174245929
5315 1 30.0474 6.85294 33.5424 12 11.1821366686 1.7782394615 9.0966988833
5316 1 28.2874 8.79827 33.622 12 10.9516781782 1.7782394615 6.924579746
5317 1 31.879 6.96278 31.8311 12 11.111965161 1.7450233782 9.0682600813
5318 1 33.6013 8.77305 31.8853 12 11.0365301702 1.7434860937 8.7128238536
5319 1 33.6369 7.03705 33.5209 12 11.1222932969 1.7577012337 10.6136646112
5320 1 31.8298 8.74541 33.5262 12 11.3582608317 1.7782394615 8.5264879408
5321 1 35.3285 7.03893 31.8734 12 11.068088777 1.7522436795 10.9999220914
5322 1 37.0831 8.79234 31.7623 12 10.9448052631 1.7484958285 11.2545120428
5323 1 37.1322 7.10842 33.5903 12 11.1782258948 1.751653561 12.8310360515
5324 1 35.3986 8.95685 33.625 12 11.1338989861 1.7434860937 10.5244916657
5325 1 38.7679 7.06679 31.7448 12 11.1008115075 1.7558838621 13.5240571973
5326 1 40.5771 8.80168 31.7975 12 10.8996383297 1.7484958285 13.8347736853
5327 1 40.5747 7.11406 33.4807 12 11.2591783006 1.7464066671 15.3377204299
5328 1 38.843 8.97533 33.5658 12 11.3845611459 1.7714827836 12.9919309672
5329 1 0.0353566 10.5683 31.7314 12 10.902126079 1.750720722 14.5166294576
5330 1 1.79895 12.3819 31.6952 12 11.059444304 1.750720722 15.4686304012
5331 1 1.70055 10.6136 33.6041 12 11.0007274342 1.7632270848 16.4731705237
5332 1 0.0952724 12.3535 33.6383 12 10.9042337546 1.7663021641 14.4569354278
5333 1 3.5228 10.5995 31.7645 12 10.8194496124 1.7514404278 15.2879972949
5334 1 5.2289 12.4023 31.7827 12 10.9143311885 1.7696587045 13.0914997085
5335 1 5.24472 10.6272 33.4856 12 10.7758676091 1.734183975 14.3871003392
5336 1 3.49709 12.2723 33.5923 12 10.9734174287 1.7528633539 15.2632311872
5337 1 7.01019 10.5579 31.7659 12 10.9748709793 1.7696587045 12.4734312331
5338 1 8.75554 12.4991 31.8188 12 11.1293176104 1.7696587045 10.0880688487
5339 1 8.83433 10.5665 33.5748 12 10.9864886718 1.7684360094 11.4841121379
5340 1 6.95751 12.3389 33.6322 12 11.1230944813 1.7696587045 12.2723207668
5341 1 10.4541 10.5807 31.8079 12 10.9828460534 1.7483927367 9.7675851719
5342 1 12.2829 12.3772 31.807 12 11.0073489387 1.7493576208 7.2794245974
5343 1 12.2882 10.6455 33.6197 12 11.1989591017 1.7522648727 8.8980200338
5344 1 10.5195 12.448 33.4735 12 10.9201675643 1.7679188321 9.1797255437
5345 1 14.0956 10.6398 31.7706 12 11.0912928331 1.7607399323 7.2232529417
5346 1 15.7728 12.3796 31.7775 12 11.06112739 1.7607399323 4.9429037618
5347 1 15.9098 10.6583 33.6183 12 11.0547500846 1.7607399323 7.0721514734
5348 1 14.091 12.3744 33.5487 12 11.0367995551 1.7600340109 6.6293058886
5349 1 17.6087 10.509 31.7667 12 11.1781976087 1.7607399323 5.8920010678
5350 1 19.525 12.436 31.8829 12 10.9921909744 1.7449018557 3.6773505032
5351 1 19.4886 10.6607 33.5047 12 11.1364843341 1.7519170892 5.8977986669
5352 1 17.5548 12.4128 33.4397 13 11.2897386864 1.7815159213 5.1434161121
5353 1 21.2263 10.6287 31.7866 12 11.1359584498 1.7773737246 4.5865071017
5354 1 23.0035 12.3985 31.724 12 10.8386932384 1.7449059595 2.5021971479
5355 1 22.9137 10.4767 33.3719 12 10.9134951333 1.7527026963 4.9249547676
5356 1 21.2957 12.4653 33.5953 12 10.9444235491 1.7407318249 4.1008623595
5357 1 24.7093 10.6265 31.8025 12 10.981217625 1.7605948019 3.9458552033
5358 1 26.5356 12.2781 31.7914 12 11.3247690562 1.7680927569 2.6425812251
5359 1 26.5618 10.5856 33.5526 12 11.1655018234 1.7661377879 4.8809419251
5360 1 24.6887 12.3522 33.4707 12 10.863614497 1.7639046237 3.1093797438
5361 1 28.3687 10.3843 31.8243 12 11.0488666884 1.7611295572 4.830420003
5362 1 30.0069 12.2573 31.6716 12 11.0830807756 1.7874508132 4.2440850346
5363 1 30.0135 10.5602 33.5897 12 10.9292785263 1.7726667555 6.4338445358
5364 1 28.3918 12.301 33.5847 12 11.3910773246 1.7680927569 4.4740757653
5365 1 31.6433 10.5233 31.7811 12 11.2865592559 1.7746513787 6.3213250157
5366 1 33.5479 12.329 31.7631 12 11.3019786617 1.7783898331 6.5204061446
5367 1 33.4882 10.7014 33.5911 12 11.4425278808 1.7466790152 8.1768868356
5368 1 31.6693 12.4226 33.4352 12 11.2773718932 1.7678481505 5.9618775116
5369 1 35.3562 10.5554 31.8035 12 11.1526295551 1.7806496083 8.9310873147
5370 1 37.1678 12.2935 31.825 12 11.0682469492 1.7806496083 9.291897052
5371 1 37.0929 10.6805 33.5989 12 10.9493163841 1.7476687464 10.7622211413
5372 1 35.3264 12.5028 33.5576 12 11.1721894152 1.7806496083 8.4869166944
5373 1 38.7913 10.5631 31.7641 12 10.9315169433 1.7501206796 11.4425614201
5374 1 40.6626 12.1802 31.7951 12 11.1371230889 1.7663021641 12.2876965838
5375 1 40.7393 10.5656 33.5771 12 11.0532496114 1.7653584496 13.616636967
5376 1 38.9179 12.3995 33.5563 12 11.0213797093 1.7655632802 11.307521807
5377 1 -0.0285214 13.9915 31.8725 12 11.0829039887 1.7540240132 13.3937590531
5378 1 1.73447 15.8062 31.8703 12 11.1834425202 1.7676316469 14.7974823626
5379 1 1.77063 13.9972 33.5353 12 10.8245147289 1.7272744584 15.4946082908
5380 1 42.383 15.7872 33.5788 12 10.7396786326 1.7608408153 13.4506210902
5381 1 3.59882 14.1743 31.7822 12 11.0339887935 1.7593465755 13.9612545247
5382 1 5.1805 16.0245 31.7195 12 10.8203609869 1.7585051276 12.019214067
5383 1 5.21508 14.093 33.614 12 10.9151489574 1.7585051276 13.2116054414
5384 1 3.45472 15.8659 33.5205 12 10.782209325 1.7677851681 14.255043483
5385 1 6.9526 14.1343 31.9322 12 11.1345987233 1.7671667224 11.0457135804
5386 1 8.76117 15.8845 31.8346 12 11.0173863087 1.7770494732 8.9139136417
5387 1 8.64123 14.1826 33.644 12 10.8705565245 1.7669437896 10.1846077027
5388 1 6.96078 15.9648 33.6137 12 10.857118152 1.7585051276 11.1966380001
5389 1 10.5681 14.1743 31.8704 12 11.1753187118 1.7925290326 7.8599906919
5390 1 12.3073 16.0477 31.7427 12 11.2573549462 1.7931908166 5.7036702502
5391 1 12.3087 14.1104 33.5777 12 11.1469583741 1.7931165165 7.0887828522
5392 1 10.5008 15.9048 33.6378 12 11.1408196329 1.7931908166 8.0759627751
5393 1 14.0115 14.2195 31.7188 12 11.2187558258 1.7509839464 4.9012107014
5394 1 15.9454 16.034 31.7282 12 11.0911044202 1.7789776295 2.5835547615
5395 1 15.7885 14.1267 33.5248 12 10.9430173742 1.7547992258 4.6786114535
5396 1 14.0823 15.9103 33.4574 12 10.9615972416 1.7931908166 4.9211369725
5397 1 17.7064 14.205 31.857 12 10.8448193447 1.7481355518 2.8033142139
5398 1 19.4733 16.1131 31.6966 11 12.4064530489 2.4716823336 0.8026675744
5399 1 19.4039 14.2467 33.4895 12 11.3948912042 1.800061344 3.3416593396
5400 1 17.5942 15.8909 33.5293 12 11.1816529834 1.7951784567 3.0135088829
5401 1 21.2708 14.1082 31.8512 12 11.0263082687 1.7716604249 1.8081485864
5402 1 23.0051 15.8579 31.7436 10 14.0296222275 2.9958148028 0.0753375021
5403 1 23.0463 14.1004 33.5634 12 10.6234096928 1.7325159983 2.4794212773
5404 1 21.2434 15.8461 33.4709 12 11.0474037989 1.7425639048 1.8876074702
5405 1 24.7481 14.1365 31.802 11 11.4505712619 2.2858626045 0.675283819
5406 1 26.4263 15.9119 31.7439 10 14.0806261346 3.0462564997 0.2478692108
5407 1 26.4192 14.1521 33.6364 12 11.3283914951 1.7680927569 2.5608839567
5408 1 24.6993 15.8875 33.609 12 10.7169363812 1.7344018727 1.7310824855
5409 1 28.2221 14.1806 31.7752 12 11.6618786094 1.7874508132 2.1303330591
5410 1 30.0455 15.8567 31.7145 12 11.1425103236 1.7857360267 2.3545268564
5411 1 30.0921 14.1957 33.5246 12 10.9362774325 1.7873041858 4.266370254
5412 1 28.2767 15.8508 33.5185 12 11.1908524998 1.7749329927 2.584243352
5413 1 31.7871 14.1609 31.7713 12 11.1212823174 1.7874508132 4.2284266543
5414 1 33.6032 15.9526 31.7739 12 11.4264513844 1.7689885913 4.7810299774
5415 1 33.6228 14.1508 33.6438 12 11.3874309816 1.7660208936 6.5502352288
5416 1 31.8437 15.9275 33.5538 12 11.4219514313 1.7753633763 4.7750552562
5417 1 35.2275 14.1082 31.7303 12 11.2473215478 1.7806496083 6.8624643744
5418 1 37.0501 15.7912 31.6926 12 11.2807685258 1.7757117672 7.8826713923
5419 1 37.2019 14.17 33.6081 12 11.0820115222 1.7636437778 9.1883026351
5420 1 35.4459 16.0239 33.4967 12 11.0979395272 1.7659523834 7.1452445146
5421 1 38.81 14.0559 31.7508 12 11.0112652812 1.7757117672 9.9919786269
5422 1 40.6249 15.7804 31.8471 12 10.8485104674 1.7754448291 11.3350994576
5423 1 40.5613 14.1308 33.4784 12 10.8138856111 1.7663021641 12.0683729274
5424 1 38.8514 15.8721 33.5981 12 10.8952309149 1.7757117672 10.1669717915
5425 1 42.3743 17.582 31.7172 12 10.9879995566 1.7608408153 12.8335955536
5426 1 1.78027 19.4376 31.7727 12 11.1019616071 1.7674574612 14.5983108824
5427 1 1.76427 17.6683 33.5001 12 10.9325900803 1.7608408153 15.0624982614
5428 1 42.3696 19.3304 33.4492 12 11.0466826352 1.7600429244 13.3527889805
5429 1 3.48775 17.5686 31.7999 12 10.9620902045 1.7674574612 13.2493918472
5430 1 5.30898 19.4231 31.7647 12 11.1555799858 1.7675596688 11.2917641717
5431 1 5.28036 17.6753 33.573 12 10.9152422561 1.7695493664 12.2287807406
5432 1 3.43407 19.454 33.5158 12 11.2489212637 1.7695493664 13.5904349343
5433 1 6.93589 17.5944 31.7913 12 10.8943704839 1.7577330331 10.0640984699
5434 1 8.77508 19.3933 31.6903 12 11.2596914482 1.7840086379 8.0113263846
5435 1 8.78126 17.607 33.5461 12 11.1219170755 1.7840086379 9.1640698364
5436 1 6.96278 19.4381 33.6781 12 11.2514206196 1.7840086379 10.3907129845
5437 1 10.4721 17.7269 31.8526 12 10.9358992575 1.7770499687 6.9524034645
5438 1 12.2823 19.4722 31.8172 12 10.9362480477 1.7350617176 4.9232265034
5439 1 12.3061 17.7168 33.6282 12 11.0329388862 1.7931908166 6.0874234708
5440 1 10.5247 19.458 33.4726 12 11.1511021925 1.7839014115 7.2022528617
5441 1 14.057 17.6517 31.8147 12 11.0474665025 1.7361434109 3.7936771218
5442 1 15.747 19.4363 31.7625 12 10.952756091 1.7381054728 1.9645710421
5443 1 15.86 17.6653 33.5952 12 10.7947862882 1.7928414391 3.357785492
5444 1 14.0907 19.4235 33.5305 12 10.9085554369 1.7805745714 4.3713238053
5445 1 17.5731 17.7815 31.7279 11 12.0834593992 2.3716369385 0.8305985099
5446 1 19.3621 19.5228 31.7679 8 27.1085073531 5.9392365943 0.4881942886
5447 1 19.4918 17.6379 33.534 12 11.0323528502 1.7951784567 1.6929125574
5448 1 17.565 19.4716 33.496 12 11.0349379594 1.7951784567 1.9449455498
5449 1 21.1852 17.7784 31.8563 8 26.9352584523 6.1840407354 0.3906752949
5450 1 37.0489 31.7887 40.6766 12 11.2864436832 1.777654749 15.1962442137
5451 1 22.9146 17.7116 33.404 11 12.0997484506 2.5365314194 0.6945945313
5452 1 21.0871 19.4271 33.5769 10 12.6843559089 2.7489819676 0.2526662258
5453 1 24.7868 17.6295 31.8015 7 35.7222758989 6.1667130429 0.6186130647
5454 1 26.4434 19.4549 31.7806 8 27.2605791313 6.3882002595 0.4813769152
5455 1 26.5002 17.5898 33.5527 12 10.8318446896 1.7330531147 1.5560230355
5456 1 24.718 19.5067 33.4964 10 14.2812857459 3.1489957336 0.2843083268
5457 1 28.2103 17.5572 31.7337 11 12.1516316437 2.501430263 0.7161078055
5458 1 29.9655 19.4481 31.8736 12 10.9350956233 1.7525708227 1.746012699
5459 1 29.9577 17.7416 33.5361 12 11.1019318278 1.7753633763 3.1580652879
5460 1 28.1028 19.3042 33.4925 12 10.8038517744 1.7421725902 1.8084962232
5461 1 31.7854 17.735 31.835 12 11.1199466455 1.7590971952 3.0797151713
5462 1 33.6298 19.4791 31.7722 12 11.024006204 1.7530256023 4.7972829734
5463 1 33.6641 17.7501 33.582 12 10.9971196726 1.7648327084 5.6443104224
5464 1 31.7781 19.4693 33.5542 12 10.8140156341 1.7302088047 4.2162476672
5465 1 35.4532 17.7724 31.7985 12 11.0739737774 1.7513147357 6.2055537507
5466 1 37.1922 19.4359 31.7324 12 10.8366312784 1.7480801063 7.9354966838
5467 1 37.0871 17.7203 33.6004 12 10.8717382959 1.7371786634 8.4433298344
5468 1 35.3989 19.4524 33.6031 12 10.8031830925 1.7386550407 7.1733439563
5469 1 38.8928 17.6002 31.7019 12 11.3422242804 1.7757117672 9.4594613345
5470 1 40.6081 19.328 31.6443 12 10.9026941546 1.7414676498 11.088919221
5471 1 40.671 17.5091 33.461 12 10.8555268654 1.7596572183 11.6732682043
5472 1 38.9296 19.3331 33.5094 12 11.0288992209 1.7371786634 10.2157319915
5473 1 42.2526 21.1536 31.8868 12 10.9790014023 1.755718803 12.80331535
5474 1 1.61904 22.7981 31.8115 12 10.9793843403 1.7699899174 14.6723726578
5475 1 1.65529 21.1025 33.5458 12 10.8423934052 1.788751143 15.037675293
5476 1 0.0816151 22.9483 33.6173 12 10.9299667707 1.7280740184 13.6919949218
5477 1 3.55869 21.1589 31.8271 12 10.9558858951 1.7651440596 12.9347530035
5478 1 5.30649 23.0305 31.8103 12 11.0906099744 1.7796357972 11.3333520227
5479 1 5.33055 21.2031 33.5614 12 11.2355659483 1.7785503467 11.6881889127
5480 1 3.40917 22.7899 33.6318 12 11.2439608334 1.7796357972 13.6075483375
5481 1 6.96778 21.1533 31.6986 12 11.1842363482 1.7839922363 9.5760734103
5482 1 8.60047 23.0015 31.7496 12 11.1512293165 1.7737332182 8.1830163836
5483 1 8.74352 21.1712 33.552 12 11.3642183396 1.7840086379 8.5699237226
5484 1 7.00931 22.9942 33.6465 12 11.2409915481 1.7784485299 10.3060519606
5485 1 10.5076 21.2796 31.6697 12 11.006164895 1.7743090849 6.176196745
5486 1 12.2877 22.8877 31.7323 12 11.2051341427 1.771265548 4.8523744532
5487 1 12.288 21.1824 33.5 12 11.1365877149 1.7831331864 5.6626817773
5488 1 10.4637 22.9015 33.5632 12 11.2708718758 1.7669481676 7.2867487622
5489 1 14.0188 21.0778 31.6957 12 11.0323773821 1.7713205484 3.1670958107
5490 1 15.7383 22.9416 31.8766 12 11.3973300553 1.7982205614 2.2702537612
5491 1 15.8368 21.1345 33.6211 12 10.9904833185 1.7713205484 3.0118259784
5492 1 14.0376 22.9604 33.5811 12 11.2163346807 1.7748148779 4.6170118228
5493 1 17.4757 21.1972 31.7965 11 11.8073134137 2.3592988944 0.5656842265
5494 1 19.3621 22.9753 31.7728 9 21.2387014002 5.1943316814 0.1792181244
5495 1 19.3886 21.1634 33.5289 11 12.0267287392 2.4501095991 0.7703444993
5496 1 17.5793 22.9188 33.515 12 11.2932937557 1.7745441096 2.1138708199
5497 1 37.0614 33.5818 38.9026 12 11.2295604101 1.7974420091 14.8778808383
5498 1 35.3466 31.7453 38.865 12 10.9570687119 1.7675220408 12.9363502288
5499 1 22.7911 21.2305 33.552 8 25.0146392651 5.0879624662 0.1423209621
5500 1 21.1354 23.0139 33.5677 10 13.2770386496 2.8169574213 0.3072905315
5501 1 31.8265 33.5819 40.6031 12 11.099023566 1.7621864362 13.3172127215
5502 1 26.4131 22.811 31.7157 8 28.5012230471 6.2301242055 0.5090932719
5503 1 26.4516 21.2143 33.5658 11 11.3359082435 2.2798036175 0.7003957779
5504 1 24.6374 22.8942 33.4825 10 14.3157848717 3.1177374389 0.2911184865
5505 1 28.2802 21.2182 31.7985 11 11.822163567 2.328983552 0.5112218738
5506 1 29.9833 22.8829 31.7858 12 10.8878783642 1.7780554167 1.9753628271
5507 1 30.02 21.1917 33.5627 12 10.9600906861 1.7397992738 2.9846136689
5508 1 28.0878 23.0118 33.599 12 11.0711325017 1.7389426816 1.9471238375
5509 1 31.7334 21.25 31.8613 12 10.8249807521 1.730139858 3.2664377791
5510 1 33.6798 22.9755 31.8522 12 11.1604183924 1.7676143445 5.0879967436
5511 1 33.5815 21.1355 33.5059 12 10.8934851479 1.7389044836 5.7125518062
5512 1 31.7815 22.9253 33.535 12 11.0850096046 1.7676662459 4.4627929741
5513 1 35.3558 21.1693 31.7175 12 10.8420150433 1.7480801063 6.2147073869
5514 1 37.0515 22.9284 31.7623 12 10.7301642937 1.7890754744 7.9918642366
5515 1 37.1974 21.1546 33.5122 12 11.0262301763 1.7698031002 8.6893683396
5516 1 35.3802 22.9188 33.5253 12 10.9144739273 1.7745399968 7.3457658629
5517 1 38.8597 21.1703 31.7461 12 11.0501711078 1.789050175 9.5010330261
5518 1 40.652 23.0283 31.7864 12 11.3649325626 1.7892972638 11.3958118491
5519 1 40.608 21.2129 33.4919 12 10.9664320086 1.7308739793 11.7376044029
5520 1 38.8956 22.9255 33.5802 12 11.1586401293 1.7892972638 10.3647805917
5521 1 0.0485403 24.7268 31.8339 12 11.0358837568 1.7697097916 13.4181734276
5522 1 1.79575 26.4022 31.7912 12 11.0456805259 1.7676737013 15.2293953078
5523 1 1.86359 24.6779 33.5139 12 10.9342037958 1.7699899174 15.3252563348
5524 1 -0.0275695 26.3944 33.572 12 11.2482250009 1.7969368193 14.2706806183
5525 1 3.59394 24.5769 31.7696 12 11.0790917264 1.7699899174 13.1680863208
5526 1 5.27106 26.5666 31.7849 12 11.1610206241 1.7646892341 12.0953917363
5527 1 5.13387 24.7931 33.7095 12 11.4453154396 1.7796357972 12.4187632117
5528 1 3.45871 26.4406 33.6109 12 11.1166339248 1.764083774 14.3187827024
5529 1 6.98105 24.7944 31.7463 12 10.8602637759 1.7771644372 10.0582858651
5530 1 8.81976 26.4382 31.8906 12 10.75941119 1.7505051396 9.0763664759
5531 1 8.67755 24.7752 33.5582 12 10.8253116876 1.7771644372 9.3018919279
5532 1 7.01576 26.5657 33.5903 12 11.1437097768 1.7770604017 11.3370121183
5533 1 10.5123 24.7966 31.7902 12 11.0667811087 1.7712447778 7.0294913088
5534 1 12.2345 26.4242 31.7955 12 11.1525867799 1.784767969 6.3346294353
5535 1 12.2995 24.6474 33.628 12 10.9148017202 1.771265548 6.3699675161
5536 1 10.606 26.4844 33.5433 12 10.7722327818 1.7511507142 8.3884782941
5537 1 14.0488 24.7258 31.8753 12 11.4538544611 1.7961394869 4.1836765746
5538 1 15.8825 26.5225 31.8559 12 10.9273102046 1.784225699 3.7852640817
5539 1 15.9351 24.8731 33.5962 12 11.3190363021 1.7748148779 3.9818613464
5540 1 14.0673 26.55 33.6608 12 11.2180801035 1.784767969 5.9860967145
5541 1 17.5714 24.691 31.7699 12 10.7760431714 1.763054794 1.7225147377
5542 1 19.3564 26.4585 31.7086 12 10.7923176745 1.7462377217 1.6729638448
5543 1 19.3339 24.7028 33.4356 12 10.8765115497 1.7702145481 1.8698535163
5544 1 17.6527 26.5412 33.4943 12 10.7424380082 1.7458822317 3.7159450675
5545 1 21.1386 24.6845 31.8724 9 21.1460286341 5.0967059365 0.1385986867
5546 1 22.8802 26.4345 31.7135 11 12.2772698103 2.5901324775 0.4255909415
5547 1 22.9473 24.7721 33.5946 11 11.7706968946 2.3611298835 0.6505571887
5548 1 21.1538 26.46 33.4954 12 11.0597304416 1.7802248133 2.0654694118
5549 1 24.714 24.7846 31.7783 8 23.0560041234 5.3123753594 0.4439103374
5550 1 26.4561 26.4217 31.6015 11 12.0124620648 2.4683645594 0.7075500728
5551 1 26.3827 24.7388 33.4719 12 10.9121520589 1.7955184618 1.6339201087
5552 1 24.7339 26.4748 33.4261 12 11.2501384145 1.7917404176 1.8725548303
5553 1 28.0936 24.6053 31.6867 11 12.3569588981 2.466841349 0.8022596605
5554 1 30.0349 26.4286 31.7764 12 11.3607441162 1.7947603998 2.8138782716
5555 1 29.961 24.6098 33.5228 12 11.1897641434 1.7781114464 3.4008260409
5556 1 28.2389 26.3699 33.5272 12 11.2622805897 1.790157327 2.9396324875
5557 1 31.7513 24.738 31.8009 12 11.2888286035 1.7736250409 3.9215127794
5558 1 33.5735 26.5738 31.7935 12 11.1627593507 1.7572096474 6.004348807
5559 1 33.4893 24.8064 33.5821 12 11.5279073683 1.7784878618 6.1853017905
5560 1 31.7722 26.5351 33.5917 12 11.1578309499 1.7686035168 5.2090758064
5561 1 35.3977 24.6581 31.7532 12 10.8426034822 1.7731158613 6.9608439944
5562 1 37.1231 26.4656 31.7513 12 10.9475966668 1.7777082986 8.9885241816
5563 1 37.0584 24.5968 33.4881 12 10.9071026177 1.7728206059 9.1323593433
5564 1 35.3631 26.4575 33.5402 12 11.1945207937 1.7745399968 8.2659130288
5565 1 38.7974 24.759 31.7991 12 11.1436860314 1.7892972638 9.9778386105
5566 1 40.6998 26.4275 31.8509 12 11.2389308042 1.7694963609 12.1113121417
5567 1 40.6459 24.6279 33.6809 12 11.2512856677 1.7620638656 12.3275691932
5568 1 38.7447 26.3907 33.5721 12 11.1862527405 1.7620638656 11.1068538742
5569 1 42.3922 28.1832 31.8734 12 11.1826034426 1.7969368193 14.2011362861
5570 1 1.73753 29.9959 31.8726 12 10.6150309982 1.7573658312 16.479834
5571 1 1.78423 28.2598 33.5209 12 11.1012939153 1.7923485392 16.314775119
5572 1 0.0347461 30.0371 33.5532 12 11.1253420672 1.7966095823 15.541450489
5573 1 3.49754 28.2987 31.8397 12 10.8949374321 1.767213785 14.3038336769
5574 1 5.18685 30.098 31.8336 12 11.0626079789 1.7476885918 13.6428559017
5575 1 5.26464 28.3108 33.5869 12 11.273822231 1.7646892341 13.433468169
5576 1 3.4801 29.9933 33.6099 12 10.7042687581 1.7491673039 15.625751768
5577 1 7.07945 28.38 31.8679 12 10.9075014909 1.7623043285 11.3340451587
5578 1 8.82129 30.0199 31.9067 12 10.8880171831 1.7554448291 10.6952576601
5579 1 8.80851 28.2642 33.6534 12 11.0085092828 1.7616778129 10.6436117162
5580 1 7.03704 30.0896 33.6546 12 11.2809771387 1.7626751009 12.8521846964
5581 1 10.5613 28.2078 31.8265 12 10.9820611525 1.7540652693 8.4598514185
5582 1 12.3111 30.0659 31.8497 12 11.0361493889 1.77870024 8.1937662155
5583 1 12.3543 28.3148 33.6384 12 11.0357130328 1.7547299115 8.0607959467
5584 1 10.6138 30.0053 33.6444 12 11.1116503944 1.7554448291 10.1539786069
5585 1 14.1182 28.3139 31.9643 12 11.1190929658 1.7844050636 6.0079172927
5586 1 15.8803 30.0154 31.8526 12 10.9951790303 1.7782843901 5.9155531349
5587 1 15.9427 28.2934 33.5521 12 10.7973234843 1.7491497012 5.587969069
5588 1 14.1419 30.028 33.6271 12 11.1321192587 1.7795151441 7.7874959378
5589 1 17.7095 28.3825 31.7953 12 10.9076597177 1.7845956304 3.8100023954
5590 1 19.4293 30.0989 31.7523 12 10.8494291306 1.7438836872 4.1475552667
5591 1 19.4121 28.3268 33.49 12 10.7772184143 1.7449613295 3.9397618205
5592 1 17.6879 29.988 33.5215 12 10.9118042447 1.7670936413 5.8227283509
5593 1 21.1441 28.2556 31.8231 12 10.9856235412 1.7656136348 2.1891599337
5594 1 22.8367 29.959 31.7597 12 10.943515116 1.7656857947 3.0567700495
5595 1 23.0442 28.3233 33.5837 12 11.5377134624 1.7802248133 3.0853478754
5596 1 21.2003 30.0955 33.4951 12 10.6630549241 1.7248585446 4.6207062513
5597 1 24.6727 28.2221 31.7016 12 11.0226967297 1.7656857947 1.8606959174
5598 1 26.5324 29.9657 31.6526 12 10.9232352238 1.7525795889 3.7130857906
5599 1 26.4318 28.3503 33.4316 12 11.5534027211 1.790157327 3.3419248292
5600 1 24.8431 30.109 33.4145 12 11.2307952336 1.7563510798 4.4121068668
5601 1 28.268 28.2106 31.7626 12 11.2135279809 1.790157327 2.7141501161
5602 1 30.0914 30.0416 31.9031 12 11.1447771278 1.764862728 5.0084461569
5603 1 30.0287 28.1565 33.5715 12 10.9772008753 1.7887790554 4.6687312145
5604 1 28.3335 29.949 33.5397 12 11.1819139699 1.7900686231 4.9480730814
5605 1 31.8186 28.2419 31.7989 12 11.0179208519 1.7645649353 4.9139766132
5606 1 33.5369 29.9793 31.8629 12 11.0201950784 1.7620790419 7.2097416749
5607 1 33.5961 28.3157 33.6003 12 10.9458774838 1.7676120353 7.1653730369
5608 1 31.8236 29.9856 33.6182 12 10.9508351359 1.7422649355 6.6886088075
5609 1 35.4085 28.234 31.7326 12 11.144677862 1.7766814188 8.06544761
5610 1 37.0512 30.0087 31.7655 12 11.2680810977 1.7777647698 10.2068428798
5611 1 37.1211 28.261 33.6272 12 11.3329371522 1.7777647698 10.219998566
5612 1 35.302 30.066 33.5204 12 11.2166143037 1.7698560436 9.2020441471
5613 1 39.0224 28.1853 31.8961 12 11.146630458 1.7777647698 11.2945060983
5614 1 40.6638 29.9349 31.8901 12 11.3235631609 1.7849833864 13.4147260759
5615 1 40.5537 28.1384 33.7432 12 11.4358182874 1.7969368193 13.2874318778
5616 1 38.8592 29.9884 33.5465 12 11.2977859549 1.7768823735 12.2529307109
5617 1 42.4245 31.8133 31.907 12 11.2495298651 1.7806079965 15.7324058572
5618 1 1.80781 33.6072 31.89 12 11.0508996129 1.7806152145 18.0893210673
5619 1 1.78399 31.7209 33.5598 12 10.7293352098 1.7512588375 17.6989694227
5620 1 42.3575 33.606 33.6555 12 11.2421591062 1.7805646424 16.8089575745
5621 1 3.42302 31.8427 31.8349 12 10.8340403543 1.7512588375 15.8849250005
5622 1 5.37063 33.5466 31.8995 12 11.1777049966 1.773920053 15.2797952124
5623 1 5.27945 31.7895 33.6613 12 11.3004904411 1.7580628858 15.0150658982
5624 1 3.57582 33.5942 33.5601 12 11.0292785553 1.7512588375 17.2176125725
5625 1 7.08722 31.8604 31.8394 12 11.1061438721 1.7580628858 12.9870672626
5626 1 8.85166 33.6859 31.9058 12 11.1009329688 1.7483570285 12.8419923107
5627 1 8.84396 31.7811 33.6417 12 11.0340396886 1.7573238058 12.3275092482
5628 1 7.13559 33.5976 33.7196 12 11.2738125298 1.7580628858 14.599333252
5629 1 10.5777 31.8278 31.8957 12 11.139477566 1.7560350798 10.4566793029
5630 1 12.2897 33.617 31.9334 12 11.2754042591 1.7746205661 10.4988548687
5631 1 12.3341 31.745 33.6199 12 11.3026777861 1.7716852916 10.0172161644
5632 1 10.4856 33.7115 33.6872 12 11.0403521344 1.7528575273 12.4628013687
5633 1 14.1799 31.8633 31.8887 12 11.1196343539 1.77870024 8.1448773894
5634 1 15.7763 33.6867 31.692 12 10.8715702279 1.7503078812 8.5372534853
5635 1 15.8733 31.9466 33.5686 12 11.4362494348 1.7768567983 8.1238522575
5636 1 14.1035 33.6665 33.6429 12 10.9609472721 1.7515130882 10.2620014638
5637 1 17.6154 31.8151 31.8669 12 11.1471510501 1.73451638 6.3408525857
5638 1 19.4657 33.4952 31.7664 12 10.9156936313 1.7738529722 6.7833787391
5639 1 19.4976 31.7134 33.4712 12 10.8648457851 1.7556355818 6.2218237975
5640 1 17.794 33.6202 33.5669 12 11.1780860109 1.7741111171 8.4082409573
5641 1 21.196 31.8031 31.7979 12 10.6481970788 1.7512262215 4.842590753
5642 1 22.915 33.6174 31.7723 12 10.7237091866 1.7350320579 6.1958130864
5643 1 23.0469 31.761 33.4448 12 10.6957294533 1.7340462197 5.526537173
5644 1 21.2773 33.5026 33.5472 12 10.9101962837 1.7464265071 7.1032520656
5645 1 24.6209 31.8796 31.6939 12 10.9781464808 1.7395819683 4.8772128449
5646 1 26.4202 33.5258 31.784 12 11.0436226286 1.770331117 6.790254595
5647 1 26.5959 31.8763 33.4221 12 10.883920599 1.7563510798 6.1164044206
5648 1 24.7398 33.4506 33.4825 12 10.5950932095 1.7373224938 7.0890924887
5649 1 28.2511 31.6916 31.6559 12 10.9667259881 1.7527485391 5.7454143781
5650 1 30.0414 33.5379 31.7093 12 10.835060589 1.7577707944 8.0044363209
5651 1 30.0301 31.8602 33.5816 12 10.8927596457 1.7527485391 7.1522952385
5652 1 28.3969 33.459 33.4516 12 11.0642169117 1.7740981563 7.9386566204
5653 1 31.7731 31.8176 31.7653 12 10.8131334746 1.7517338223 7.2583269759
5654 1 33.6073 33.5575 31.774 12 10.891375257 1.7496157228 9.6930897587
5655 1 33.4172 31.8331 33.5602 12 11.0289068584 1.752788993 8.8249435371
5656 1 31.7233 33.6505 33.5022 12 10.8507569702 1.7371812238 9.2724974207
5657 1 35.2513 31.7728 31.8108 12 10.9299552463 1.7725090549 9.5883364895
5658 1 37.1772 33.5611 31.8824 12 10.9140241086 1.7430051518 12.185137047
5659 1 37.1251 31.7959 33.5916 12 11.175101762 1.7698560436 11.530128087
5660 1 35.3066 33.5576 33.4766 12 11.0731678919 1.7789771563 11.1902407594
5661 1 38.9156 31.8456 31.7993 12 11.2194959905 1.7619318903 12.6690885938
5662 1 40.6933 33.5784 31.8174 12 11.0383627321 1.7806152145 15.0534076646
5663 1 40.6221 31.6887 33.6883 12 11.094548942 1.7803533666 14.4819604652
5664 1 39.0362 33.5146 33.6 12 10.9774982916 1.7525337989 13.9715188468
5665 1 42.4105 35.3769 31.7905 12 11.0013133774 1.7806152145 17.444985255
5666 1 1.82673 37.1453 31.8295 12 11.0254432754 1.7505778306 19.966923726
5667 1 1.72911 35.3538 33.5538 12 11.259666046 1.7703231462 19.1755466653
5668 1 42.3582 37.0644 33.5283 12 10.8699054392 1.7384581199 18.6124662813
5669 1 3.60184 35.3959 31.8481 12 11.1933162086 1.8004001778 17.7082930883
5670 1 5.34553 37.2773 31.7481 12 11.0712719517 1.7729643927 17.6200512647
5671 1 5.30503 35.431 33.6333 12 11.3368217117 1.7729643927 16.9749110368
5672 1 3.48606 37.1921 33.4681 12 11.2556009288 1.7834831449 19.3289966861
5673 1 7.03459 35.3617 31.8409 12 11.0076526383 1.7464883197 15.1921322137
5674 1 8.83171 37.0885 31.7289 12 10.819495423 1.725570076 15.0980720266
5675 1 8.78385 35.3978 33.604 12 10.6601538463 1.7418937443 14.6024859132
5676 1 7.07394 37.1528 33.5593 12 10.9681674405 1.7725477932 16.8743003793
5677 1 10.6434 35.4695 31.7644 12 10.8605919058 1.7705950708 12.7750650415
5678 1 12.3819 37.0998 31.8397 12 10.9172453146 1.760798015 12.9697064499
5679 1 12.3093 35.3717 33.6722 12 10.8242244841 1.7456505997 12.4049670346
5680 1 10.575 37.0541 33.5616 12 10.6845377257 1.7368686416 14.5371062006
5681 1 14.0002 35.3581 31.8555 12 11.0534257564 1.759788933 10.766757855
5682 1 15.8996 37.1276 31.8558 12 11.6464822676 1.760798015 11.2760029566
5683 1 15.9039 35.2591 33.6665 12 11.4501455463 1.7611661362 10.5660266947
5684 1 14.1151 37.1538 33.662 12 11.1960253125 1.7607330306 12.8352907487
5685 1 17.6688 35.2778 31.829 12 11.3029535992 1.7738529722 8.9395414923
5686 1 19.3811 37.0371 31.9796 12 11.2527910804 1.7735716752 9.9573223097
5687 1 19.4174 35.2749 33.621 12 10.9145588344 1.7721241921 9.1292342815
5688 1 17.6199 37.0675 33.736 12 10.9998944199 1.7581282613 11.2461965077
5689 1 21.2064 35.4121 31.8863 12 11.0391081946 1.7738529722 8.0846119101
5690 1 22.9431 37.1311 31.9423 12 10.9138845595 1.7542725733 9.6024975445
5691 1 23.0334 35.3175 33.528 12 10.6200474705 1.7529338585 8.4746079048
5692 1 21.2561 37.0383 33.7623 12 10.9611024938 1.7539405376 10.2427911628
5693 1 24.6907 35.3337 31.9229 12 10.8868669637 1.7558009206 8.0357227339
5694 1 26.4548 37.0132 31.8129 12 11.0990639422 1.7814222739 9.8365289477
5695 1 26.5559 35.25 33.5526 12 11.2459828001 1.7796314027 9.0877596267
5696 1 24.7769 37.0074 33.7224 12 10.9223543819 1.7814222739 10.2619134498
5697 1 28.3318 35.2926 31.7299 12 11.1198791996 1.7740668607 8.9329214102
5698 1 30.0987 37.1183 31.8009 12 11.0552637378 1.757138713 11.2058812447
5699 1 30.0973 35.3749 33.521 12 11.0466832062 1.7740981563 10.192011303
5700 1 28.3298 37.0601 33.5297 12 11.3495361338 1.7814222739 11.1489123569
5701 1 31.8408 35.4093 31.7604 12 11.2152974021 1.7832389639 10.3645628693
5702 1 33.5499 37.0489 31.8205 12 11.2853175868 1.7751777813 12.5753307159
5703 1 33.5658 35.2758 33.5866 12 10.9548506454 1.7600792515 11.4871242898
5704 1 31.7951 37.1241 33.6585 12 10.8525398548 1.759745045 12.3699527084
5705 1 35.403 35.3466 31.8869 12 11.0051919786 1.765763022 12.1948268394
5706 1 37.1453 37.0126 31.8857 12 11.2728217803 1.7643654294 14.5666937063
5707 1 37.1084 35.2894 33.6282 12 11.0407978432 1.7529965688 13.6302287458
5708 1 35.331 37.0307 33.6663 12 10.8129711916 1.7600792515 13.8442717969
5709 1 38.923 35.2874 31.7286 12 11.1124545549 1.7625112487 14.5895077532
5710 1 40.7519 37.1043 31.8303 12 10.8684425039 1.7648953279 17.1557109892
5711 1 40.642 35.3218 33.5887 12 10.6979736237 1.7467874125 16.2560519746
5712 1 38.9691 36.9897 33.5436 12 11.0748308786 1.7648953279 16.0561827087
5713 1 42.3775 38.7735 31.7465 12 10.670709608 1.7512386044 19.4595742952
5714 1 1.71556 40.5714 31.8928 12 11.0789680734 1.7475261856 21.9901010125
5715 1 1.66233 38.8076 33.5237 12 11.1933129411 1.7921683731 21.0247909231
5716 1 -0.0101107 40.5739 33.5336 12 10.8767253382 1.7428296764 20.9493891583
5717 1 3.51672 39.1004 31.8074 12 11.0338009136 1.7834287614 20.1306686549
5718 1 5.36103 40.6629 31.775 12 10.9243756915 1.7533698849 19.9386147229
5719 1 5.28499 38.9719 33.5552 12 11.1617657906 1.7814427593 19.298802751
5720 1 3.56757 40.7492 33.5412 12 11.0386986251 1.7834831449 21.6684136111
5721 1 7.18183 38.9294 31.9159 12 10.9417706296 1.7673327979 17.5357638648
5722 1 8.83311 40.736 31.9702 12 10.9188548203 1.7443798363 17.8490397917
5723 1 8.87398 38.8216 33.6301 12 10.8609451748 1.7657423203 16.8470154171
5724 1 7.02776 40.6916 33.6937 12 11.0472315759 1.7673327979 19.3561594241
5725 1 10.5131 38.8587 31.8707 12 10.9088103755 1.7294096627 15.3904358031
5726 1 12.4107 40.6607 31.9513 12 11.0739429152 1.7539351532 15.9045299378
5727 1 12.3019 38.8689 33.6106 12 11.0800421531 1.754000354 15.0225799025
5728 1 10.539 40.6853 33.5711 12 11.0860720974 1.7505421026 17.3231142554
5729 1 14.2353 38.9307 31.8824 12 11.1517785458 1.7835753973 13.5734614498
5730 1 15.8616 40.6546 31.8022 12 10.9937266274 1.7658120111 14.2746913902
5731 1 15.8574 38.9075 33.6686 12 11.0294044262 1.7663253558 13.3919542254
5732 1 14.0954 40.6595 33.668 12 11.0133152091 1.7656697888 15.6103057751
5733 1 17.6071 38.8688 31.8853 12 11.1203257222 1.7500567168 12.0685577744
5734 1 19.3021 40.6219 31.8608 12 10.9962945203 1.7641326409 13.2653484253
5735 1 19.327 38.8308 33.6797 12 10.9875783596 1.7516619724 12.2248371197
5736 1 17.6479 40.6292 33.6289 12 11.1640998648 1.7663253558 14.2151494214
5737 1 21.0419 38.7627 31.8889 12 11.2997438502 1.752402401 11.2818404865
5738 1 22.9754 40.5184 31.9516 12 11.4370855268 1.765410756 12.9093586822
5739 1 22.9828 38.8492 33.6304 12 10.9867084718 1.7542725733 11.7474556174
5740 1 21.1036 40.5427 33.6018 12 11.2580976268 1.752402401 13.4513388294
5741 1 24.8173 38.7259 31.9784 12 10.8775347091 1.7614640573 11.2480785494
5742 1 26.3824 40.519 31.8879 12 11.0432956156 1.7613851527 13.1074692939
5743 1 26.572 38.8914 33.6953 12 10.9646778655 1.7814222739 12.283793499
5744 1 24.7718 40.63 33.6344 12 11.0070646064 1.7465495445 13.5605841428
5745 1 28.3132 38.9362 31.8556 12 11.2219917683 1.7662047061 12.12079191
5746 1 30.0834 40.6794 31.8014 12 11.1738597218 1.7993736071 14.3201192092
5747 1 30.109 38.8302 33.5887 12 11.1986441477 1.7993736071 13.2994160714
5748 1 28.253 40.5948 33.6426 12 11.1735790552 1.7985793799 14.1741248016
5749 1 31.8365 38.9124 31.8277 12 11.0625274696 1.7751777813 13.4711954537
5750 1 33.5771 40.6058 31.8189 12 11.0208770692 1.7748336295 15.6731447934
5751 1 33.6167 38.8219 33.6419 12 10.8460858067 1.7704850857 14.5426131035
5752 1 31.9101 40.6424 33.55 12 11.117803896 1.7993736071 15.5154666198
5753 1 35.373 38.8577 31.9295 12 11.4329643737 1.7751777813 15.0427847935
5754 1 37.0298 40.5611 31.8738 12 11.2693922971 1.7637646639 17.3393550627
5755 1 37.1665 38.8022 33.7173 12 10.8619686612 1.7543425709 16.28811733
5756 1 35.1854 40.6902 33.6029 12 11.002276446 1.7349266703 16.8334359829
5757 1 38.8682 38.9086 31.8341 12 10.9537292849 1.7648953279 17.1047900873
5758 1 40.7239 40.6159 31.7962 12 10.5800378456 1.7462959644 19.5955720006
5759 1 40.7039 38.8345 33.4949 12 10.8250556098 1.7470173291 18.5261855775
5760 1 38.9618 40.51 33.4698 12 10.8603515119 1.7710326886 18.6303400249
5761 1 42.4214 42.3499 35.3504 12 11.0531852705 1.764696467 21.6430333638
5762 1 1.79629 1.7696 35.338 12 10.87184479 1.749885699 21.7746650921
5763 1 1.72154 -0.0231468 37.182 12 11.0488412403 1.7558045176 23.4277144487
5764 1 0.0459294 1.80437 37.042 12 11.5103522831 1.7591933777 21.1021516415
5765 1 3.43569 42.384 35.4295 12 10.8606610651 1.7490370145 22.6898083697
5766 1 5.28347 1.63258 35.4387 12 11.4007004413 1.7694642996 20.2760375162
5767 1 5.19895 0.0188432 37.3063 12 11.3519580808 1.7694642996 22.0637665803
5768 1 3.3875 1.80691 37.2338 12 11.1583655302 1.7694642996 21.915884096
5769 1 7.05717 -0.00731328 35.4756 12 11.0605291977 1.7691925048 20.5039797373
5770 1 8.71359 1.87874 35.3769 12 10.9322636487 1.7548126651 18.0849452592
5771 1 8.75459 0.00943351 37.2111 12 11.0953091821 1.7981555022 20.1655329681
5772 1 7.09432 1.78331 37.2131 12 10.8801838752 1.7691925048 19.6303419081
5773 1 10.5151 0.00480516 35.3552 12 11.5242783909 1.7984287919 18.7997462509
5774 1 12.3186 1.79686 35.3436 12 11.094423859 1.7665911367 16.5389203436
5775 1 12.3413 0.125998 37.1604 12 11.5652073875 1.7984287919 18.645676023
5776 1 10.4661 1.83975 37.0789 12 11.4269493289 1.7949580853 17.8594631913
5777 1 14.0535 -0.0357734 35.3779 12 11.0209542317 1.7684874916 17.538207395
5778 1 15.797 1.71985 35.3412 12 10.8797636877 1.7683428676 15.455091649
5779 1 15.8193 0.0428118 37.1936 12 10.9690370351 1.7447239878 17.6039494715
5780 1 14.1212 1.85064 37.1443 12 11.1986092288 1.7771114438 16.6372637458
5781 1 17.4962 0.0782989 35.4187 12 10.9607510721 1.7331251772 16.3140452147
5782 1 19.34 1.765 35.4643 12 11.0729444708 1.7686184069 14.2581044454
5783 1 19.3201 0.0491507 37.2023 12 11.1729746875 1.7528800029 16.458938984
5784 1 17.5986 1.87829 37.1703 12 10.8524015167 1.7688545243 15.4359559836
5785 1 21.1137 0.00840667 35.3999 12 11.1264056473 1.7521184725 15.433366596
5786 1 22.9438 1.85287 35.3208 12 10.9215441026 1.757618243 13.4509950292
5787 1 22.9577 42.3841 37.0005 12 11.3800333019 1.7968308755 15.8047832586
5788 1 21.1928 1.70331 37.1863 12 11.3026522484 1.7537345889 14.5882452319
5789 1 24.804 -0.0402845 35.2537 12 11.3647910558 1.7647534435 15.122251167
5790 1 26.5347 1.72596 35.2284 12 11.4278692366 1.7798309303 13.5166054587
5791 1 26.475 0.0126694 37.1079 12 11.5817006979 1.7798309303 15.7479133309
5792 1 24.5484 1.85585 37.0575 12 11.507068064 1.7798309303 13.9512951185
5793 1 28.3038 42.3704 35.2786 12 11.3362549128 1.7647454895 15.4320825996
5794 1 30.1295 1.82607 35.326 12 11.1801167849 1.7626841232 14.1083296772
5795 1 30.1446 0.126351 37.123 12 11.2924557263 1.7647454895 16.3454607339
5796 1 28.2277 1.74583 37.0875 12 11.1272897467 1.7722754744 14.4606463276
5797 1 31.919 0.00892296 35.3977 12 11.0864197657 1.7627592271 16.2887371495
5798 1 33.5081 1.80115 35.3865 12 11.0759709986 1.7412767014 15.3879787452
5799 1 33.6417 42.3354 37.0699 12 11.2083873208 1.7569066487 17.6897690258
5800 1 31.8374 1.7739 37.1441 12 10.8259467899 1.7545147265 15.4959308965
5801 1 35.3665 0.0235246 35.3582 12 11.5830139373 1.7542634774 17.5919603951
5802 1 37.215 1.79914 35.2435 12 11.0889817218 1.7535106103 17.0679883432
5803 1 37.2256 42.3631 37.0405 12 11.4674133061 1.7626672927 19.2345281488
5804 1 35.4329 1.82211 37.1164 12 11.185381284 1.7522703311 17.0089144289
5805 1 38.8639 42.36 35.2346 12 11.3652885312 1.772334815 19.3810432179
5806 1 40.6266 1.75272 35.3317 12 11.3569674758 1.7894183389 19.2128114768
5807 1 40.6665 42.341 37.0662 12 11.1607244173 1.7647560845 21.1497209896
5808 1 38.9216 1.77858 37.0519 12 11.1316625026 1.7555301517 18.8288479399
5809 1 42.4355 3.55799 35.2989 12 10.9847867355 1.777596235 19.3830412887
5810 1 1.81455 5.36298 35.5655 12 11.1059153892 1.779889543 19.7727405794
5811 1 1.71539 3.63731 37.0979 12 10.8390677303 1.7646204874 21.2355082959
5812 1 0.0314524 5.24159 37.2143 12 11.1970691778 1.774485697 19.1208743227
5813 1 3.60095 3.51485 35.4762 12 11.2431681792 1.749885699 20.1321642212
5814 1 5.28693 5.34773 35.4976 12 10.6545288336 1.7262780197 17.761567377
5815 1 5.36102 3.54088 37.2603 12 10.9380478422 1.7694642996 19.4620780459
5816 1 3.62541 5.35924 37.1228 12 10.8939564057 1.7672829193 19.506476602
5817 1 6.93733 3.61917 35.3582 12 10.8611155576 1.7357734401 17.7692274159
5818 1 8.79823 5.34192 35.2307 12 11.0922356246 1.7686057011 15.3349377424
5819 1 8.67352 3.54077 37.0593 12 10.9393527905 1.7490206249 17.3932533559
5820 1 7.03947 5.38427 37.1084 12 11.1508881847 1.7613925664 17.1040958416
5821 1 10.5147 3.6632 35.3183 12 10.913956063 1.7685079025 15.7199594605
5822 1 12.3293 5.3362 35.3143 12 11.2708306644 1.7686057011 13.5239081769
5823 1 12.2318 3.57882 37.0968 12 11.2256088611 1.7827177521 15.7359141841
5824 1 10.4856 5.27807 37.0628 12 11.2021751398 1.7675485438 15.1625007338
5825 1 14.0367 3.55881 35.3934 12 11.0688257754 1.7681926164 14.4496747693
5826 1 15.818 5.25461 35.3608 12 11.2524911595 1.7733521466 12.4435028346
5827 1 15.7905 3.57951 37.1682 12 11.0607260498 1.7688545243 14.6399704126
5828 1 13.9996 5.34105 37.16 12 11.027165113 1.7583180846 13.7354040158
5829 1 17.598 3.46399 35.4458 12 11.1152720142 1.7735939821 13.3854780169
5830 1 19.4642 5.17258 35.2827 12 11.036810448 1.7735939821 11.2347712315
5831 1 19.3322 3.6192 37.2524 12 10.8539937739 1.7684257093 13.4996518638
5832 1 17.6393 5.40112 37.1252 12 11.2649832104 1.7735939821 12.5411305723
5833 1 21.1361 3.46198 35.4708 12 10.8531138302 1.7404934011 12.3195934439
5834 1 22.9556 5.25174 35.2788 12 11.202235791 1.7856571313 10.2965752497
5835 1 22.9435 3.56922 37.0372 12 10.6420104307 1.7352930683 12.5442778781
5836 1 21.1723 5.18537 37.1116 12 10.8338686358 1.754395603 11.6237687077
5837 1 24.7161 3.53834 35.2558 12 11.1807732035 1.7604802753 11.7088998317
5838 1 26.5885 5.23321 35.2148 12 11.2522416662 1.7582079879 10.2644162996
5839 1 26.5071 3.55183 37.0641 12 11.1760613637 1.7798309303 12.5388995246
5840 1 24.7128 5.2688 37.1339 12 11.0535862458 1.7437199015 10.9755264824
5841 1 28.2461 3.39952 35.2519 12 11.1704419975 1.7573807677 12.2477255865
5842 1 29.9862 5.2538 35.3261 12 11.181843619 1.7521128183 11.1768575573
5843 1 29.9512 3.52595 37.106 12 11.2084134456 1.7624516814 13.4338815977
5844 1 28.2075 5.33589 37.007 12 10.8802985399 1.7518097706 11.3606570427
5845 1 31.7815 3.49157 35.3865 12 10.8334405048 1.7387689539 13.3037378236
5846 1 33.6026 5.26361 35.3064 12 11.2801118946 1.7577012337 12.7430295674
5847 1 33.4496 3.45471 37.1194 12 10.8709494358 1.7644390375 14.8845846843
5848 1 31.7582 5.22346 37.1616 12 11.2624218886 1.7851141428 12.8728821064
5849 1 35.3977 3.49335 35.3142 12 11.0912547312 1.7487615687 14.897184943
5850 1 37.2196 5.35676 35.3457 12 10.8025626645 1.7510631082 14.6956913528
5851 1 37.1854 3.54433 37.0887 12 10.9033141098 1.747303934 16.6865188404
5852 1 35.4321 5.24394 37.0228 12 11.0712093874 1.7701043122 14.5944292582
5853 1 38.8837 3.53522 35.2809 12 10.9309438664 1.777596235 16.8889616673
5854 1 40.7351 5.3172 35.29 12 11.2853453555 1.7775026759 17.1071694697
5855 1 40.6223 3.60477 37.1399 12 11.2859016387 1.777596235 18.776742107
5856 1 38.8892 5.33914 37.1544 12 11.1561848805 1.7557276572 16.5759674726
5857 1 42.3531 7.08322 35.4375 12 11.4466963558 1.774485697 17.3476826575
5858 1 1.71681 8.89055 35.2958 12 11.1800008251 1.7718697465 17.7885369197
5859 1 1.82941 7.15818 37.1843 12 11.2515016175 1.774485697 19.4620745139
5860 1 42.3984 8.85388 37.1896 12 11.0132119667 1.7714034801 17.1901516121
5861 1 3.50128 7.14443 35.3569 12 11.1970001798 1.7701146802 18.0649937456
5862 1 5.42963 8.91707 35.2554 12 11.139551519 1.7450048687 15.5856937985
5863 1 5.36041 7.17093 37.003 12 11.1430077558 1.7672829193 17.1691219682
5864 1 3.57859 8.92186 37.0589 12 11.0143774648 1.7667651372 17.7413801885
5865 1 7.08496 7.13333 35.3128 12 10.9385631075 1.7499280754 15.3062868421
5866 1 8.76979 8.83044 35.3708 12 10.8903497745 1.7474974338 13.1112059991
5867 1 8.73742 7.16053 37.1965 12 11.0519216009 1.7562829485 14.93288818
5868 1 7.08896 8.95147 37.1837 12 11.007554081 1.7475820164 15.0464767978
5869 1 10.5678 7.19657 35.362 12 11.1362572872 1.7686057011 12.9999943789
5870 1 12.2897 8.86893 35.3495 12 10.9032202261 1.7815027487 10.8528663493
5871 1 12.2684 7.07095 37.1093 12 10.8916973504 1.7563606627 13.0296790905
5872 1 10.551 8.82004 37.1625 12 10.9793700061 1.7813284588 12.798737297
5873 1 14.134 7.12444 35.4169 12 11.1356432116 1.780826958 11.3966553731
5874 1 15.9074 8.91208 35.3035 12 11.0001229642 1.7817279473 9.3640474686
5875 1 15.8666 7.09166 37.1112 12 11.0907152265 1.7583180846 11.8095448102
5876 1 14.1322 8.80551 37.1364 12 11.0285240868 1.7817279473 11.063442031
5877 1 17.6521 7.0842 35.3308 12 11.2972780178 1.7731697885 10.2822972154
5878 1 19.4693 8.94176 35.2793 12 11.1107029528 1.7519170892 8.2257729897
5879 1 19.4634 7.1094 36.9663 12 11.5004325778 1.7608936707 10.6184747721
5880 1 17.6613 8.84734 37.0013 12 11.2917032525 1.7666518504 9.8673410196
5881 1 21.2203 6.92114 35.2988 12 11.4201736011 1.7857574582 9.2773141089
5882 1 22.9257 8.82753 35.2785 12 11.0490418342 1.7858662754 7.2409033698
5883 1 23.1053 7.02643 36.988 12 10.9830172806 1.7858662754 9.6040312394
5884 1 21.2092 8.90436 37.0191 12 11.2657377074 1.7623631535 8.8147196299
5885 1 24.7981 6.99773 35.3001 12 11.2836228051 1.7858662754 8.5570814759
5886 1 26.4106 8.84437 35.2906 12 10.8246428437 1.7703736924 7.1503453886
5887 1 26.5522 7.02904 37.0428 12 11.0012103032 1.7703736924 9.6301452634
5888 1 24.6071 8.77925 37.0377 12 10.9965156364 1.770992397 8.157701191
5889 1 28.2541 7.05144 35.2821 12 10.8533573023 1.7539073285 9.1369281988
5890 1 30.0005 8.75095 35.3893 12 11.2557656795 1.7782394615 8.6506312478
5891 1 30.0068 7.02759 37.1375 12 10.975402746 1.7851141428 10.8346881724
5892 1 28.1744 8.75169 37.0316 12 10.9126736369 1.769686075 8.8232826585
5893 1 31.8252 6.96009 35.304 12 11.3721230929 1.7850514356 10.6885274975
5894 1 33.5056 8.79423 35.3006 12 11.3657017604 1.7739656782 10.3060550625
5895 1 33.5749 7.03623 37.0298 12 11.2404832713 1.7851141428 12.4673697709
5896 1 31.7425 8.79851 37.1525 12 11.159283405 1.7850200468 10.4608815887
5897 1 35.4634 7.06833 35.2841 12 11.2845201042 1.7701043122 12.5034837088
5898 1 37.1044 8.96239 35.4164 12 11.3076244441 1.7714827836 12.4345935073
5899 1 37.1299 6.97386 37.1783 12 11.2528387446 1.7699554877 14.4724330079
5900 1 35.2834 8.81754 37.056 12 11.2572724419 1.7739656782 12.2174115326
5901 1 38.887 7.00988 35.2962 12 11.4622265041 1.7714827836 14.7800192038
5902 1 40.6623 8.88623 35.3731 12 11.0332085045 1.7713709412 15.104551623
5903 1 40.6795 7.10021 37.2544 12 11.2274715846 1.7706076988 16.8101736963
5904 1 38.929 8.82124 37.0963 12 11.3387302545 1.7714827836 14.5930682372
5905 1 42.3441 10.4763 35.3512 12 10.7751353687 1.7413281375 15.6222160873
5906 1 1.65395 12.289 35.4192 12 10.8866010248 1.7535265999 16.4357442599
5907 1 1.7249 10.6207 37.1836 12 10.8524353495 1.7474796577 17.7812993852
5908 1 42.3443 12.428 37.0923 12 10.8310788462 1.7479989893 15.6003023654
5909 1 3.45095 10.5936 35.457 12 10.9178577439 1.7531989929 16.5852329172
5910 1 5.15628 12.3124 35.3613 12 11.0281487924 1.7600315776 14.4710342761
5911 1 5.25635 10.5794 37.2033 12 11.0186883086 1.7584563738 15.7662246188
5912 1 3.39695 12.3883 37.2068 12 11.0346491274 1.7780481412 16.6720958583
5913 1 7.04711 10.6341 35.4344 12 10.8361474399 1.7306350959 13.5468032735
5914 1 8.77743 12.3146 35.3466 12 10.7832178135 1.7684360094 11.4241924577
5915 1 8.7996 10.6959 37.1403 12 11.2686938508 1.7864769038 12.9603534844
5916 1 6.92077 12.4037 37.0725 12 11.0135892607 1.7580814107 13.6505168453
5917 1 10.4948 10.6604 35.3832 12 11.0776773097 1.7866935213 10.8778558795
5918 1 12.2289 12.3833 35.3682 12 11.1435055877 1.7621498222 8.8241003015
5919 1 12.3556 10.4777 37.0465 12 11.3928701101 1.7866935213 10.7566006554
5920 1 10.5228 12.516 37.1095 12 11.105968615 1.7866935213 10.9298431654
5921 1 14.0995 10.7065 35.3072 12 11.0070130304 1.7817279473 8.6692132068
5922 1 15.8138 12.4897 35.3125 12 10.622406779 1.777263158 6.8396042754
5923 1 15.8377 10.6653 36.9361 12 11.1402817224 1.7576330328 9.0786841736
5924 1 14.1266 12.4266 37.1025 12 11.1190997836 1.7621498222 8.9131095153
5925 1 17.6976 10.6753 35.2197 12 11.025436285 1.7815159213 7.4217987333
5926 1 19.4734 12.3294 35.2591 12 11.6360361198 1.800061344 5.8682007934
5927 1 19.3703 10.5751 37.0803 12 11.0651138056 1.7926089388 8.3253150648
5928 1 17.5876 12.2962 37.0583 12 11.1661632328 1.7926073575 7.6211416015
5929 1 21.2206 10.5729 35.3126 12 10.8202171279 1.7310982181 6.5849047301
5930 1 22.9589 12.3398 35.3026 12 10.9250319334 1.763007906 4.8725111048
5931 1 23.0301 10.5887 36.9986 12 10.8802733363 1.7631686012 7.1890728666
5932 1 21.1694 12.2805 37.0422 12 11.365607865 1.7926089388 6.7127353541
5933 1 24.6589 10.5198 35.1505 12 11.0498884874 1.7552694028 5.5931786227
5934 1 26.4655 12.3258 35.3123 12 11.1296112196 1.7680927569 4.8686600426
5935 1 26.4048 10.587 36.9757 12 11.0846251319 1.7701965212 7.1156696043
5936 1 24.7622 12.3658 37.1448 12 10.9783123168 1.7739992269 6.2624975787
5937 1 28.2445 10.4932 35.3237 12 10.7498175222 1.7495056728 6.6343854956
5938 1 29.9868 12.2976 35.2845 12 10.719716878 1.7678481505 6.3093806575
5939 1 30.0066 10.6141 37.0746 12 11.0411601549 1.7673140506 8.4220592502
5940 1 28.2487 12.306 37.0342 12 11.0090315762 1.7495056728 6.7757686305
5941 1 31.7775 10.5815 35.3703 12 11.1736842263 1.7678710399 8.3047150438
5942 1 33.505 12.4016 35.2989 12 11.2458625455 1.7678481505 8.2227657892
5943 1 33.5897 10.673 36.9897 12 11.1003236844 1.7739656782 10.2314930322
5944 1 31.6435 12.4033 36.9976 12 11.0396673837 1.7674084916 8.3674231733
5945 1 35.3319 10.6916 35.2765 12 10.9674200754 1.7466790152 10.2131368112
5946 1 37.1659 12.3389 35.3822 12 10.9536109949 1.7476687464 10.8085378061
5947 1 37.1337 10.5902 37.1377 12 11.037801399 1.7567459112 12.5296314098
5948 1 35.3168 12.4049 37.007 12 10.8387424203 1.7558114805 10.513111158
5949 1 38.9821 10.7015 35.4515 12 11.2085304506 1.7680394179 12.9511731802
5950 1 40.7796 12.4598 35.3109 12 11.0458194569 1.7663021641 13.4999276776
5951 1 40.6941 10.6212 37.1209 12 10.8638833326 1.7413281375 15.0466324458
5952 1 38.9042 12.4691 37.161 12 10.9980379112 1.730096147 12.9818271156
5953 1 0.0179404 14.2206 35.2504 12 10.7356251592 1.7149576096 14.3890709515
5954 1 1.68589 16.0562 35.2612 12 11.1970615316 1.7686264776 15.6153316159
5955 1 1.59703 14.1238 37.0818 12 11.2333270568 1.7780481412 16.5743404742
5956 1 42.3657 15.901 37.0682 12 11.0132809655 1.75418001 14.8349831602
5957 1 3.41709 14.1028 35.2783 12 11.3710078938 1.7780481412 15.4542706922
5958 1 5.2128 15.8492 35.2639 12 10.8777012765 1.7684707667 13.4388082279
5959 1 5.17235 14.0896 37.1929 12 11.2110339094 1.7778756747 14.6445700457
5960 1 3.39967 15.9367 37.1108 12 11.4309483566 1.7780481412 15.7619990466
5961 1 6.92964 14.0715 35.3948 12 10.7915844128 1.7600315776 12.3858568767
5962 1 8.70601 15.8695 35.3681 12 10.8945703726 1.7861006775 10.3735061353
5963 1 8.7391 14.1529 37.0109 12 10.9800919462 1.7616856052 11.5621548245
5964 1 6.92089 15.8221 37.1022 12 11.003586302 1.7532974478 12.7337767324
5965 1 10.4484 14.0748 35.2754 12 10.892333095 1.7860171582 9.3581376391
5966 1 12.2746 15.9036 35.3453 12 11.4240217286 1.7931170687 7.3893651307
5967 1 12.3563 14.095 37.0967 12 11.0537723827 1.7779621018 9.0533010402
5968 1 10.5505 15.8134 37.2096 12 11.4155946525 1.7861006775 9.8699305079
5969 1 14.0533 14.2216 35.3083 12 10.9541358968 1.7605483567 6.78832816
5970 1 15.8088 15.9341 35.2266 12 10.9668658504 1.7592109399 5.1164348051
5971 1 15.8503 14.1165 37.0091 12 10.8767510853 1.7586805337 7.288759491
5972 1 14.1032 15.8899 37.1279 12 11.4460494353 1.7906058377 7.513785026
5973 1 17.4505 14.2188 35.3068 12 11.3158864208 1.800061344 5.2320541368
5974 1 19.4315 15.9644 35.3051 12 11.260346571 1.7980759645 3.861580446
5975 1 19.3444 14.1595 37.0748 12 11.6535892034 1.800061344 6.1572486401
5976 1 17.6075 15.8726 37.1412 12 11.3488231387 1.7651911738 6.108702293
5977 1 21.2706 14.1676 35.3379 12 11.403968803 1.7978186625 4.2829157528
5978 1 23.039 16.0359 35.3048 12 11.2527743518 1.7473991058 3.2171688001
5979 1 22.9877 14.1097 37.0783 12 11.2741302557 1.7631686012 5.6295654801
5980 1 21.1191 15.8487 37.1301 12 11.2477811197 1.7496903524 4.9855631958
5981 1 24.6545 14.0081 35.2831 12 10.9485937174 1.7552694028 3.9929939182
5982 1 26.3537 15.9161 35.374 12 11.1499098904 1.76572588 3.5630820759
5983 1 26.4542 14.059 37.0869 12 11.4188232045 1.7855221711 5.7520331465
5984 1 24.5984 15.9917 37.1924 12 11.3621026844 1.7623868383 4.8806811208
5985 1 28.2413 14.1256 35.2867 12 11.0844666288 1.7637222982 4.5850565926
5986 1 29.9215 15.916 35.3188 12 11.180171562 1.7749077073 4.8102184504
5987 1 29.907 14.1158 36.9964 12 10.8039069085 1.7484779583 6.7655275893
5988 1 28.1854 15.9109 37.0365 12 10.9607615702 1.76572588 5.6693026401
5989 1 31.6363 14.2529 35.2803 12 11.2465928039 1.7678481505 6.3865566471
5990 1 33.6957 16.0076 35.3009 12 11.1430064042 1.7660208936 7.1582825971
5991 1 33.5674 14.2334 37.1202 12 11.0283378909 1.7584408054 8.8957736157
5992 1 31.865 15.9374 37.0164 12 11.2843799809 1.7681477885 7.249283745
5993 1 35.3942 14.1747 35.2917 12 11.0046033009 1.7627564226 8.7597436849
5994 1 37.1398 15.9194 35.3306 12 10.6795154064 1.7425566673 9.5677452442
5995 1 37.0812 14.179 37.0381 12 10.9183212642 1.7584408054 11.0389553578
5996 1 35.4199 16.0062 37.023 12 10.6769168598 1.7584408054 9.52715669
5997 1 38.898 14.0658 35.3255 12 10.6258398537 1.7203779517 11.416949927
5998 1 40.6055 15.8311 35.2947 12 10.6034336923 1.7191949985 12.4621062557
5999 1 40.6329 14.2043 37.032 12 10.7445494766 1.7582887616 13.6729886161
6000 1 38.9866 15.8742 37.0287 12 10.8152779677 1.7425566673 12.0460026699
6001 1 42.3271 17.6242 35.2303 12 11.1156947944 1.7608408153 13.8675127873
6002 1 1.74996 19.2837 35.3337 12 11.3882497121 1.7886189402 15.7258248543
6003 1 1.65944 17.6495 37.1868 12 11.2062902723 1.7432971408 16.3218779704
6004 1 42.277 19.4702 37.0472 12 11.2273776985 1.7747885609 14.782624543
6005 1 3.63495 17.6277 35.3032 12 11.2445769139 1.7686264776 14.3991727955
6006 1 5.33656 19.4539 35.4684 12 11.1278077895 1.7695493664 12.6138541975
6007 1 5.2892 17.5499 37.1523 12 11.0367080515 1.7550904745 13.8153639164
6008 1 3.37466 19.3335 37.2529 12 10.9694159435 1.7409523673 15.1964461317
6009 1 6.95078 17.6131 35.4222 12 10.9675400515 1.7582168265 11.5573837999
6010 1 8.7959 19.3924 35.3605 12 11.0367863204 1.7825677075 9.658891186
6011 1 8.79423 17.5616 37.1537 12 11.197647316 1.7567427971 10.9353434881
6012 1 7.06777 19.3941 37.1788 12 11.0069755047 1.7550904745 12.1075388272
6013 1 10.4612 17.7016 35.334 12 11.2420241927 1.7861006775 8.5237370119
6014 1 12.3234 19.4129 35.372 12 11.356355559 1.7831331864 6.908325284
6015 1 12.2921 17.7134 37.1203 12 11.6099047501 1.7906058377 8.3467149455
6016 1 10.4852 19.4377 37.1615 12 11.1463016741 1.7660027268 9.4594094079
6017 1 14.0812 17.6547 35.208 12 11.1253318195 1.7906058377 5.7434057396
6018 1 15.8961 19.3732 35.3126 12 10.8855163622 1.7802290388 4.408231918
6019 1 15.8622 17.6811 37.1519 12 11.4298698895 1.7906045247 6.1606597363
6020 1 14.2174 19.4586 37.0877 12 11.3265835954 1.7906058377 6.8295565815
6021 1 17.6497 17.7192 35.3609 12 11.2030657302 1.7951784567 3.8571567644
6022 1 19.402 19.3927 35.2889 12 11.0795939959 1.7721540214 2.4622846689
6023 1 19.4066 17.6269 37.1033 12 11.2616055734 1.7651911738 4.4843616463
6024 1 17.6544 19.4019 37.1053 12 11.2027018394 1.8024970222 4.8554687735
6025 1 21.1466 17.6132 35.2446 12 11.0050760019 1.7723130435 2.5077393722
6026 1 22.9438 19.3365 35.2066 12 11.3327646705 1.7750180095 1.7513363301
6027 1 22.7962 17.712 37.0766 12 11.3531899541 1.7462230978 3.9196507178
6028 1 21.1316 19.5391 37.1111 12 10.9788843116 1.7723130435 3.6592661832
6029 1 24.7555 17.6586 35.2257 12 10.9621447281 1.7484538788 2.5089509713
6030 1 26.5114 19.4888 35.2443 12 10.7896481067 1.7484538788 2.5365005918
6031 1 26.4335 17.7242 36.9983 12 11.0310447377 1.7623868383 4.5238005082
6032 1 24.7296 19.4273 37.1334 12 11.4725127147 1.7484538788 3.7972930755
6033 1 28.1977 17.7294 35.3434 12 10.792786814 1.76572588 3.7262646993
6034 1 29.9681 19.3273 35.2846 12 10.7893620334 1.7359673268 4.3654684106
6035 1 29.9446 17.6242 37.1493 12 11.1683373834 1.7857073828 6.0613870887
6036 1 28.2766 19.4469 37.0393 12 10.6822071969 1.7578184766 4.8690328339
6037 1 31.8618 17.8173 35.227 12 11.3046076087 1.7648736762 5.6582851532
6038 1 33.669 19.4483 35.3198 12 10.7790251655 1.7258876704 6.8022349724
6039 1 33.655 17.7425 37.0604 12 11.1305962003 1.7681477885 8.2103260429
6040 1 31.7327 19.4586 37.0019 12 11.0496098724 1.7681477885 6.8005973143
6041 1 35.3922 17.6727 35.3314 12 10.4415439922 1.7265994817 8.1023177258
6042 1 37.2493 19.3639 35.3198 12 10.7660481587 1.7698275619 9.6215100675
6043 1 37.2035 17.6548 37.1232 12 10.6709674783 1.748418676 10.6489394408
6044 1 35.4686 19.3681 37.0498 12 10.9867452867 1.7605130974 9.297423546
6045 1 38.9161 17.5685 35.3096 12 10.9264944896 1.7332875966 10.8812205778
6046 1 40.6878 19.486 35.1938 12 10.9622058943 1.7599982638 12.5223289992
6047 1 40.653 17.7224 37.1618 12 11.0074428822 1.7396344747 13.3497885899
6048 1 38.866 19.3756 37.0994 12 10.9471523978 1.7683329333 11.9552011457
6049 1 42.3749 21.1993 35.2291 12 10.9588039693 1.7883788934 14.0626950431
6050 1 1.70199 22.8899 35.3379 12 10.7718122675 1.788751143 15.7932219708
6051 1 1.73891 21.0571 37.1209 12 11.3521867825 1.788751143 16.4309288253
6052 1 0.0470261 22.8952 37.0312 12 10.7481008555 1.7471782812 15.1432915137
6053 1 3.51768 21.0304 35.4823 12 11.2564736045 1.788751143 14.1085694406
6054 1 5.17821 22.8857 35.3596 12 11.4276837806 1.7796357972 12.6645024518
6055 1 5.21083 21.1033 37.1855 12 11.0681740969 1.7771635467 13.4915033962
6056 1 3.43447 22.9784 37.1605 12 11.054471199 1.7767456331 15.0627389198
6057 1 7.10454 21.1462 35.3764 12 11.1668042738 1.7618404211 10.910724336
6058 1 8.73482 23.1579 35.3251 12 11.0174319688 1.7603906614 9.7257841174
6059 1 8.79029 21.1353 37.1045 12 11.3572209701 1.7686291324 10.6791521187
6060 1 7.00705 23.0024 37.162 12 11.3447579786 1.7771635467 12.1639090864
6061 1 10.4641 21.2458 35.2964 12 11.3939102664 1.7831331864 8.2229798487
6062 1 12.2997 22.974 35.2421 12 10.8989034838 1.7831331864 6.9687590459
6063 1 12.2721 21.1525 37.104 12 11.4864243089 1.7824957457 7.9930447623
6064 1 10.4591 23.0643 37.0691 12 11.4640477925 1.7569012302 9.5152104879
6065 1 14.0275 21.2143 35.3642 12 11.2514144171 1.7831331833 5.5211144701
6066 1 15.9421 22.9512 35.4057 12 11.2370502294 1.7748148779 4.5698801605
6067 1 15.8359 21.2348 37.1505 12 11.2037690466 1.8025823434 5.8391603211
6068 1 14.0532 22.9549 37.0728 12 11.109834343 1.7608825638 7.0074035975
6069 1 17.5249 21.1423 35.3549 12 11.1320213209 1.802302013 3.3749526137
6070 1 19.4185 22.8768 35.3104 12 11.3062464199 1.7702145481 2.5383018935
6071 1 19.4398 21.1792 37.1306 12 10.9030217701 1.8025823434 3.8859327741
6072 1 17.6836 23.0213 37.0339 12 11.4969223541 1.8025823434 4.8478508623
6073 1 21.1133 21.1659 35.3349 12 10.87598829 1.7750180095 1.7944707747
6074 1 22.9327 22.8763 35.2847 12 11.1063543285 1.7750180095 1.8441856389
6075 1 22.9457 21.0962 37.1378 12 11.2093204271 1.7750180095 3.4191894643
6076 1 21.2173 22.9475 37.0666 12 11.1854449785 1.7708213899 3.6317915994
6077 1 24.6719 21.1365 35.2106 12 10.9940935459 1.774599413 1.8244877313
6078 1 26.3803 22.9744 35.2617 12 11.0106436647 1.7954405921 2.5608453326
6079 1 26.5688 21.1917 37.0255 12 10.9703752076 1.7369517412 3.9775127928
6080 1 24.6314 22.8095 37.0574 12 11.1520782405 1.73285041 3.6418135126
6081 1 28.3019 21.1475 35.2645 12 10.9022162194 1.7421725902 3.207638404
6082 1 30.0625 22.9119 35.3314 12 11.0028477115 1.7575390995 4.5172464596
6083 1 29.9806 21.1103 37.0272 12 10.6992975651 1.7561212696 5.6402878906
6084 1 28.267 22.8947 37.005 12 10.9856911119 1.7427458908 4.8305180597
6085 1 31.7846 21.1816 35.3178 12 10.9116625923 1.7554912342 5.4732809619
6086 1 33.6383 22.8283 35.3148 12 11.2731502135 1.7784878618 7.0031440132
6087 1 33.5155 21.1586 37.0613 12 10.9652011865 1.7581350631 7.929912117
6088 1 31.8392 22.9645 37.0335 12 10.7527472527 1.7561212696 6.9556081838
6089 1 35.3556 21.1986 35.2434 12 10.9401534105 1.7698275619 8.1677586536
6090 1 37.1084 22.8981 35.2412 12 11.1846146039 1.7698275619 9.7150276329
6091 1 37.0897 21.123 37.0583 12 10.9171860021 1.7698275619 10.6326206765
6092 1 35.3928 22.9659 37.0902 12 10.963691059 1.7581350631 9.4915154167
6093 1 38.947 21.0575 35.3116 12 10.885324825 1.7689756412 11.1254353539
6094 1 40.5706 22.9399 35.4424 12 11.0053610935 1.7421125862 12.7008844206
6095 1 40.6966 21.182 37.0389 12 10.5857969252 1.7478930472 13.5393992854
6096 1 38.7975 22.8844 37.0962 12 10.9226800437 1.7481160946 12.1597048842
6097 1 -0.0124566 24.7263 35.35 12 11.0432716085 1.7514097649 14.6107925182
6098 1 1.67101 26.4328 35.4251 12 11.0287921557 1.7486046789 16.5363257873
6099 1 1.6977 24.6084 37.1364 12 10.7197792756 1.760987182 16.800986679
6100 1 0.0119706 26.4875 37.2822 12 11.2011351551 1.7514097649 15.9306611761
6101 1 3.3569 24.6489 35.3704 12 10.7930578699 1.7486307792 14.5933551347
6102 1 5.23144 26.4773 35.361 12 11.192141437 1.7692649823 13.5445825486
6103 1 5.22696 24.6803 37.08 12 11.1741551106 1.7769125237 13.8350876274
6104 1 3.40809 26.4725 37.0714 12 11.1104595816 1.7706878936 15.815030036
6105 1 7.0529 24.7493 35.3716 12 10.8756069916 1.7738372656 11.4797690606
6106 1 8.79448 26.3949 35.4081 12 11.0410209099 1.7612421949 10.6398796448
6107 1 8.74507 24.7887 37.2181 12 10.8932687665 1.7612421949 11.2524704689
6108 1 6.94349 26.5067 37.1901 12 11.1952699935 1.7706878936 13.063334092
6109 1 10.5952 24.7555 35.2406 12 10.977084059 1.7569012302 8.6346722475
6110 1 12.3934 26.5082 35.3567 12 11.0062348309 1.7664862777 8.0705794989
6111 1 12.3108 24.6113 37.0701 12 11.1638821752 1.7664862777 8.5735926938
6112 1 10.5769 26.408 37.2284 12 11.1581049885 1.7660291926 10.4053155323
6113 1 14.1436 24.7051 35.2679 12 11.129024189 1.753456578 6.1445690307
6114 1 16.017 26.5761 35.4205 12 10.9657469139 1.7534891218 5.8966804504
6115 1 15.8433 24.685 37.0694 12 11.0983215914 1.7531933802 6.3045200431
6116 1 14.1724 26.374 37.149 12 11.1329202122 1.7664862777 8.0037340222
6117 1 17.7802 24.8305 35.3374 12 11.2990021147 1.7506465916 4.0680648314
6118 1 19.3498 26.609 35.1918 12 11.1011882336 1.7574139387 4.0684635204
6119 1 19.5907 24.7669 37.1518 12 11.2651098805 1.7708213899 4.5461273687
6120 1 17.6875 26.4222 37.1739 12 11.036160369 1.7474004197 6.226134536
6121 1 21.076 24.7979 35.2788 12 11.2898362992 1.7734453926 2.5285503942
6122 1 22.9148 26.4193 35.334 12 11.2879731501 1.7917404176 3.0392502733
6123 1 22.9801 24.6798 37.128 12 11.3546760655 1.7734453926 3.9462927327
6124 1 21.2095 26.6172 37.0015 12 11.3200910171 1.7574311269 4.7838987682
6125 1 24.66 24.6395 35.2671 12 11.136627014 1.7955511935 2.49374454
6126 1 26.4853 26.5643 35.1901 12 11.3810246214 1.7955511935 3.7747939691
6127 1 26.39 24.6429 37.0607 12 11.2058245807 1.7955511935 4.6366720532
6128 1 24.7213 26.4914 37.0376 12 11.2531009167 1.790936065 4.7679693715
6129 1 28.2459 24.7391 35.2515 12 11.1015259217 1.7955511935 3.8738222278
6130 1 30.0096 26.425 35.2645 12 10.8157086934 1.7575390995 5.1297863613
6131 1 30.0794 24.7619 37.0715 12 10.9298185222 1.7575390995 6.2195787113
6132 1 28.1328 26.4299 37.0315 12 11.1468064075 1.7497284101 5.9296544628
6133 1 31.7809 24.685 35.3591 12 11.1173543206 1.7784340715 5.9751924962
6134 1 33.6161 26.4547 35.4122 12 10.822290595 1.7740152234 7.6560328076
6135 1 33.537 24.6834 37.1243 12 10.9350003341 1.7784878618 8.4452744299
6136 1 31.7003 26.5768 36.9904 12 10.8340004489 1.7622454855 7.451746785
6137 1 35.3307 24.769 35.3796 12 11.0312641985 1.7784878618 8.6310671157
6138 1 36.9926 26.492 35.2802 12 10.9366884516 1.7537507181 10.3867336095
6139 1 37.0925 24.7358 36.9831 12 10.9899944929 1.7537507181 10.9461602133
6140 1 35.2515 26.4805 37.0952 12 10.5028509688 1.7438751462 9.9331446063
6141 1 38.9194 24.8212 35.4012 12 11.2006251463 1.7537507181 11.6405885225
6142 1 40.7159 26.4529 35.4094 12 11.3016057564 1.7670043667 13.6046066188
6143 1 40.6505 24.634 37.1538 12 10.9041381638 1.7514097649 13.9325981799
6144 1 38.8274 26.4751 37.1948 12 11.1439689933 1.7330897887 12.8371490596
6145 1 0.129407 28.2859 35.4497 12 11.639964022 1.7969368193 15.7572553466
6146 1 1.77952 30.1375 35.3475 12 10.8972789839 1.735524577 17.7261623497
6147 1 1.8414 28.266 37.126 12 10.9843985284 1.7427695542 17.7568698392
6148 1 0.110834 30.1509 37.1978 12 11.1540212802 1.7483888835 16.8964918172
6149 1 3.47706 28.2637 35.3452 12 11.1162312698 1.7445574406 15.6326147837
6150 1 5.25093 29.9599 35.4723 12 11.3105511516 1.7626751009 14.9754844807
6151 1 5.2404 28.2623 37.1218 12 11.2456518864 1.7702822158 14.9812485939
6152 1 3.52555 30.0985 37.2556 12 10.9503633716 1.7675063774 17.157284283
6153 1 7.16303 28.2332 35.3839 12 11.3321737053 1.7624552969 12.6632040192
6154 1 8.76621 30.161 35.409 12 11.0020310037 1.7626751009 12.4001786574
6155 1 8.90291 28.2983 37.1858 12 11.3731171852 1.7612421949 12.2776027479
6156 1 7.12062 30.0167 37.1853 12 11.2799318005 1.7625127738 14.357226103
6157 1 10.5196 28.0995 35.2878 12 11.222232694 1.7398546036 10.0506782831
6158 1 12.246 30.0537 35.4799 12 11.3811153745 1.7800052098 9.9459020413
6159 1 12.3201 28.1776 37.1073 12 11.6165828367 1.7652441839 9.9748670578
6160 1 10.5312 30.0594 37.0804 12 11.2564867447 1.7528607653 11.9815955921
6161 1 14.0868 28.2399 35.3994 12 11.14622196 1.7800052098 7.8188934649
6162 1 15.8943 30.0068 35.3143 12 11.1596192958 1.7797177647 7.7562806449
6163 1 15.8515 28.2802 37.0947 12 10.8624503155 1.7504842491 8.0094223268
6164 1 14.2136 29.9921 37.2065 12 11.2560484022 1.7800052098 9.8056761564
6165 1 17.5607 28.2266 35.3749 12 10.7461399407 1.7670936413 5.9302547966
6166 1 19.4263 29.9315 35.379 12 11.1365531071 1.7670685551 6.1942834248
6167 1 19.3963 28.229 37.1227 12 11.0148198634 1.7627378277 6.3350833291
6168 1 17.7043 30.0404 37.0542 12 10.9032028506 1.7670936413 8.0269855199
6169 1 21.1965 28.3416 35.1313 12 11.1834903128 1.7574139387 4.484487953
6170 1 23.082 30.1029 35.2623 12 11.1381456779 1.7405873568 5.5311756146
6171 1 23.0448 28.2739 36.951 12 11.0366529343 1.7574325074 5.4989653362
6172 1 21.2205 30.0665 37.0113 12 11.3974837574 1.7627378277 6.9926697739
6173 1 24.8229 28.368 35.4269 12 11.3168757108 1.7917404176 4.6218292563
6174 1 26.5567 30.1869 35.3681 12 11.4729367971 1.7746403551 6.0107517579
6175 1 26.561 28.2975 37.0917 12 11.2921819144 1.7659966774 6.1605597883
6176 1 24.6688 30.0705 37.1378 12 11.1115361602 1.7409708997 7.0102247723
6177 1 28.3351 28.182 35.3365 12 11.1776181945 1.790157327 5.2120725603
6178 1 30.0286 29.9773 35.2661 12 11.0117637183 1.7503172821 6.7608901728
6179 1 30.0481 28.2129 37.0331 12 10.9153817607 1.7486593733 7.2866635038
6180 1 28.4039 29.9642 37.1341 12 11.1232522473 1.756738434 7.5545893246
6181 1 31.9154 28.2485 35.363 12 10.7108385856 1.7378264327 7.0058265216
6182 1 33.6182 30.0122 35.3475 12 10.7127310526 1.7491904806 8.8210614243
6183 1 33.5103 28.3322 37.0731 12 10.7074176245 1.7757675108 9.1749920094
6184 1 31.7072 30.0668 37.0215 12 11.0458182899 1.7340925413 8.8899644875
6185 1 35.2564 28.181 35.3554 12 10.7657303217 1.7641609523 9.3815204699
6186 1 37.1097 30.0049 35.3148 12 11.2315634556 1.7754013977 11.4065246235
6187 1 36.9461 28.1861 37.1037 12 11.063716532 1.7754013977 11.6762983389
6188 1 35.3188 30.0412 37.0169 12 10.7651693513 1.7729898347 11.0032366411
6189 1 38.9325 28.231 35.4723 12 11.4345741467 1.7725332977 12.5629227589
6190 1 40.7767 30.0192 35.4575 12 11.5351707177 1.780149745 14.6061986702
6191 1 40.6843 28.1689 37.2518 12 11.3152189976 1.7683627046 14.8773798218
6192 1 38.9053 29.9986 37.1001 12 11.434939792 1.7754013977 13.7318787987
6193 1 0.0442605 31.8448 35.3512 12 10.8522816463 1.7509020899 16.6627506243
6194 1 1.80171 33.479 35.3201 12 11.347997234 1.7703231462 18.8107479214
6195 1 1.73876 31.7873 37.2078 12 10.9629608856 1.7675063774 18.7783142949
6196 1 42.3926 33.4902 37.1931 12 11.003149338 1.7509020899 17.8796826354
6197 1 3.53783 31.7169 35.3564 12 11.0003008811 1.7675063774 17.0577942776
6198 1 5.18846 33.6162 35.3479 12 11.1567932516 1.7500590238 16.6841309138
6199 1 5.30788 31.889 37.1576 12 11.1035296916 1.7667463131 16.5858517129
6200 1 3.58802 33.6257 37.091 12 10.8925066836 1.7675063774 18.6668692994
6201 1 7.02588 31.8984 35.5007 12 11.0324389884 1.7626751009 14.5602354956
6202 1 8.80098 33.7378 35.4399 12 10.7463880115 1.7512072178 14.3386538526
6203 1 8.77479 31.8486 37.1545 12 10.8917656541 1.7484675904 14.1247526328
6204 1 7.04345 33.6093 37.1214 12 10.985750713 1.7569446642 16.2327624037
6205 1 10.4471 31.9628 35.3474 12 11.0389248925 1.7716852916 12.1530340822
6206 1 12.3489 33.5986 35.3186 12 11.2812927357 1.7716852916 11.9795665075
6207 1 12.2677 31.7988 37.1558 12 11.2452566022 1.7716852916 11.8123887897
6208 1 10.5954 33.6169 37.1926 12 11.3389745776 1.7565420099 13.9160048618
6209 1 14.0613 31.7973 35.3839 12 11.4346941366 1.7800052098 9.8612212582
6210 1 15.842 33.5779 35.4776 12 11.2187933647 1.7760311262 10.2396473149
6211 1 15.937 31.766 37.1115 12 10.9402650008 1.7768567983 9.9696590718
6212 1 14.0855 33.492 37.2632 12 11.062279134 1.7565420099 12.0258485532
6213 1 17.6542 31.7839 35.2715 12 11.2718308858 1.7757625355 8.0481775903
6214 1 19.4495 33.4301 35.343 12 10.9010591439 1.7710337505 8.6196150992
6215 1 19.3753 31.795 37.1181 12 11.1238514548 1.7617498101 8.6570874972
6216 1 17.6501 33.5458 37.1039 12 11.1253018668 1.7741111171 10.3665637683
6217 1 21.2511 31.7582 35.2884 12 11.0506315613 1.7556355818 6.9960830654
6218 1 23.0243 33.4372 35.3367 12 10.8001890842 1.7373224938 8.0483122669
6219 1 22.9224 31.9056 37.0862 12 11.0415602822 1.7733421918 8.0917774603
6220 1 21.1254 33.5534 37.1402 12 10.7303324293 1.7468209362 9.5386670454
6221 1 24.8599 31.8267 35.2002 12 11.0094386773 1.7405873568 6.8784949417
6222 1 26.5704 33.5193 35.2559 12 11.0104105722 1.7514473067 8.4330908947
6223 1 26.6623 31.7509 37.2028 12 11.1862665743 1.7409708997 8.4155300897
6224 1 24.7068 33.4871 37.0705 12 11.2302118139 1.7760111616 9.3483177087
6225 1 28.3063 31.7841 35.193 12 10.9729920982 1.7503172821 7.2981869191
6226 1 30.1013 33.6394 35.467 12 10.9503862005 1.7485910786 9.4487524964
6227 1 30.0565 31.7933 37.1411 12 11.022105171 1.7503172821 9.1168114892
6228 1 28.3702 33.4277 37.0541 12 10.9548550719 1.7708780281 9.7100291272
6229 1 31.7823 31.8743 35.2522 12 10.9232389508 1.7503172821 8.7929230583
6230 1 33.5609 33.5393 35.3404 12 10.9482811853 1.7789771563 10.8632501368
6231 1 33.6044 31.7516 36.9872 12 10.6428474346 1.7365548456 10.7107866446
6232 1 31.9138 33.4677 37.1353 12 11.1372578134 1.7518920233 10.9954381488
6233 1 35.32 31.8399 35.3213 12 10.9142108168 1.7754313691 10.8757904759
6234 1 37.1055 33.5217 35.2633 12 11.4014270372 1.7991177845 13.0469039113
6235 1 37.07 31.7262 37.0855 12 11.2472297822 1.7990617281 12.958458474
6236 1 35.3217 33.5182 37.0833 12 11.2161633568 1.7991177845 12.7445983428
6237 1 38.8754 31.7613 35.3624 12 11.1638098598 1.774629085 13.5570420856
6238 1 40.7152 33.5249 35.3958 12 10.6798214968 1.7494722678 15.8666659497
6239 1 40.6479 31.8694 37.1244 12 11.1699929453 1.7737134171 15.7845307836
6240 1 38.9125 33.543 37.2219 12 11.1178526744 1.7991177845 15.2168487788
6241 1 42.3601 35.3377 35.4709 12 11.2529201252 1.7703231462 18.120764439
6242 1 1.62819 37.0558 35.3557 12 11.4920948966 1.7921683731 20.3724716373
6243 1 1.75401 35.14 37.1626 12 11.2564333818 1.7870283741 20.067657103
6244 1 42.4209 37.1762 37.2104 12 11.3773760318 1.7870283741 19.7423594141
6245 1 3.44027 35.3918 35.338 12 11.1569262062 1.7703231462 18.9180609608
6246 1 5.27525 37.1911 35.3015 12 11.1094989406 1.7725044927 18.7277881458
6247 1 5.21919 35.4103 37.1158 12 11.059535958 1.757720723 18.4703576234
6248 1 3.51576 37.1164 37.0461 12 11.2529279609 1.7870283741 20.5720148973
6249 1 7.16048 35.501 35.3796 12 11.0178933105 1.757720723 16.4654960337
6250 1 8.85867 37.1078 35.3479 12 10.8171975655 1.7484268342 16.3713479528
6251 1 8.72922 35.4075 37.2197 12 11.0342537803 1.757720723 16.2198007155
6252 1 6.86133 37.2348 37.1425 12 10.8941319492 1.757720723 18.5263169351
6253 1 10.5844 35.459 35.4615 12 10.8649265971 1.7529857356 14.3034448637
6254 1 12.3079 37.1866 35.3101 12 10.8820336711 1.7456505997 14.4797319544
6255 1 12.3739 35.4154 37.1583 12 11.27432674 1.7565420099 14.1366510275
6256 1 10.5555 37.1277 37.1696 12 10.9394758936 1.73941729 16.2655641282
6257 1 14.1506 35.3164 35.4428 12 11.2033018266 1.7616378851 12.2954193036
6258 1 15.7835 37.2202 35.4002 12 10.9489193854 1.7616378851 12.9069691246
6259 1 15.8106 35.4192 37.2319 12 11.1945980699 1.7616378851 12.4671594082
6260 1 14.1232 37.2537 37.1274 12 10.9924991385 1.7440230027 14.5197869824
6261 1 17.6622 35.3393 35.4223 12 11.1584061462 1.773972525 10.7083122051
6262 1 19.397 37.0912 35.3051 12 10.7946365694 1.7508935878 11.4249693691
6263 1 19.5087 35.2624 36.9914 12 11.0041541668 1.7508935878 10.9853622687
6264 1 17.6916 37.1072 37.1001 12 10.930845239 1.7587088538 12.9529294816
6265 1 21.2305 35.1154 35.2438 12 10.8019383729 1.7333906168 9.3749142473
6266 1 23.0223 36.8902 35.4364 12 10.8272822461 1.7542725733 10.7981841409
6267 1 22.8681 35.2078 37.1495 12 10.8246143464 1.7671704116 10.5801131557
6268 1 21.2714 36.901 37.0877 12 10.8841067538 1.7508935878 11.8871013105
6269 1 24.7064 35.1714 35.3375 12 10.9554734127 1.7671704116 9.5100684568
6270 1 26.5763 37.0172 35.4081 12 10.9374276786 1.7809689152 11.4528927517
6271 1 26.5025 35.158 37.0485 12 11.1212018623 1.7884500857 10.7763861275
6272 1 24.8636 37.0096 37.036 12 10.9475763066 1.7712132166 11.9966485943
6273 1 28.2816 35.2623 35.338 12 11.1213452942 1.7740981563 10.264627431
6274 1 30.0097 37.0811 35.4161 12 11.3266178089 1.7636865373 12.304256953
6275 1 30.0941 35.3415 37.0916 12 11.016635246 1.7610167398 11.6277188262
6276 1 28.1931 36.9644 37.1766 12 10.9435555857 1.7633003008 12.5896566779
6277 1 31.8615 35.3066 35.2394 12 11.055331577 1.7636865373 11.3889514525
6278 1 33.5183 37.1762 35.334 12 10.9419546405 1.7636865373 13.6279055579
6279 1 33.5708 35.46 37.0622 12 11.269605584 1.7572672958 13.1118882328
6280 1 31.7707 37.1792 37.282 12 11.2322088755 1.7636865373 13.7539315888
6281 1 35.29 35.4406 35.4256 12 11.292309236 1.7789771563 13.196828937
6282 1 37.193 37.0478 35.2454 12 11.0865709714 1.7616302699 15.4058219011
6283 1 37.176 35.3427 37.1252 12 11.6193511717 1.7991177845 15.0048919712
6284 1 35.3394 37.1803 37.1666 12 11.2924370257 1.7618703504 15.249303457
6285 1 38.9768 35.1686 35.3913 12 11.1265638815 1.7518443314 15.4080922444
6286 1 40.6366 37.0218 35.3528 12 11.1549542607 1.7486406478 17.7290749636
6287 1 40.6561 35.3111 37.1988 12 11.1052557968 1.7548797543 17.4026213866
6288 1 38.9341 37.1276 37.1731 12 11.2030229313 1.7575421524 17.2759576207
6289 1 42.3535 38.8881 35.427 12 11.3299909085 1.7921683731 20.1693320153
6290 1 1.70614 40.678 35.3275 12 11.2257250967 1.7916714041 22.5984773365
6291 1 1.8392 38.8562 37.1898 12 11.2293218891 1.7903746328 22.0871150035
6292 1 0.0119778 40.6122 37.1644 12 11.1262384019 1.7521420183 21.8853511646
6293 1 3.48702 38.8963 35.3668 12 11.4029183436 1.7921683731 21.0457757516
6294 1 5.22483 40.6475 35.4547 12 11.0655474723 1.7482005434 21.0641004151
6295 1 5.26351 39.0132 37.1372 12 10.9287205144 1.7323921779 20.661272356
6296 1 3.47409 40.7136 37.1279 12 10.9913001068 1.7822098163 22.895988143
6297 1 7.06592 38.8952 35.4451 12 11.034701539 1.7673327979 18.705971807
6298 1 8.8287 40.6008 35.3969 12 11.2307166612 1.7483791156 18.8133467279
6299 1 8.6991 38.8597 37.2307 12 10.9883549208 1.7484268342 18.4871867759
6300 1 7.06713 40.6955 37.159 12 10.9089406015 1.7690676041 20.6242414646
6301 1 10.5573 38.8473 35.3619 12 11.0604147148 1.7484268342 16.5866522782
6302 1 12.3157 40.6688 35.406 12 11.3748334092 1.7685526578 17.1392770133
6303 1 12.382 38.8835 37.1493 12 10.8926873631 1.7443125898 16.5654965671
6304 1 10.5894 40.5601 37.2227 12 11.3038331899 1.7984287919 18.6969930736
6305 1 14.0646 38.905 35.4271 12 10.818482424 1.7536492191 14.9846127731
6306 1 15.8879 40.777 35.3811 12 11.1417253258 1.7663253558 15.6339095622
6307 1 15.9487 38.9539 37.1475 12 10.958780921 1.7519029294 15.0356556736
6308 1 14.1494 40.7075 37.1628 12 11.1750851913 1.7489795452 17.1218481289
6309 1 17.6557 38.8159 35.4377 12 10.7721115885 1.7434326709 13.4638425585
6310 1 19.3 40.6683 35.5061 12 11.205089696 1.7440415131 14.5816543266
6311 1 19.4319 38.7587 37.1332 12 10.90927059 1.7508935878 13.7215765752
6312 1 17.5912 40.6496 37.1857 12 10.8061383625 1.726415723 15.8083326228
6313 1 21.2501 38.8074 35.383 12 11.0872779069 1.752402401 12.524898019
6314 1 22.8524 40.6359 35.28 12 11.2164330465 1.7986327107 14.0242485768
6315 1 22.8897 38.7558 37.032 12 11.3991718454 1.798916438 13.2338399576
6316 1 21.0617 40.6528 37.079 12 11.4283796628 1.798916438 14.9677568936
6317 1 24.7446 38.7924 35.3458 12 11.2458344189 1.7723731186 12.5404399097
6318 1 26.6096 40.6243 35.3959 12 11.0091149551 1.7527348959 14.5408704058
6319 1 26.5034 38.8823 37.054 12 10.9828754575 1.7876992814 13.8125852487
6320 1 24.6521 40.6723 37.1038 12 11.6192155243 1.798916438 15.0026788296
6321 1 28.2644 38.8018 35.3823 12 11.087954718 1.7662047061 13.3991812671
6322 1 30.0294 40.6604 35.3971 12 11.4045340379 1.7993736071 15.5455381862
6323 1 30.0283 38.8635 37.2575 12 11.087280775 1.7608436488 14.6223835236
6324 1 28.3267 40.7017 37.0688 12 11.2438339366 1.7552007062 15.7933220934
6325 1 31.7744 38.8946 35.364 12 11.1814851421 1.7615147727 14.4518540231
6326 1 33.5429 40.6184 35.3513 12 11.0063775227 1.7595454094 16.5876795751
6327 1 33.6638 38.927 37.1739 12 11.2313379968 1.7426210213 15.8717642225
6328 1 31.7704 40.6409 37.1482 12 11.1174528598 1.7581889582 16.6018301616
6329 1 35.4189 38.8026 35.3332 12 10.8399231971 1.7317189358 15.8140233331
6330 1 37.0234 40.5712 35.1787 12 11.1877940454 1.772334815 17.9988873476
6331 1 37.3055 38.8465 37.0277 12 11.2461225359 1.7626672927 17.4401536236
6332 1 35.5139 40.5824 36.9985 12 11.215926144 1.7623120367 17.9073302222
6333 1 38.9914 38.8322 35.3101 12 11.1146283821 1.772334815 17.8235730209
6334 1 40.7202 40.6715 35.3284 12 10.8619477235 1.766642468 20.2530268278
6335 1 40.671 38.9133 37.1925 12 10.9878968707 1.746575069 19.5805340067
6336 1 39.0473 40.601 37.0952 12 11.0150578829 1.772334815 19.7343107658
6337 1 42.3312 0.0668904 38.9058 12 10.8979340194 1.7558045176 22.8657929265
6338 1 1.63755 1.76789 38.9883 12 10.9599309901 1.7612208242 22.9974537288
6339 1 1.52374 0.00669332 40.5896 12 10.900554896 1.7576374303 24.6967959387
6340 1 42.3516 1.76084 40.6763 12 11.0621857516 1.7455136109 22.6183710438
6341 1 3.49818 0.122437 38.9734 12 11.0389222048 1.7822098163 23.5956682881
6342 1 5.34516 1.88638 38.9948 12 10.9070932767 1.7679720866 21.2640367394
6343 1 5.19983 0.0454527 40.6455 12 10.9692329462 1.7450393949 23.3383162009
6344 1 3.47289 1.80199 40.6528 12 11.4274906871 1.7567148114 23.1924196382
6345 1 7.02673 42.385 39.0087 12 10.9030129796 1.7691925048 21.7430134083
6346 1 8.76712 1.77188 38.9354 12 10.9926328072 1.7693585788 19.4642234884
6347 1 8.80001 0.00816205 40.6637 12 11.1422261154 1.7487068183 21.5948122453
6348 1 7.12583 1.81143 40.6286 12 11.0094457839 1.7916982379 21.0609559029
6349 1 10.4364 42.3762 38.9451 12 11.3117049434 1.7984287919 20.1995710033
6350 1 12.2921 1.83495 38.9589 12 11.5493082586 1.7827177521 18.0008489299
6351 1 12.2812 0.0951708 40.7558 12 11.1534266936 1.7679922026 20.3168138623
6352 1 10.525 1.79125 40.7811 12 11.1591487189 1.7675318177 19.6033998349
6353 1 14.1514 -0.00646131 38.9925 12 11.3570806581 1.7771114438 18.9805022072
6354 1 15.8728 1.85359 39.0203 12 11.1439095405 1.7764973033 16.8991400262
6355 1 15.9166 0.0830421 40.6902 12 10.823547367 1.7349833467 19.1639738475
6356 1 14.1087 1.85486 40.6931 12 10.9255924203 1.7771114438 18.373203872
6357 1 17.5657 0.0574048 38.7941 12 11.000769589 1.737354802 17.6990636924
6358 1 19.3145 1.80035 38.925 12 10.9481343623 1.738929868 15.8298594213
6359 1 19.3619 0.0673564 40.6397 12 11.2630871814 1.750259097 18.0948853998
6360 1 17.709 1.72328 40.8275 12 10.8509573399 1.7322805171 17.4585700753
6361 1 21.2611 42.3713 38.9577 12 11.4352343316 1.7667030266 16.901922182
6362 1 22.9599 1.8196 38.9098 12 10.9807683101 1.7321268268 14.962095644
6363 1 22.9518 42.3491 40.6322 12 10.8811653365 1.762190136 17.4816226082
6364 1 21.1582 1.80618 40.6284 12 10.8956141071 1.7648672727 16.2303806652
6365 1 24.6409 0.0430538 38.8792 12 11.2445345238 1.7652786794 16.3793828922
6366 1 26.4102 1.93165 38.8461 12 11.1945902104 1.7776361685 14.7978511999
6367 1 26.479 0.00573381 40.5263 12 11.2560570294 1.7629679594 17.3138562124
6368 1 24.7403 1.71619 40.6444 12 10.9605252115 1.7665705086 15.8893156825
6369 1 28.2455 0.0905017 38.8959 12 11.3360701138 1.7618997863 16.6946535473
6370 1 30.0291 1.79113 38.9476 12 10.8370287136 1.7622316388 15.7649237108
6371 1 30.0587 42.3919 40.6353 12 10.827968935 1.7618997863 18.1124906156
6372 1 28.2643 1.79943 40.6325 12 10.9170809032 1.7665705086 16.1809671417
6373 1 31.7687 42.3824 38.9223 12 11.0480160947 1.7617001376 17.8178450122
6374 1 33.6599 1.73715 38.7505 12 11.0354077401 1.7673831035 17.0622441831
6375 1 33.6576 0.0453498 40.6189 12 11.1866274583 1.7684825636 19.3100395607
6376 1 31.8217 1.75558 40.4824 12 11.15684356 1.7684825636 17.2376919431
6377 1 35.4058 -0.00324628 38.8208 12 11.0891093139 1.7535658146 19.1749728529
6378 1 37.132 1.85762 38.8326 12 11.1980760821 1.769067487 18.7062194796
6379 1 37.0556 42.3396 40.5232 12 10.9210774999 1.769067487 20.908106647
6380 1 35.3551 1.80189 40.5141 12 11.0850377644 1.769067487 18.7716907309
6381 1 38.8562 42.3708 38.8096 12 11.1232928489 1.7685039446 20.8921060392
6382 1 40.5849 1.78531 38.8319 12 11.3170038834 1.7591933777 20.6595375226
6383 1 40.5886 0.0177281 40.6806 12 10.972008583 1.7685039446 22.7253130609
6384 1 38.9003 1.75361 40.6497 12 11.2824758253 1.770717926 20.6591650205
6385 1 42.3702 3.52987 38.9465 12 11.2757706852 1.764705283 20.7521182575
6386 1 1.86109 5.39471 38.8304 12 11.1696360475 1.764705283 21.0558899938
6387 1 1.66458 3.69171 40.6809 12 11.1582054517 1.764705283 22.640219583
6388 1 42.3956 5.4324 40.6341 12 10.9279042535 1.7407546423 20.5207789187
6389 1 3.44466 3.52423 38.8339 12 11.1568695513 1.764705283 21.3653898056
6390 1 5.21794 5.25046 39.0847 12 11.3242492539 1.7619140134 19.247110115
6391 1 5.36466 3.56307 40.7655 12 11.1473335683 1.75609698 20.9774038442
6392 1 3.42346 5.27632 40.7448 12 10.9940594099 1.7536257834 21.252505969
6393 1 7.01006 3.57409 38.8792 12 10.7632054003 1.7624347581 19.083179417
6394 1 8.80633 5.27406 38.9628 12 11.0561477827 1.7624347581 16.9755821099
6395 1 8.73816 3.60319 40.8107 12 11.1125385315 1.7559832527 19.1158172115
6396 1 7.05381 5.40065 40.7396 12 10.8394834558 1.7624347581 18.851942944
6397 1 10.5011 3.54881 38.9274 12 11.3290725652 1.7803601888 17.3319179492
6398 1 12.236 5.39289 38.9078 12 11.1317712108 1.7827177521 15.2499956104
6399 1 12.3006 3.51974 40.6654 12 11.0613678053 1.7823982818 17.6199182407
6400 1 10.5362 5.26753 40.7892 12 10.8126169949 1.7428910091 17.1631355048
6401 1 14.1384 3.57637 38.8604 12 11.0456714964 1.7827177521 16.0139625451
6402 1 15.9544 5.2281 38.8895 12 11.1145655849 1.7581579754 14.1905567868
6403 1 15.9506 3.56213 40.7429 12 10.9286363788 1.7459899834 16.5340754346
6404 1 14.114 5.26261 40.5987 12 11.1382177253 1.7512162564 15.745381061
6405 1 17.7764 3.5727 39.0464 12 10.8117885278 1.7688545243 14.9891836472
6406 1 19.485 5.28589 38.8332 12 11.041742918 1.7526544417 13.0907503846
6407 1 19.509 3.59083 40.6309 12 10.730853853 1.7674149806 15.3636402503
6408 1 17.7992 5.28035 40.6843 12 10.7124984734 1.743198216 14.7589146459
6409 1 21.2843 3.42795 38.9359 12 10.7766404355 1.7404934011 13.9647956121
6410 1 22.8894 5.30541 38.7804 12 10.7653778847 1.7352930683 12.0656318426
6411 1 22.9625 3.53162 40.6814 12 10.5707909443 1.7240569889 14.6077218729
6412 1 21.3079 5.26926 40.669 12 11.0096749604 1.7231934455 13.6688550534
6413 1 24.6596 3.66055 38.977 12 11.0946585395 1.730353567 13.3381812132
6414 1 26.5719 5.27585 38.7925 12 10.8883573734 1.740543447 12.0620315757
6415 1 26.616 3.63629 40.5682 12 11.0383776383 1.7665705086 14.442716291
6416 1 24.6936 5.30687 40.6854 12 11.1334013102 1.7388861252 13.1903469278
6417 1 28.2202 3.45638 38.7953 12 10.7516436324 1.761849161 13.8207249554
6418 1 30.0012 5.33141 38.8945 12 11.0080860794 1.7624516814 13.0245009647
6419 1 30.0219 3.55244 40.6283 12 10.9656373617 1.7624516814 15.3374650553
6420 1 28.3078 5.35854 40.5505 12 10.6406368028 1.7474221424 13.5094806488
6421 1 31.7911 3.53171 38.9966 12 10.9496573479 1.7642565509 15.1147510542
6422 1 33.6378 5.32347 38.7689 12 11.1520634192 1.7644390375 14.6081656527
6423 1 33.6106 3.57832 40.6405 12 11.0563923363 1.7684825636 16.8298263988
6424 1 31.9387 5.35461 40.5562 12 10.7929525955 1.728816836 14.8350528907
6425 1 35.3239 3.60245 38.7549 12 10.9028882147 1.7644390375 16.5820844022
6426 1 37.0695 5.32424 38.9148 12 11.0155744104 1.7571550165 16.4051011046
6427 1 37.0246 3.67951 40.6177 12 11.1700663064 1.7708635983 18.417878591
6428 1 35.2892 5.38537 40.69 12 10.8517701622 1.7353689263 16.4862529743
6429 1 38.8873 3.47787 38.8992 12 11.0241571228 1.7708635983 18.6008578221
6430 1 40.5975 5.36716 38.8967 12 10.8653130549 1.7513110552 18.4717467843
6431 1 40.6293 3.74203 40.6724 12 11.1215727942 1.7681915776 20.3522761096
6432 1 38.7576 5.35428 40.6301 12 10.9994841941 1.7708635983 18.2861430279
6433 1 42.3522 7.16938 38.9652 12 10.9734348882 1.774485697 18.7938425022
6434 1 1.74666 8.85157 38.9619 12 11.2851441665 1.7586685669 19.3542989849
6435 1 1.77612 7.07223 40.6086 12 11.1057127435 1.7537770265 21.0246679731
6436 1 42.3715 8.86484 40.6556 12 11.1121314484 1.7693430831 18.941671812
6437 1 3.6413 7.19918 38.8867 12 11.2776824169 1.7672829193 19.2428706131
6438 1 5.2777 8.80596 38.9969 12 11.2656623854 1.7582573547 17.334112705
6439 1 5.17484 7.00249 40.8378 12 11.0330818326 1.7517298278 19.2288887249
6440 1 3.42439 8.8691 40.8711 12 11.1134046447 1.7598486843 19.6503421747
6441 1 6.9787 7.09394 38.9314 12 11.2369859408 1.7624347581 16.9597433688
6442 1 8.75996 8.79832 39.0129 12 11.2426888595 1.771195002 14.9557567331
6443 1 8.77125 6.93092 40.7406 12 10.9841290086 1.7647422801 16.9996052995
6444 1 7.04659 8.72448 40.792 12 11.3235858469 1.7600973966 17.1548246987
6445 1 10.4214 7.00671 38.8637 12 11.001443442 1.7715783862 14.944771439
6446 1 12.3081 8.72935 38.8745 12 11.1409940027 1.7715783862 12.9843971337
6447 1 12.3368 6.97724 40.6548 12 11.159112014 1.7642160415 15.2459973545
6448 1 10.5659 8.70164 40.8052 12 11.6153066872 1.7735712044 15.151291288
6449 1 14.07 7.04532 38.827 12 10.9529900161 1.7528676787 13.381867759
6450 1 15.9259 8.86396 38.7924 12 11.3294288741 1.7666518504 11.4954888471
6451 1 15.7893 7.03519 40.6112 12 11.1977149909 1.7533036837 14.0194129186
6452 1 14.0855 8.78324 40.6349 12 11.2376666757 1.76997926 13.4465925893
6453 1 17.6265 7.01874 38.9311 12 11.3566000934 1.7666518504 12.4340524012
6454 1 19.4516 8.73274 38.8951 12 11.6519909241 1.7666518504 10.7481431534
6455 1 19.4967 7.01502 40.6932 12 11.1707390283 1.7400100675 13.1032115928
6456 1 17.5557 8.80485 40.6389 12 11.1502481667 1.765238898 12.4948165429
6457 1 21.3203 7.00316 38.7981 12 11.3304126439 1.7623631535 11.2217622844
6458 1 22.9163 8.89039 38.8258 12 11.0287045355 1.770992397 9.6297445363
6459 1 22.9049 7.1925 40.5967 12 11.0825986264 1.7429674881 12.0312915783
6460 1 21.2096 8.88171 40.65 12 11.0559018532 1.7558448941 11.4657587381
6461 1 24.6855 7.02147 38.8592 12 11.136370224 1.770992397 10.6864754603
6462 1 26.4553 8.78981 38.8285 12 11.1201917701 1.770992397 9.634292004
6463 1 26.5132 7.03657 40.4963 12 10.9566239048 1.7431474036 12.0105627681
6464 1 24.8141 8.77234 40.5748 12 11.0088329956 1.7709727138 10.9473886582
6465 1 28.2867 7.11205 38.8286 12 10.7215607708 1.7342821099 11.1457397323
6466 1 30.1004 8.80435 38.8319 12 11.0074809319 1.7650395817 10.7490174426
6467 1 30.0251 6.99239 40.5916 12 10.6693198263 1.7429631851 13.0564193841
6468 1 28.3324 8.88228 40.5858 12 11.0429407083 1.7486191924 11.4368108603
6469 1 31.8221 7.12809 38.8808 12 11.0859734214 1.7851141428 12.5909128572
6470 1 33.5515 8.89512 38.8646 12 11.1911065597 1.7737704524 12.3815778403
6471 1 33.5831 7.09054 40.7405 12 10.8605578767 1.736780801 14.6065409491
6472 1 31.8015 8.85392 40.7227 12 11.1289178935 1.7537600994 12.7560810435
6473 1 35.2656 7.15039 38.8122 12 11.2179140477 1.7701043122 14.2645663025
6474 1 37.1524 8.89309 38.9006 12 11.3221541251 1.758395694 14.3913572501
6475 1 36.9137 7.15387 40.6728 12 10.9854819947 1.758395694 16.2972902713
6476 1 35.2678 8.89288 40.6613 12 10.8623892794 1.7482774814 14.5119905332
6477 1 38.8979 7.12593 39.0021 12 11.1236201419 1.758395694 16.447252996
6478 1 40.654 8.99465 38.9592 12 11.032255185 1.7651792459 16.7232913047
6479 1 40.6489 7.06264 40.7499 12 10.8490087052 1.7651792459 18.6074680695
6480 1 38.8126 8.77511 40.7369 12 11.3083485175 1.7708442541 16.6418264691
6481 1 -0.0329542 10.7129 38.8945 12 10.9746944476 1.7693430831 17.200830202
6482 1 1.67218 12.3044 38.9111 12 11.1331870074 1.7486591272 17.9825976116
6483 1 1.71381 10.6818 40.7642 12 11.2434545623 1.7693430831 19.5494572847
6484 1 42.2792 12.4175 40.8314 12 11.0436601972 1.7689797839 17.660220421
6485 1 3.46151 10.6748 38.8479 12 11.2685702713 1.7598486843 17.9027435833
6486 1 5.31251 12.3177 38.9831 12 11.014941807 1.7581566774 15.8888523406
6487 1 5.28602 10.4991 40.7177 12 11.3822774065 1.7677599024 17.5191506432
6488 1 3.55977 12.3515 40.8221 12 11.3926631175 1.7598486843 18.2338936614
6489 1 7.03042 10.6771 39.0166 12 11.2202629175 1.7602564678 15.2561608178
6490 1 8.86092 12.4361 38.9778 12 11.2629449938 1.7616856052 13.2054512226
6491 1 8.75314 10.6135 40.7443 12 11.3758731699 1.7735712044 15.1781710176
6492 1 7.02808 12.3392 40.7485 12 11.2288346417 1.7865394362 15.6110575355
6493 1 10.5407 10.5348 38.941 12 11.6710292972 1.7866935213 12.9861140135
6494 1 12.3539 12.2509 38.8803 12 11.2166530785 1.7626032521 11.1280525313
6495 1 12.372 10.5584 40.6211 12 10.9547468506 1.7705390684 13.235447456
6496 1 10.6214 12.3644 40.7701 12 11.1295531475 1.7724388555 13.3658485739
6497 1 14.0665 10.5257 38.9331 12 11.1552444982 1.7690782739 11.2526084884
6498 1 15.8616 12.2879 38.8348 12 11.3318823619 1.7489918486 9.5542582473
6499 1 15.9354 10.5617 40.7144 12 11.3406402139 1.76997926 11.9084202931
6500 1 14.037 12.3092 40.5742 12 10.9769766892 1.76997926 11.6769854018
6501 1 17.7145 10.5755 38.8591 12 11.1054548354 1.7665279903 10.011002819
6502 1 19.3205 12.3839 38.854 12 11.1284476992 1.792444271 8.547244483
6503 1 19.383 10.6122 40.5916 12 11.1485665839 1.7614098324 10.8955183049
6504 1 17.644 12.3436 40.6276 12 10.7715668066 1.7766022591 10.4665036982
6505 1 21.2334 10.5986 38.8642 12 11.2369623276 1.7614098324 9.077979187
6506 1 22.9986 12.3512 38.8363 12 11.0902543551 1.7739992269 7.9173703534
6507 1 23.0376 10.5522 40.6734 12 11.1146139706 1.7536095138 10.3305954984
6508 1 21.2711 12.3816 40.4885 12 10.9785105876 1.7558448941 9.5590158339
6509 1 24.7249 10.5783 38.839 12 11.1136551612 1.7710118583 8.5430820786
6510 1 26.5773 12.2779 38.7713 12 11.3866515257 1.7938475509 7.9660975452
6511 1 26.643 10.6698 40.5839 12 10.9485114008 1.7516282957 10.2410111273
6512 1 24.9064 12.2573 40.679 12 11.4383764956 1.7739992269 9.6663711216
6513 1 28.2596 10.4992 38.8146 12 11.182474169 1.7650395817 9.1454362457
6514 1 30.0428 12.4537 38.8398 12 11.1317839672 1.7640089239 8.8973664874
6515 1 30.1 10.679 40.5988 12 11.0111693316 1.7650395817 11.0787329099
6516 1 28.3719 12.3103 40.665 12 11.2592798459 1.7652848197 9.9896646856
6517 1 31.7952 10.6495 38.9027 12 11.2591802113 1.7678710399 10.5593152153
6518 1 33.4557 12.4686 38.6448 12 11.1949050019 1.7521961994 10.5545491015
6519 1 33.5746 10.6081 40.6589 12 11.060488808 1.7452939991 12.8199095555
6520 1 31.8464 12.3843 40.6331 12 11.2201082571 1.7422933894 11.2272696268
6521 1 35.2687 10.6232 38.7343 12 11.3348405299 1.7567459112 12.3851420311
6522 1 37.047 12.4483 38.7637 12 11.2609390147 1.7743122649 12.8024643889
6523 1 37.0116 10.6121 40.6421 12 11.3457288181 1.7743122649 14.754349191
6524 1 35.2445 12.4189 40.5751 12 11.1555881522 1.7727002994 12.9918881551
6525 1 38.8736 10.6515 38.9044 12 11.2972945004 1.7565379576 14.7544354315
6526 1 40.6912 12.4257 38.8804 12 10.9693106826 1.7571927322 15.3033002583
6527 1 40.6248 10.6581 40.7051 12 11.0963408083 1.7709285009 17.0589124575
6528 1 38.8977 12.4332 40.5748 12 11.2452632846 1.7743122649 15.2345113431
6529 1 -0.0332211 14.1018 38.9677 12 11.1821691001 1.7591839449 16.1991416204
6530 1 1.7642 15.779 38.8608 12 11.0360437132 1.7569829923 17.3427026681
6531 1 1.71643 14.0767 40.8234 12 11.1506326162 1.7589146574 18.6685400919
6532 1 0.137633 15.9184 40.6946 12 11.1058161594 1.7591839449 17.115779036
6533 1 3.49627 14.081 39.0085 12 11.2517384072 1.7769143081 16.9178795594
6534 1 5.18579 15.8773 38.9725 12 11.1328354412 1.748683483 15.1477102846
6535 1 5.26778 14.1095 40.7768 12 11.1579169742 1.7865394362 16.4313517744
6536 1 3.40141 15.7745 40.7055 12 11.0770653527 1.7540817131 17.5829243183
6537 1 6.97249 14.0973 38.8567 12 11.2617515258 1.786410064 13.9856597416
6538 1 8.79033 15.9391 38.8648 12 11.0058718456 1.7757883584 12.2323882583
6539 1 8.84179 14.1386 40.5975 12 11.1394430903 1.7864907577 13.7385421393
6540 1 7.11806 15.9064 40.5833 12 11.1506753213 1.7865394362 14.6082534625
6541 1 10.5325 14.0737 38.9335 12 10.9933173409 1.7736000672 11.4834051496
6542 1 12.3653 15.8145 38.9126 12 11.1629016955 1.7794273281 9.9184617793
6543 1 12.3677 14.1354 40.6911 12 10.7579702615 1.7497080698 11.796344957
6544 1 10.5826 15.8011 40.7554 12 11.0897813581 1.7759856817 12.4184225876
6545 1 14.0004 14.0843 38.9418 12 10.9647736529 1.7503852748 9.6361266115
6546 1 15.8144 15.7687 38.9317 12 11.3630285003 1.759827509 8.3144975839
6547 1 15.8947 14.0041 40.7103 12 11.0155575026 1.7760020399 10.4650932683
6548 1 14.0856 15.8728 40.6528 12 11.0238238551 1.748894173 10.4409308164
6549 1 17.5269 14.1062 38.8311 12 11.0990492563 1.7766022591 8.2490205919
6550 1 19.4258 15.9169 38.928 12 11.0286132352 1.7430672456 6.7984689064
6551 1 19.4621 14.0843 40.5383 12 10.9937443951 1.7766022591 9.0493328136
6552 1 17.6178 15.8946 40.6221 12 11.0753214848 1.7766022591 8.7896852357
6553 1 21.2442 14.1001 38.8204 12 11.0189538077 1.7524755453 7.2820366807
6554 1 22.8985 15.9863 38.9299 12 11.2521883156 1.779041721 6.2686503535
6555 1 22.9556 14.0903 40.5865 12 10.8788757816 1.779041721 8.6431667269
6556 1 21.1794 15.8018 40.6411 12 11.0698925223 1.779041721 8.0631056826
6557 1 24.6751 14.1925 38.947 12 11.551102977 1.7938475509 7.2727042947
6558 1 26.4588 15.8417 38.8906 12 11.1911993895 1.7938475509 6.8379094648
6559 1 26.6527 14.1942 40.7892 12 11.5662253045 1.7938475509 9.1664182228
6560 1 24.7463 15.8626 40.782 12 10.9506044657 1.7788390115 8.2310676066
6561 1 28.314 14.1607 38.8521 12 11.2166101094 1.7925328417 7.7903708094
6562 1 30.0144 15.8529 38.7555 12 11.0667329291 1.7857073828 7.846884938
6563 1 30.0842 14.1956 40.5941 12 11.4545613332 1.7662945922 9.9433860259
6564 1 28.2905 16.0104 40.5557 12 11.1512334603 1.7662945922 8.8633862183
6565 1 31.7632 14.2362 38.7688 12 10.9391291616 1.7523184413 9.0463707612
6566 1 33.5425 15.8742 38.765 12 10.6297825521 1.7641891395 9.6388459049
6567 1 33.5175 14.2498 40.5158 12 11.1802152896 1.7495411199 11.3408313795
6568 1 31.8143 16.0266 40.6684 12 11.1896388995 1.7900009117 10.2497141168
6569 1 35.2841 14.1214 38.8009 12 10.9514397535 1.7584310085 11.2330430007
6570 1 37.0982 15.8801 38.8121 12 11.1521394091 1.7514926201 11.9630427607
6571 1 37.0764 14.1495 40.6498 12 11.2115523597 1.7743122649 13.7202801821
6572 1 35.3292 15.9163 40.5758 12 10.9123232769 1.7499214418 12.1464590015
6573 1 38.9131 14.135 38.9047 12 11.2324755267 1.760357459 13.5642143699
6574 1 40.707 15.9657 38.8196 12 10.9318640421 1.7582887616 14.4812663572
6575 1 40.6426 14.3306 40.645 12 11.1643256722 1.760357459 15.9102522774
6576 1 38.8115 15.945 40.7961 12 11.1374880431 1.760357459 14.5546532582
6577 1 42.3982 17.6147 38.9133 12 11.0564405357 1.7747885609 15.7858840427
6578 1 1.73845 19.3573 39.0418 12 10.9940558285 1.7747885609 17.4234581484
6579 1 1.75372 17.6792 40.7045 12 11.1086030711 1.7825098403 18.3012588212
6580 1 42.4016 19.4872 40.5857 12 11.056116304 1.7747885609 16.8736282315
6581 1 3.43416 17.6089 38.959 12 10.7468939045 1.7524315345 16.2970166546
6582 1 5.19036 19.2877 38.8649 12 10.7427390877 1.7232731814 14.6211578264
6583 1 5.25108 17.5481 40.6677 12 11.0891221363 1.7540817131 15.8567725519
6584 1 3.5815 19.3754 40.6585 12 10.932714959 1.7515811659 16.9812794702
6585 1 7.05056 17.6977 38.952 12 10.997779199 1.7550904745 13.3770249081
6586 1 8.8071 19.3803 39.0857 12 11.0090479944 1.7686291324 11.993833749
6587 1 8.87963 17.5843 40.7011 12 10.8757741379 1.7581780513 13.285336187
6588 1 7.01299 19.4323 40.6748 12 10.7220912869 1.7399423418 14.3759626369
6589 1 10.5613 17.6827 38.9811 12 11.1456373591 1.7759856817 10.8806754075
6590 1 12.2436 19.4685 38.8825 12 11.1899410874 1.7449502124 9.4643680031
6591 1 12.3916 17.6237 40.6365 12 11.2552708359 1.7795779301 10.9085371599
6592 1 10.5579 19.5046 40.6377 12 10.8264263418 1.7540989173 11.8796192765
6593 1 14.0466 17.7511 38.8771 12 11.3240627492 1.7858459077 8.5233834732
6594 1 15.9104 19.5412 38.8811 12 11.013135418 1.7575410761 7.2104666942
6595 1 15.906 17.6732 40.6538 12 11.0693236379 1.759827509 9.0766246001
6596 1 14.1695 19.3661 40.636 12 11.091071945 1.7476966035 9.647206116
6597 1 17.6344 17.6883 38.9179 12 11.1814005476 1.7651911738 6.7624382159
6598 1 19.4449 19.4869 38.9315 12 10.8715589153 1.7568671669 5.7910174522
6599 1 19.3942 17.5097 40.7151 12 10.8143537416 1.7427593182 7.8162779509
6600 1 17.6842 19.315 40.6461 12 10.7534300448 1.756408393 7.9551619584
6601 1 21.0831 17.7235 38.9507 12 11.1201552917 1.747049308 5.8610347913
6602 1 22.837 19.4001 38.8548 12 10.9445507544 1.7640544687 5.2834245883
6603 1 23.0241 17.6988 40.6862 12 11.0938463991 1.777619993 7.4425443125
6604 1 21.2198 19.3928 40.7497 12 10.9373944473 1.7437005708 7.2096131718
6605 1 24.731 17.6811 38.875 12 11.1248566633 1.7503549134 5.8725499668
6606 1 26.6108 19.4985 38.8136 12 10.8894678261 1.7620050501 5.8031346482
6607 1 26.3874 17.6037 40.5652 12 11.0284649995 1.7620089556 7.7695159872
6608 1 24.6403 19.4279 40.5483 12 11.1132739165 1.7867999511 7.1370475686
6609 1 28.1525 17.5903 38.8128 12 11.1234806226 1.7857073828 6.8341042162
6610 1 30.117 19.4071 38.8228 12 11.2131554203 1.7855052695 7.2790249691
6611 1 30.0316 17.7484 40.7139 12 11.1063264153 1.7857073828 9.2326734079
6612 1 28.2029 19.3572 40.6208 12 11.1323865197 1.7604055652 8.0342943675
6613 1 31.7937 17.6131 38.8914 12 11.2910182108 1.7848706489 8.4901992829
6614 1 33.4716 19.4764 38.8741 12 11.2825570199 1.7670578107 9.3461324924
6615 1 33.6212 17.6008 40.5813 12 11.0204519385 1.7675971005 10.9146596808
6616 1 31.7669 19.4569 40.7133 12 10.9798722705 1.7675971005 9.7324310764
6617 1 35.3262 17.5391 38.8533 12 10.9094051469 1.7637938078 10.6670271826
6618 1 37.0516 19.3747 38.8727 12 11.1052167478 1.7683329333 11.7052808601
6619 1 37.0701 17.6782 40.6999 12 10.9879006421 1.7514926201 13.1745743335
6620 1 35.3027 19.4328 40.5445 12 11.2696598988 1.7673622687 11.7994267502
6621 1 38.8633 17.5539 38.8555 12 11.1678907309 1.7683329333 13.0474795406
6622 1 40.6393 19.5004 38.8207 12 10.9388772979 1.7741894935 14.4059538883
6623 1 40.6435 17.6125 40.6066 12 11.3687667377 1.7737341518 15.5411508185
6624 1 38.8653 19.4249 40.631 12 10.9856952665 1.7683329333 14.231159219
6625 1 42.3477 21.2154 38.8905 12 10.974390085 1.7728890483 15.9477121836
6626 1 1.76255 22.8682 38.8812 12 10.8223046642 1.7615179475 17.3691084688
6627 1 1.7381 21.2283 40.6802 12 10.9087773147 1.76007154 18.3583260963
6628 1 42.289 22.8442 40.6467 12 10.9788223202 1.7388353278 17.0574312136
6629 1 3.54277 21.1317 39.017 12 10.8615344427 1.7596753868 15.9159206897
6630 1 5.2068 22.9301 38.9121 12 10.9826644804 1.7771635467 14.63953352
6631 1 5.26488 21.0686 40.6715 12 10.8585223549 1.739873441 15.6564787707
6632 1 3.50057 22.8955 40.674 12 10.9907191672 1.7709828065 17.0663335029
6633 1 6.88864 21.0961 38.8629 12 11.1309467067 1.7686291324 13.2677200687
6634 1 8.72995 22.8956 38.9133 12 11.3414357854 1.7686291324 11.9538518324
6635 1 8.73906 21.2048 40.7349 12 10.8847681782 1.7644154431 13.0584150555
6636 1 6.94767 22.9088 40.6467 12 10.9329168467 1.7471413101 14.4137388572
6637 1 10.5536 21.1802 38.958 12 11.1651479823 1.7651274267 10.5192956236
6638 1 12.3564 22.9068 38.9084 12 11.2501120838 1.7481960949 9.4514458299
6639 1 12.3322 21.2875 40.8212 12 10.776786459 1.731585903 10.9081491479
6640 1 10.5492 22.8439 40.7742 12 10.937536354 1.764171173 11.9930016319
6641 1 14.0355 21.22 39.0026 12 11.3094433047 1.7608825638 8.4173810624
6642 1 15.8636 22.8978 38.8771 12 11.5647512974 1.762893139 7.2809869695
6643 1 15.9779 21.0573 40.6714 12 11.0846757319 1.762893139 8.504878753
6644 1 14.0587 22.8979 40.8024 12 10.9668750001 1.7619783844 9.8646497167
6645 1 17.8222 21.1921 38.9665 12 10.9430351535 1.8025823434 6.1431313911
6646 1 19.4328 22.8226 38.922 12 10.7398980146 1.7708213899 5.7809799688
6647 1 19.4365 21.0934 40.6583 12 10.7196531289 1.7610563812 7.3392314355
6648 1 17.7332 22.9048 40.7145 12 10.8510028322 1.762893139 7.9845655424
6649 1 21.1539 21.2167 38.9097 12 10.6766239124 1.7634540368 5.2891743867
6650 1 22.9439 22.9486 38.9662 12 10.9817095926 1.7649154051 5.4852501391
6651 1 22.9145 21.1425 40.6616 12 11.0705844295 1.7862219895 6.9165025692
6652 1 21.1714 22.9649 40.572 12 10.6635367395 1.7467418661 7.0971401928
6653 1 24.7683 21.1534 38.9089 12 11.0754259564 1.7649154051 5.4796000129
6654 1 26.5043 22.861 38.8211 12 11.1256915148 1.7970348244 5.7930460634
6655 1 26.5895 21.1172 40.593 12 11.0905164827 1.7966758592 7.4775910079
6656 1 24.6797 22.9275 40.6086 12 11.0637979465 1.7970348244 7.1776583469
6657 1 28.2588 21.1865 38.7788 12 10.8455573848 1.754697143 6.1410266377
6658 1 30.0236 22.8985 38.6975 12 11.3282161572 1.7869593479 7.1233770431
6659 1 30.0328 21.1324 40.5863 12 11.6146663527 1.7869593479 8.5402287635
6660 1 28.3519 23.0306 40.6226 12 11.4820336123 1.7961757013 8.0978093261
6661 1 31.7643 21.1906 38.8455 12 11.0466811544 1.7561212696 8.1883073693
6662 1 33.5423 22.9168 38.7863 12 10.8996849326 1.7455150641 9.3711392335
6663 1 33.5311 21.1302 40.7091 12 11.09679753 1.7693236091 10.7550749406
6664 1 31.9049 22.9885 40.6691 12 11.501278635 1.7869593479 9.7971172474
6665 1 35.2558 21.0969 38.7536 12 10.9955956878 1.758279245 10.3569177157
6666 1 37.0196 22.8685 38.8051 12 11.048520217 1.7510092512 11.8186407435
6667 1 37.0869 21.2196 40.6776 12 11.1410102126 1.7510092512 13.0125717148
6668 1 35.2095 22.8125 40.5769 12 11.2806464083 1.7769907087 11.7879650946
6669 1 38.8511 21.1492 38.8025 12 11.0710876443 1.7666835172 13.092375417
6670 1 40.6112 22.9282 38.6714 12 10.969040482 1.7391473101 14.5496886792
6671 1 40.594 21.1018 40.6838 12 10.7156021792 1.7476668791 15.6184287658
6672 1 38.8918 22.7899 40.6522 12 11.2410697694 1.7864134038 14.4190477204
6673 1 42.4063 24.5418 38.8933 12 11.0186576953 1.7609926479 16.3030620365
6674 1 1.84317 26.3852 38.9107 12 11.1507503584 1.7609926479 17.9800207547
6675 1 1.68354 24.5033 40.6566 12 11.1591819749 1.7609926479 18.6633755342
6676 1 0.0844973 26.4672 40.658 12 11.4185836629 1.743315991 17.714790789
6677 1 3.49261 24.6918 38.9476 12 10.8924166778 1.7603807569 16.2704411037
6678 1 5.18852 26.3784 38.9698 12 11.0801112838 1.7706878936 15.3923616766
6679 1 5.30942 24.7142 40.7164 12 10.6473737404 1.7552411311 16.0160957447
6680 1 3.47734 26.4027 40.7387 12 10.8083651448 1.7552411311 17.7580498173
6681 1 6.9449 24.7072 38.8974 12 10.781487281 1.752854452 13.6473186174
6682 1 8.71238 26.4827 38.9321 12 10.9438767407 1.7610039664 12.8155361856
6683 1 8.78204 24.6377 40.6745 12 10.8485974158 1.7644035565 13.4203010233
6684 1 7.10636 26.4111 40.6058 12 10.6450558269 1.7701519399 15.0172134596
6685 1 10.5614 24.6619 38.9358 12 11.1863788565 1.7640683607 11.035488046
6686 1 12.3321 26.3942 38.8829 12 11.2069699184 1.7687337649 10.3229051127
6687 1 12.3091 24.6273 40.6996 12 11.0047805942 1.7687337649 11.1745399645
6688 1 10.5877 26.4354 40.6839 12 11.0217698463 1.7664627595 12.7080769174
6689 1 14.1147 24.704 38.8656 12 11.0927773922 1.7487903057 8.6857333045
6690 1 16.0008 26.4505 38.805 12 10.9971456288 1.7531933802 8.2539916072
6691 1 15.8629 24.619 40.5636 12 10.9207923471 1.7596659116 9.1058692462
6692 1 14.1746 26.3337 40.6498 12 11.1698326928 1.7687337649 10.546471006
6693 1 17.7326 24.672 38.9837 12 11.2209821915 1.7577449105 6.9052594052
6694 1 19.5265 26.4974 38.8262 12 11.0313006236 1.7513754492 6.7229455383
6695 1 19.5241 24.7758 40.5968 12 10.6411044861 1.7423519338 7.6563838802
6696 1 17.63 26.4113 40.5757 12 11.0592527236 1.8013140587 8.8185527128
6697 1 21.1777 24.6084 38.8622 12 10.9369438512 1.7640141814 5.6818228992
6698 1 23.0028 26.4692 38.8438 12 11.2572489763 1.7640141814 6.0625950629
6699 1 23.0109 24.7431 40.7503 12 10.9250684578 1.7726418841 7.5355430924
6700 1 21.3392 26.4575 40.5648 12 11.050682 1.7830847754 7.8244691241
6701 1 24.7459 24.6061 38.809 12 11.1538933412 1.7726418841 5.7156185774
6702 1 26.4515 26.475 38.7782 12 11.0630506519 1.7524560121 6.8112951911
6703 1 26.5456 24.7634 40.5383 12 11.603132274 1.7970348244 7.7627929608
6704 1 24.6682 26.5547 40.5485 12 11.2948360617 1.7723331012 7.8961806476
6705 1 28.207 24.6691 38.693 12 11.2137877493 1.7612144527 6.7695194199
6706 1 30.018 26.3897 38.8578 12 11.1204188041 1.7638019685 8.2051555505
6707 1 30.0527 24.7038 40.7398 12 11.3496268295 1.7859284681 9.3137475859
6708 1 28.2933 26.4889 40.5238 12 11.1460212542 1.7497284101 8.9813067009
6709 1 31.7598 24.6381 38.8332 12 11.2457659342 1.7638291476 8.5250905586
6710 1 33.5606 26.4623 38.8268 12 11.4072448767 1.7756688488 9.9582128101
6711 1 33.5094 24.7757 40.6719 12 11.1773134266 1.7769907087 11.0248830897
6712 1 31.8565 26.4842 40.6853 12 10.8914496673 1.7638291476 10.5564746591
6713 1 35.2452 24.5892 38.857 12 10.960984738 1.7754722949 10.8473778377
6714 1 36.8845 26.3516 38.8331 12 10.8673248836 1.7476840722 12.2401180088
6715 1 37.0478 24.6293 40.5618 12 11.0188790758 1.7852115716 13.3125589093
6716 1 35.4316 26.4422 40.7491 12 11.0956863817 1.7734168671 12.5864283725
6717 1 38.7851 24.6185 38.8383 12 11.19485522 1.7864134038 13.3729580425
6718 1 40.6411 26.3908 38.8636 12 11.0366049733 1.7330897887 15.1807233171
6719 1 40.6691 24.7722 40.5982 12 11.3564088923 1.7864134038 15.9435256761
6720 1 38.7536 26.402 40.5166 12 11.1338820278 1.7855326524 14.7300883629
6721 1 0.0485301 28.2988 38.8987 12 11.0722315593 1.7427695542 17.1945516334
6722 1 1.76081 29.9998 38.9298 12 10.7333857229 1.7509854966 19.0604134847
6723 1 1.77787 28.2699 40.6413 12 10.912615144 1.7758397919 19.4848006973
6724 1 0.00305118 29.9476 40.728 12 11.0767317666 1.7424950988 18.4961901155
6725 1 3.51922 28.2441 38.9436 12 11.0959652658 1.7515184956 17.2397168029
6726 1 5.29261 30.0122 38.8955 12 11.2351202152 1.7516025959 16.5349790685
6727 1 5.13687 28.0878 40.754 12 11.3779467199 1.7715246824 16.9811559218
6728 1 3.51109 30.0428 40.7672 12 10.9528940628 1.7515184956 18.8632640619
6729 1 6.97849 28.2506 38.9315 12 11.307928102 1.7715246824 14.6161091378
6730 1 8.73348 30.1576 38.9808 12 11.2554623163 1.7528607653 14.3231867749
6731 1 8.77428 28.2778 40.6592 12 10.8831959282 1.7672328778 14.5305114984
6732 1 6.92849 30.0734 40.6455 12 11.2305204109 1.7715246824 16.4644947332
6733 1 10.5295 28.1984 38.9271 12 11.0795428587 1.7528607653 12.2545028775
6734 1 12.2133 30.0923 38.8731 12 11.5427804274 1.7612771978 12.0575299865
6735 1 12.2944 28.1669 40.5898 12 11.2807515184 1.7687275367 12.2202622846
6736 1 10.5271 29.9708 40.5814 12 10.9249805368 1.7602455341 14.1053961707
6737 1 14.2501 28.1703 38.89 12 11.4018234964 1.7612771978 10.0066017963
6738 1 15.832 30.0495 38.9622 12 11.0378037613 1.7486492561 10.2154486758
6739 1 15.8394 28.2175 40.6689 12 11.0849006803 1.801248521 10.5390147972
6740 1 14.0887 29.9682 40.6493 12 11.1044756606 1.752202654 12.2268519934
6741 1 17.7293 28.3309 38.8147 12 11.2744573168 1.8009737103 8.3353798111
6742 1 19.405 30.0179 38.9025 12 11.0829953203 1.7627378277 8.7091378258
6743 1 19.4551 28.1895 40.6174 12 11.273977643 1.8013140587 9.0374093228
6744 1 17.6519 30.0108 40.694 12 11.2443921379 1.8013140587 10.6527659296
6745 1 21.2803 28.3202 38.7932 12 11.1840564901 1.7567219026 7.1030438549
6746 1 23.0036 30.0134 38.7923 12 11.0023500614 1.7732465241 8.0274065019
6747 1 22.9186 28.2746 40.5938 12 10.8691913444 1.739280434 8.4151996049
6748 1 21.2077 30.0721 40.5797 12 11.0816723563 1.7752129558 9.5489609395
6749 1 24.7123 28.2919 38.84 12 10.979196778 1.7541772234 7.1581677788
6750 1 26.5382 30.0607 38.8627 12 11.0714132446 1.7571164829 8.5432681734
6751 1 26.592 28.1555 40.5863 12 11.1194683459 1.7541772234 9.0705737822
6752 1 24.8637 29.8929 40.6029 12 11.0070192739 1.748210098 9.5053919515
6753 1 28.4008 28.2057 38.8933 12 11.1750306742 1.7571164829 8.2452572638
6754 1 30.1208 30.0185 38.9 12 11.0912480838 1.7716135563 9.5935027545
6755 1 30.198 28.1772 40.5964 12 11.0612084873 1.7633049875 10.3654123028
6756 1 28.3318 29.9431 40.7159 12 11.491459494 1.7724193007 10.4700166096
6757 1 31.8083 28.1586 38.8012 12 11.0631583966 1.7785684353 9.4453408908
6758 1 33.5682 30.0658 38.7329 12 10.9570918881 1.7785684353 11.078248432
6759 1 33.5533 28.2192 40.6955 12 11.1149642048 1.7785684353 11.8523683346
6760 1 31.8509 29.9657 40.5481 12 11.1086879834 1.7724193007 11.6068799552
6761 1 35.3517 28.2023 38.8363 12 11.1105998216 1.7785684353 11.5317005453
6762 1 37.0983 29.9622 38.8682 12 11.0675626861 1.7753932042 13.361534503
6763 1 37.1102 28.2384 40.5929 12 10.8117066806 1.7746311543 13.9355542929
6764 1 35.3102 30.0191 40.559 12 10.9237598948 1.7676900438 13.3283047382
6765 1 38.7721 28.1876 38.8543 12 11.0706084539 1.7359750668 14.0860663855
6766 1 40.6278 30.0093 38.9364 12 11.4060776865 1.7506926423 16.0907779079
6767 1 40.67 28.2169 40.5472 12 11.1762231104 1.7417320622 16.5557223981
6768 1 38.8354 29.9917 40.5675 12 11.0559201976 1.7811838368 15.6478014924
6769 1 42.3302 31.7688 39.0242 12 11.3020406301 1.7506926423 18.0106891362
6770 1 1.75491 33.4566 38.9767 12 10.9212610223 1.7472070268 20.0930333979
6771 1 1.67782 31.7454 40.7088 12 11.0720500403 1.7405262795 20.3070468947
6772 1 -0.00139938 33.6486 40.7444 12 11.0616319274 1.7395001594 19.6668820623
6773 1 3.48294 31.7439 38.9792 12 11.0340922915 1.7671078256 18.7088572983
6774 1 5.23917 33.5899 38.8755 12 11.035636875 1.7684765994 18.3488660253
6775 1 5.24239 31.7956 40.7255 12 10.9040742457 1.7684765994 18.4113578231
6776 1 3.41343 33.5204 40.7483 12 11.1992351269 1.7681296984 20.5219633038
6777 1 6.9666 31.9773 39.0294 12 10.9787246621 1.7516025959 16.4024762864
6778 1 8.70423 33.6227 38.8928 12 10.9489201616 1.7467643225 15.9887802379
6779 1 8.69325 31.9609 40.7964 12 10.9139563465 1.7602455341 16.3057726918
6780 1 7.05257 33.7001 40.7017 12 10.7554599816 1.7684765994 18.1175248611
6781 1 10.4303 31.8487 38.9598 12 11.1844691035 1.7602455341 14.0180500658
6782 1 12.4471 33.595 38.9685 12 11.0467355985 1.7558406946 13.8914370374
6783 1 12.2955 31.9014 40.643 12 11.1876300953 1.7575681362 14.1339091669
6784 1 10.4716 33.5975 40.6875 12 11.1206277523 1.7558406946 15.992709481
6785 1 14.0838 31.7198 38.8662 12 10.837259692 1.7523035719 11.9258808086
6786 1 15.9189 33.4928 38.858 12 11.1576912732 1.7598367791 12.1592959329
6787 1 15.8161 31.9051 40.6498 12 11.0154659906 1.7670026502 12.3740408335
6788 1 14.1258 33.4963 40.6559 12 11.0211215199 1.7523035719 14.1123689455
6789 1 17.6301 31.7367 38.8146 12 11.0614326501 1.7676955281 10.2802448506
6790 1 19.4347 33.5741 38.9486 12 10.8451294784 1.7598367791 11.1138893292
6791 1 19.4134 31.7328 40.6124 12 11.0861436532 1.7676955281 11.0382836876
6792 1 17.7294 33.5858 40.6677 12 10.9786658846 1.7676955281 12.7189341925
6793 1 21.2753 31.822 38.8682 12 11.1846799912 1.7733421918 9.5036709527
6794 1 23.0102 33.5972 38.9724 12 11.0871104937 1.7760111616 10.6215016432
6795 1 23.0243 31.7323 40.6383 12 11.2524802448 1.7730108476 10.5474030309
6796 1 21.1957 33.6026 40.6237 12 10.7923216617 1.7499561313 11.9733959421
6797 1 24.8195 31.7781 38.931 12 11.1674767649 1.775787521 9.4892230666
6798 1 26.5686 33.523 38.9134 12 11.098202378 1.7868286845 10.8586111888
6799 1 26.5528 31.7794 40.6881 12 10.9437579065 1.7404941143 10.9969368295
6800 1 24.8749 33.5825 40.6166 12 10.9885578865 1.7760111616 11.9453070209
6801 1 28.3025 31.715 38.9386 12 10.9087238247 1.7708780281 9.9396508128
6802 1 30.1075 33.4936 38.8397 12 11.014025032 1.7708780281 11.3908928884
6803 1 29.9902 31.9076 40.6298 12 11.1993038497 1.7724193007 11.8355159511
6804 1 28.3705 33.6763 40.6454 12 10.8560933642 1.7700879132 12.4571168476
6805 1 32.002 31.7008 38.9282 12 10.9106396564 1.7641445609 11.1798371583
6806 1 33.6502 33.5227 38.8661 12 11.0822177128 1.7550761546 12.9461941429
6807 1 33.6204 31.7913 40.6354 12 10.781931333 1.7568941806 13.2735289943
