ITEM: TIMESTEP
0
ITEM: NUMBER OF ATOMS
6904
ITEM: BOX BOUNDS abc origin pp pp pp
42.384 0.0 0.0 0.0
0.0 42.384 0.0 0.0
0.0 0.0 42.384 0.0
ITEM: ATOMS id type x y z Coordination AtomicVolume CavityRadius SurfaceDistance
1 1 0.0 0.0 0.0 12 11.015446192 1.766 28.9749481855
2 1 1.766 1.766 0.0 12 11.015446192 1.766 28.9502492314
3 1 1.766 0.0 1.766 12 11.015446192 1.766 30.9377750468
4 1 0.0 1.766 1.766 12 11.015446192 1.766 28.8367078383
5 1 3.532 0.0 0.0 12 11.015446192 1.766 30.601884831
6 1 5.298 1.766 0.0 12 11.015446192 1.766 28.7491735765
7 1 5.298 0.0 1.766 12 11.015446192 1.766 30.5900578505
8 1 3.532 1.766 1.766 12 11.015446192 1.766 30.7625112648
9 1 7.064 0.0 0.0 12 11.015446192 1.766 28.6881161855
10 1 8.83 1.766 0.0 12 11.015446192 1.766 26.7534665448
11 1 8.83 0.0 1.766 12 11.015446192 1.766 28.8410331741
12 1 7.064 1.766 1.766 12 11.015446192 1.766 28.6732056053
13 1 10.596 0.0 0.0 12 11.015446192 1.766 26.9961920107
14 1 12.362 1.766 0.0 12 11.015446192 1.766 25.0023310536
15 1 12.362 0.0 1.766 12 11.015446192 1.766 27.2199753862
16 1 10.596 1.766 1.766 12 11.015446192 1.766 26.8376518797
17 1 14.128 0.0 0.0 12 11.015446192 1.766 25.4157620377
18 1 15.894 1.766 0.0 12 11.015446192 1.766 23.4850048415
19 1 15.894 0.0 1.766 12 11.015446192 1.766 25.8145139629
20 1 14.128 1.766 1.766 12 11.015446192 1.766 25.3009675997
21 1 17.66 0.0 0.0 12 11.015446192 1.766 24.1609167239
22 1 19.426 1.766 0.0 12 11.015446192 1.766 22.4011029502
23 1 19.426 0.0 1.766 12 11.015446192 1.766 24.8325007223
24 1 17.66 1.766 1.766 12 11.015446192 1.766 24.0460212008
25 1 21.192 0.0 0.0 12 11.015446192 1.766 23.3771016579
26 1 22.958 1.766 0.0 12 11.015446192 1.766 21.8408658795
27 1 22.958 0.0 1.766 12 11.015446192 1.766 24.3283189124
28 1 21.192 1.766 1.766 12 11.015446192 1.766 23.2583344324
29 1 24.724 0.0 0.0 12 11.015446192 1.766 23.1122892614
30 1 26.49 1.766 0.0 12 11.015446192 1.766 21.844621291
31 1 26.49 0.0 1.766 12 11.015446192 1.766 24.3316904075
32 1 24.724 1.766 1.766 12 11.015446192 1.766 22.9921541738
33 1 28.256 0.0 0.0 12 11.015446192 1.766 23.3841184543
34 1 30.022 1.766 0.0 12 11.015446192 1.766 22.4120856756
35 1 30.022 0.0 1.766 12 11.015446192 1.766 24.8424085601
36 1 28.256 1.766 1.766 12 11.015446192 1.766 23.2653870488
37 1 31.788 0.0 0.0 12 11.015446192 1.766 24.1744932701
38 1 33.554 1.766 0.0 12 11.015446192 1.766 23.502462367
39 1 33.554 0.0 1.766 12 11.015446192 1.766 25.830397133
40 1 31.788 1.766 1.766 12 11.015446192 1.766 24.059662581
41 1 35.32 0.0 0.0 12 11.015446192 1.766 25.4351194581
42 1 37.086 1.766 0.0 12 11.015446192 1.766 25.0475535391
43 1 37.086 0.0 1.766 12 11.015446192 1.766 27.2437812543
44 1 35.32 1.766 1.766 12 11.015446192 1.766 25.3260052218
45 1 38.852 0.0 0.0 12 11.015446192 1.766 27.1004525207
46 1 40.618 1.766 0.0 12 11.015446192 1.766 26.9129271685
47 1 40.618 0.0 1.766 12 11.015446192 1.766 29.0100767023
48 1 38.852 1.766 1.766 12 11.015446192 1.766 26.985231856
49 1 0.0 3.532 0.0 12 11.015446192 1.766 26.8014975604
50 1 1.766 5.298 0.0 12 11.015446192 1.766 26.9143988661
51 1 1.766 3.532 1.766 12 11.015446192 1.766 28.8337094699
52 1 0.0 5.298 1.766 12 11.015446192 1.766 26.7922312381
53 1 3.532 3.532 0.0 12 11.015446192 1.766 28.8000007913
54 1 5.298 5.298 0.0 12 11.015446192 1.766 26.7380637714
55 1 5.298 3.532 1.766 12 11.015446192 1.766 28.6807789811
56 1 3.532 5.298 1.766 12 11.015446192 1.766 28.8859813691
57 1 7.064 3.532 0.0 12 11.015446192 1.766 26.644543756
58 1 8.83 5.298 0.0 12 11.015446192 1.766 24.5533642947
59 1 8.83 3.532 1.766 12 11.015446192 1.766 26.6147104141
60 1 7.064 5.298 1.766 12 11.015446192 1.766 26.6251964583
61 1 10.596 3.532 0.0 12 11.015446192 1.766 24.6687440737
62 1 12.362 5.298 0.0 12 11.015446192 1.766 22.6594254322
63 1 12.362 3.532 1.766 12 11.015446192 1.766 24.8781967425
64 1 10.596 5.298 1.766 12 11.015446192 1.766 24.6375308254
65 1 14.128 3.532 0.0 12 11.015446192 1.766 23.0297266214
66 1 15.894 5.298 0.0 12 11.015446192 1.766 21.1672316426
67 1 15.894 3.532 1.766 12 11.015446192 1.766 23.4900510844
68 1 14.128 5.298 1.766 12 11.015446192 1.766 23.023136448
69 1 17.66 3.532 0.0 12 11.015446192 1.766 21.6703707594
70 1 19.426 5.298 0.0 12 11.015446192 1.766 20.0034874283
71 1 19.426 3.532 1.766 12 11.015446192 1.766 22.4166938694
72 1 17.66 5.298 1.766 12 11.015446192 1.766 21.7230583585
73 1 21.192 3.532 0.0 12 11.015446192 1.766 20.7928822877
74 1 22.958 5.298 0.0 12 11.015446192 1.766 19.3740423835
75 1 22.958 3.532 1.766 12 11.015446192 1.766 21.8568564303
76 1 21.192 5.298 1.766 12 11.015446192 1.766 20.8388913245
77 1 24.724 3.532 0.0 12 11.015446192 1.766 20.4947063119
78 1 26.49 5.298 0.0 12 11.015446192 1.766 19.3782758588
79 1 26.49 3.532 1.766 12 11.015446192 1.766 21.8606090948
80 1 24.724 5.298 1.766 12 11.015446192 1.766 20.5323541471
81 1 28.256 3.532 0.0 12 11.015446192 1.766 20.8007708462
82 1 30.022 5.298 0.0 12 11.015446192 1.766 20.0157857762
83 1 30.022 3.532 1.766 12 11.015446192 1.766 22.42766896
84 1 28.256 5.298 1.766 12 11.015446192 1.766 20.828965169
85 1 31.788 3.532 0.0 12 11.015446192 1.766 21.6855066064
86 1 33.554 5.298 0.0 12 11.015446192 1.766 21.2295980466
87 1 33.554 3.532 1.766 12 11.015446192 1.766 23.5173231461
88 1 31.788 5.298 1.766 12 11.015446192 1.766 21.7040102561
89 1 35.32 3.532 0.0 12 11.015446192 1.766 23.0824689701
90 1 37.086 5.298 0.0 12 11.015446192 1.766 22.8532350932
91 1 37.086 3.532 1.766 12 11.015446192 1.766 25.0457528251
92 1 35.32 5.298 1.766 12 11.015446192 1.766 23.0918249687
93 1 38.852 3.532 0.0 12 11.015446192 1.766 24.8405635483
94 1 40.618 5.298 0.0 12 11.015446192 1.766 24.718386606
95 1 40.618 3.532 1.766 12 11.015446192 1.766 26.7954580456
96 1 38.852 5.298 1.766 12 11.015446192 1.766 24.8341080912
97 1 0.0 7.064 0.0 12 11.015446192 1.766 24.8407574612
98 1 1.766 8.83 0.0 12 11.015446192 1.766 25.1100516101
99 1 1.766 7.064 1.766 12 11.015446192 1.766 27.0122412159
100 1 0.0 8.83 1.766 12 11.015446192 1.766 25.0732832166
101 1 3.532 7.064 0.0 12 11.015446192 1.766 27.0386286172
102 1 5.298 8.83 0.0 12 11.015446192 1.766 25.0566632938
103 1 5.298 7.064 1.766 12 11.015446192 1.766 26.8688367157
104 1 3.532 8.83 1.766 12 11.015446192 1.766 27.3095297134
105 1 7.064 7.064 0.0 12 11.015446192 1.766 24.6901946962
106 1 8.83 8.83 0.0 12 11.015446192 1.766 22.6840497474
107 1 8.83 7.064 1.766 12 11.015446192 1.766 24.6488580098
108 1 7.064 8.83 1.766 12 11.015446192 1.766 24.9118345611
109 1 10.596 7.064 0.0 12 11.015446192 1.766 22.5337596714
110 1 12.362 8.83 0.0 12 11.015446192 1.766 20.619116753
111 1 12.362 7.064 1.766 12 11.015446192 1.766 22.7628658985
112 1 10.596 8.83 1.766 12 11.015446192 1.766 22.7751254646
113 1 14.128 7.064 0.0 12 11.015446192 1.766 20.7563776141
114 1 15.894 8.83 0.0 12 11.015446192 1.766 18.9691517504
115 1 15.894 7.064 1.766 12 11.015446192 1.766 21.2364268267
116 1 14.128 8.83 1.766 12 11.015446192 1.766 21.004883051
117 1 17.66 7.064 0.0 12 11.015446192 1.766 19.3786740271
118 1 19.426 8.83 0.0 12 11.015446192 1.766 17.6341258075
119 1 19.426 7.064 1.766 12 11.015446192 1.766 20.0258573092
120 1 17.66 8.83 1.766 12 11.015446192 1.766 19.5009116275
121 1 21.192 7.064 0.0 12 11.015446192 1.766 18.3833977181
122 1 22.958 8.83 0.0 12 11.015446192 1.766 16.905784341
123 1 22.958 7.064 1.766 12 11.015446192 1.766 19.3875762322
124 1 21.192 8.83 1.766 12 11.015446192 1.766 18.5109070953
125 1 24.724 7.064 0.0 12 11.015446192 1.766 18.0351736018
126 1 26.49 8.83 0.0 12 11.015446192 1.766 16.8996669603
127 1 26.49 7.064 1.766 12 11.015446192 1.766 19.3822421651
128 1 24.724 8.83 1.766 12 11.015446192 1.766 18.1651274887
129 1 28.256 7.064 0.0 12 11.015446192 1.766 18.3721449492
130 1 30.022 8.83 0.0 12 11.015446192 1.766 17.6165260638
131 1 30.022 7.064 1.766 12 11.015446192 1.766 20.0103612794
132 1 28.256 8.83 1.766 12 11.015446192 1.766 18.4997318864
133 1 31.788 7.064 0.0 12 11.015446192 1.766 19.3585635113
134 1 33.554 8.83 0.0 12 11.015446192 1.766 18.9745957992
135 1 33.554 7.064 1.766 12 11.015446192 1.766 21.2157454198
136 1 31.788 8.83 1.766 12 11.015446192 1.766 19.479690733
137 1 35.32 7.064 0.0 12 11.015446192 1.766 20.8976200412
138 1 37.086 8.83 0.0 12 11.015446192 1.766 20.8048061063
139 1 37.086 7.064 1.766 12 11.015446192 1.766 22.9039694248
140 1 35.32 8.83 1.766 12 11.015446192 1.766 21.0149154231
141 1 38.852 7.064 0.0 12 11.015446192 1.766 22.7189794076
142 1 40.618 8.83 0.0 12 11.015446192 1.766 22.8520594294
143 1 40.618 7.064 1.766 12 11.015446192 1.766 24.8342411125
144 1 38.852 8.83 1.766 12 11.015446192 1.766 22.9579612844
145 1 0.0 10.596 0.0 12 11.015446192 1.766 23.1513707552
146 1 1.766 12.362 0.0 12 11.015446192 1.766 23.5726577373
147 1 1.766 10.596 1.766 12 11.015446192 1.766 25.3980365193
148 1 0.0 12.362 1.766 12 11.015446192 1.766 23.5962948131
149 1 3.532 10.596 0.0 12 11.015446192 1.766 25.4986830038
150 1 5.298 12.362 0.0 12 11.015446192 1.766 23.6991581051
151 1 5.298 10.596 1.766 12 11.015446192 1.766 25.4180481093
152 1 3.532 12.362 1.766 12 11.015446192 1.766 25.9028967715
153 1 7.064 10.596 0.0 12 11.015446192 1.766 23.1049112735
154 1 8.83 12.362 0.0 12 11.015446192 1.766 21.2418119684
155 1 8.83 10.596 1.766 12 11.015446192 1.766 23.0594804786
156 1 7.064 12.362 1.766 12 11.015446192 1.766 23.6060932558
157 1 10.596 10.596 0.0 12 11.015446192 1.766 20.7832568114
158 1 12.362 12.362 0.0 12 11.015446192 1.766 19.0198842329
159 1 12.362 10.596 1.766 12 11.015446192 1.766 21.0311937609
160 1 10.596 12.362 1.766 12 11.015446192 1.766 21.326193569
161 1 14.128 10.596 0.0 12 11.015446192 1.766 18.8414397305
162 1 15.894 12.362 0.0 12 11.015446192 1.766 17.1558181333
163 1 15.894 10.596 1.766 12 11.015446192 1.766 19.2875911311
164 1 14.128 12.362 1.766 12 11.015446192 1.766 19.3582473005
165 1 17.66 10.596 0.0 12 11.015446192 1.766 17.2177378982
166 1 19.426 12.362 0.0 12 11.015446192 1.766 15.6303144835
167 1 19.426 10.596 1.766 12 11.015446192 1.766 17.941690969
168 1 17.66 12.362 1.766 12 11.015446192 1.766 17.7095988707
169 1 21.192 10.596 0.0 12 11.015446192 1.766 16.0878409216
170 1 22.958 12.362 0.0 12 11.015446192 1.766 14.8037117656
171 1 22.958 10.596 1.766 12 11.015446192 1.766 17.2263584664
172 1 21.192 12.362 1.766 12 11.015446192 1.766 16.6131881151
173 1 24.724 10.596 0.0 12 11.015446192 1.766 15.6887475824
174 1 26.49 12.362 0.0 12 11.015446192 1.766 14.7967253549
175 1 26.49 10.596 1.766 12 11.015446192 1.766 17.2203549674
176 1 24.724 12.362 1.766 12 11.015446192 1.766 16.2270205071
177 1 28.256 10.596 0.0 12 11.015446192 1.766 16.074981303
178 1 30.022 12.362 0.0 12 11.015446192 1.766 15.6104557401
179 1 30.022 10.596 1.766 12 11.015446192 1.766 17.9243932223
180 1 28.256 12.362 1.766 12 11.015446192 1.766 16.6007354573
181 1 31.788 10.596 0.0 12 11.015446192 1.766 17.1936992843
182 1 33.554 12.362 0.0 12 11.015446192 1.766 17.1283281029
183 1 33.554 10.596 1.766 12 11.015446192 1.766 19.2607675749
184 1 31.788 12.362 1.766 12 11.015446192 1.766 17.6862287928
185 1 35.32 10.596 0.0 12 11.015446192 1.766 18.9153803627
186 1 37.086 12.362 0.0 12 11.015446192 1.766 19.1681996191
187 1 37.086 10.596 1.766 12 11.015446192 1.766 21.1097255018
188 1 35.32 12.362 1.766 12 11.015446192 1.766 19.3641681489
189 1 38.852 10.596 0.0 12 11.015446192 1.766 20.9723522065
190 1 40.618 12.362 0.0 12 11.015446192 1.766 21.3054456614
191 1 40.618 10.596 1.766 12 11.015446192 1.766 23.2409693863
192 1 38.852 12.362 1.766 12 11.015446192 1.766 21.4512289127
193 1 0.0 14.128 0.0 12 11.015446192 1.766 21.7631012191
194 1 1.766 15.894 0.0 12 11.015446192 1.766 22.4893283313
195 1 1.766 14.128 1.766 12 11.015446192 1.766 24.1388676418
196 1 0.0 15.894 1.766 12 11.015446192 1.766 22.5141028002
197 1 3.532 14.128 0.0 12 11.015446192 1.766 24.2447418407
198 1 5.298 15.894 0.0 12 11.015446192 1.766 22.6314282914
199 1 5.298 14.128 1.766 12 11.015446192 1.766 24.2920125085
200 1 3.532 15.894 1.766 12 11.015446192 1.766 24.9210705458
201 1 7.064 14.128 0.0 12 11.015446192 1.766 21.9003650575
202 1 8.83 15.894 0.0 12 11.015446192 1.766 20.2491376562
203 1 8.83 14.128 1.766 12 11.015446192 1.766 21.8851908492
204 1 7.064 15.894 1.766 12 11.015446192 1.766 22.680471187
205 1 10.596 14.128 0.0 12 11.015446192 1.766 19.5028791626
206 1 12.362 15.894 0.0 12 11.015446192 1.766 17.7891467233
207 1 12.362 14.128 1.766 12 11.015446192 1.766 19.6205903142
208 1 10.596 15.894 1.766 12 11.015446192 1.766 20.1863710233
209 1 14.128 14.128 0.0 12 11.015446192 1.766 17.3223700001
210 1 15.894 15.894 0.0 12 11.015446192 1.766 15.6999710577
211 1 15.894 14.128 1.766 12 11.015446192 1.766 17.7483214516
212 1 14.128 15.894 1.766 12 11.015446192 1.766 18.0291403334
213 1 17.66 14.128 0.0 12 11.015446192 1.766 15.5556766378
214 1 19.426 15.894 0.0 12 11.015446192 1.766 14.1914326904
215 1 19.426 14.128 1.766 12 11.015446192 1.766 16.3622625784
216 1 17.66 15.894 1.766 12 11.015446192 1.766 16.3572697976
217 1 21.192 14.128 0.0 12 11.015446192 1.766 14.3051734479
218 1 22.958 15.894 0.0 12 11.015446192 1.766 13.3208208417
219 1 22.958 14.128 1.766 12 11.015446192 1.766 15.5745557841
220 1 21.192 15.894 1.766 12 11.015446192 1.766 15.3007528896
221 1 24.724 14.128 0.0 12 11.015446192 1.766 13.854824523
222 1 26.49 15.894 0.0 12 11.015446192 1.766 13.3130562638
223 1 26.49 14.128 1.766 12 11.015446192 1.766 15.5679153087
224 1 24.724 15.894 1.766 12 11.015446192 1.766 14.8865906236
225 1 28.256 14.128 0.0 12 11.015446192 1.766 14.2907097707
226 1 30.022 15.894 0.0 12 11.015446192 1.766 14.2119919178
227 1 30.022 14.128 1.766 12 11.015446192 1.766 16.3432932497
228 1 28.256 15.894 1.766 12 11.015446192 1.766 15.2930965988
229 1 31.788 14.128 0.0 12 11.015446192 1.766 15.5384251756
230 1 33.554 15.894 0.0 12 11.015446192 1.766 15.7915685593
231 1 33.554 14.128 1.766 12 11.015446192 1.766 17.7985572918
232 1 31.788 15.894 1.766 12 11.015446192 1.766 16.450757496
233 1 35.32 14.128 0.0 12 11.015446192 1.766 17.3996073196
234 1 37.086 15.894 0.0 12 11.015446192 1.766 17.8624573517
235 1 37.086 14.128 1.766 12 11.015446192 1.766 19.6998815655
236 1 35.32 15.894 1.766 12 11.015446192 1.766 18.1188983083
237 1 38.852 14.128 0.0 12 11.015446192 1.766 19.6041534582
238 1 40.618 15.894 0.0 12 11.015446192 1.766 20.1014919979
239 1 40.618 14.128 1.766 12 11.015446192 1.766 21.9313707455
240 1 38.852 15.894 1.766 12 11.015446192 1.766 20.2598925215
241 1 0.0 17.66 0.0 12 11.015446192 1.766 20.8855762349
242 1 1.766 19.426 0.0 12 11.015446192 1.766 21.9275997953
243 1 1.766 17.66 1.766 12 11.015446192 1.766 23.3507955115
244 1 0.0 19.426 1.766 12 11.015446192 1.766 21.9530081968
245 1 3.532 17.66 0.0 12 11.015446192 1.766 23.4602264889
246 1 5.298 19.426 0.0 12 11.015446192 1.766 22.0675102986
247 1 5.298 17.66 1.766 12 11.015446192 1.766 23.5100050843
248 1 3.532 19.426 1.766 12 11.015446192 1.766 24.4153537992
249 1 7.064 17.66 0.0 12 11.015446192 1.766 21.0456095027
250 1 8.83 19.426 0.0 12 11.015446192 1.766 19.6501612252
251 1 8.83 17.66 1.766 12 11.015446192 1.766 21.0353656945
252 1 7.064 19.426 1.766 12 11.015446192 1.766 22.1290303425
253 1 10.596 17.66 0.0 12 11.015446192 1.766 18.5799156067
254 1 12.362 19.426 0.0 12 11.015446192 1.766 17.0743407731
255 1 12.362 17.66 1.766 12 11.015446192 1.766 18.6432806118
256 1 10.596 19.426 1.766 12 11.015446192 1.766 19.5593697952
257 1 14.128 17.66 0.0 12 11.015446192 1.766 16.2102927187
258 1 15.894 19.426 0.0 12 11.015446192 1.766 14.8851759448
259 1 15.894 17.66 1.766 12 11.015446192 1.766 16.6615504093
260 1 14.128 19.426 1.766 12 11.015446192 1.766 17.3242394596
261 1 17.66 17.66 0.0 12 11.015446192 1.766 14.327734088
262 1 19.426 19.426 0.0 12 11.015446192 1.766 13.2873571856
263 1 19.426 17.66 1.766 12 11.015446192 1.766 15.2509888241
264 1 17.66 19.426 1.766 12 11.015446192 1.766 15.5768946496
265 1 21.192 17.66 0.0 12 11.015446192 1.766 13.143225866
266 1 22.958 19.426 0.0 12 11.015446192 1.766 12.5095686196
267 1 22.958 17.66 1.766 12 11.015446192 1.766 14.573004381
268 1 21.192 19.426 1.766 12 11.015446192 1.766 14.4948290434
269 1 24.724 17.66 0.0 12 11.015446192 1.766 12.7563933939
270 1 26.49 19.426 0.0 12 11.015446192 1.766 12.6366463719
271 1 26.49 17.66 1.766 12 11.015446192 1.766 14.5989519115
272 1 24.724 19.426 1.766 12 11.015446192 1.766 14.230619771
273 1 28.256 17.66 0.0 12 11.015446192 1.766 13.2252035424
274 1 30.022 19.426 0.0 12 11.015446192 1.766 13.4049251391
275 1 30.022 17.66 1.766 12 11.015446192 1.766 15.369762676
276 1 28.256 19.426 1.766 12 11.015446192 1.766 14.6242661098
277 1 31.788 17.66 0.0 12 11.015446192 1.766 14.4324397028
278 1 33.554 19.426 0.0 12 11.015446192 1.766 14.9811786941
279 1 33.554 17.66 1.766 12 11.015446192 1.766 16.7624175499
280 1 31.788 19.426 1.766 12 11.015446192 1.766 15.6887804602
281 1 35.32 17.66 0.0 12 11.015446192 1.766 16.2946014635
282 1 37.086 19.426 0.0 12 11.015446192 1.766 17.1502029185
283 1 37.086 17.66 1.766 12 11.015446192 1.766 18.7262486152
284 1 35.32 19.426 1.766 12 11.015446192 1.766 17.4171339034
285 1 38.852 17.66 0.0 12 11.015446192 1.766 18.627463875
286 1 40.618 19.426 0.0 12 11.015446192 1.766 19.4709970092
287 1 40.618 17.66 1.766 12 11.015446192 1.766 21.060858073
288 1 38.852 19.426 1.766 12 11.015446192 1.766 19.6347987636
289 1 0.0 21.192 0.0 12 11.015446192 1.766 20.5847531599
290 1 1.766 22.958 0.0 12 11.015446192 1.766 21.9275950522
291 1 1.766 21.192 1.766 12 11.015446192 1.766 23.0821233644
292 1 0.0 22.958 1.766 12 11.015446192 1.766 21.9530034592
293 1 3.532 21.192 0.0 12 11.015446192 1.766 23.1928220556
294 1 5.298 22.958 0.0 12 11.015446192 1.766 22.0616981
295 1 5.298 21.192 1.766 12 11.015446192 1.766 23.2376596786
296 1 3.532 22.958 1.766 12 11.015446192 1.766 24.4153495394
297 1 7.064 21.192 0.0 12 11.015446192 1.766 20.7409297674
298 1 8.83 22.958 0.0 12 11.015446192 1.766 19.6436337894
299 1 8.83 21.192 1.766 12 11.015446192 1.766 20.7374300625
300 1 7.064 22.958 1.766 12 11.015446192 1.766 22.1232343064
301 1 10.596 21.192 0.0 12 11.015446192 1.766 18.2419203937
302 1 12.362 22.958 0.0 12 11.015446192 1.766 17.0752022691
303 1 12.362 21.192 1.766 12 11.015446192 1.766 18.3064553551
304 1 10.596 22.958 1.766 12 11.015446192 1.766 19.5601218421
305 1 14.128 21.192 0.0 12 11.015446192 1.766 15.8217567204
306 1 15.894 22.958 0.0 12 11.015446192 1.766 14.8861641332
307 1 15.894 21.192 1.766 12 11.015446192 1.766 16.283785117
308 1 14.128 22.958 1.766 12 11.015446192 1.766 17.3250885293
309 1 17.66 21.192 0.0 12 11.015446192 1.766 13.8866252124
310 1 19.426 22.958 0.0 12 11.015446192 1.766 13.2884641954
311 1 19.426 21.192 1.766 12 11.015446192 1.766 14.8373533963
312 1 17.66 22.958 1.766 12 11.015446192 1.766 15.5778389586
313 1 21.192 21.192 0.0 12 11.015446192 1.766 12.6609155222
314 1 22.958 22.958 0.0 12 11.015446192 1.766 12.510744452
315 1 22.958 21.192 1.766 12 11.015446192 1.766 14.1450522049
316 1 21.192 22.958 1.766 12 11.015446192 1.766 14.495843842
317 1 24.724 21.192 0.0 12 11.015446192 1.766 12.3575584939
318 1 26.49 22.958 0.0 12 11.015446192 1.766 12.6352162528
319 1 26.49 21.192 1.766 12 11.015446192 1.766 14.2773626859
320 1 24.724 22.958 1.766 12 11.015446192 1.766 14.2316534093
321 1 28.256 21.192 0.0 12 11.015446192 1.766 12.789204205
322 1 30.022 22.958 0.0 12 11.015446192 1.766 13.4053774094
323 1 30.022 21.192 1.766 12 11.015446192 1.766 14.9590122181
324 1 28.256 22.958 1.766 12 11.015446192 1.766 14.6246806719
325 1 31.788 21.192 0.0 12 11.015446192 1.766 13.9940136229
326 1 33.554 22.958 0.0 12 11.015446192 1.766 14.9815833799
327 1 33.554 21.192 1.766 12 11.015446192 1.766 16.3864500006
328 1 31.788 22.958 1.766 12 11.015446192 1.766 15.6891668942
329 1 35.32 21.192 0.0 12 11.015446192 1.766 15.9075811598
330 1 37.086 22.958 0.0 12 11.015446192 1.766 17.1505564239
331 1 37.086 21.192 1.766 12 11.015446192 1.766 18.3904727699
332 1 35.32 22.958 1.766 12 11.015446192 1.766 17.4174819912
333 1 38.852 21.192 0.0 12 11.015446192 1.766 18.2895374027
334 1 40.618 22.958 0.0 12 11.015446192 1.766 19.4709916677
335 1 40.618 21.192 1.766 12 11.015446192 1.766 20.7625747623
336 1 38.852 22.958 1.766 12 11.015446192 1.766 19.635107537
337 1 0.0 24.724 0.0 12 11.015446192 1.766 20.8855662754
338 1 1.766 26.49 0.0 12 11.015446192 1.766 22.4893144574
339 1 1.766 24.724 1.766 12 11.015446192 1.766 23.3507866035
340 1 0.0 26.49 1.766 12 11.015446192 1.766 22.5140889416
341 1 3.532 24.724 0.0 12 11.015446192 1.766 23.4602176225
342 1 5.298 26.49 0.0 12 11.015446192 1.766 22.6144220207
343 1 5.298 24.724 1.766 12 11.015446192 1.766 23.4990928254
344 1 3.532 26.49 1.766 12 11.015446192 1.766 24.9210580257
345 1 7.064 24.724 0.0 12 11.015446192 1.766 21.03341874
346 1 8.83 26.49 0.0 12 11.015446192 1.766 20.2305265884
347 1 8.83 24.724 1.766 12 11.015446192 1.766 21.0367642305
348 1 7.064 26.49 1.766 12 11.015446192 1.766 22.6633737638
349 1 10.596 24.724 0.0 12 11.015446192 1.766 18.5814989531
350 1 12.362 26.49 0.0 12 11.015446192 1.766 17.7916272506
351 1 12.362 24.724 1.766 12 11.015446192 1.766 18.6448585771
352 1 10.596 26.49 1.766 12 11.015446192 1.766 20.1885570107
353 1 14.128 24.724 0.0 12 11.015446192 1.766 16.2121074945
354 1 15.894 26.49 0.0 12 11.015446192 1.766 15.7027816102
355 1 15.894 24.724 1.766 12 11.015446192 1.766 16.6633160395
356 1 14.128 26.49 1.766 12 11.015446192 1.766 18.0315878459
357 1 17.66 24.724 0.0 12 11.015446192 1.766 14.3297872798
358 1 19.426 26.49 0.0 12 11.015446192 1.766 14.1923093893
359 1 19.426 24.724 1.766 12 11.015446192 1.766 15.2529177374
360 1 17.66 26.49 1.766 12 11.015446192 1.766 16.3599674301
361 1 21.192 24.724 0.0 12 11.015446192 1.766 13.1454640677
362 1 22.958 26.49 0.0 12 11.015446192 1.766 13.3158966376
363 1 22.958 24.724 1.766 12 11.015446192 1.766 14.5725556339
364 1 21.192 26.49 1.766 12 11.015446192 1.766 15.2973320229
365 1 24.724 24.724 0.0 12 11.015446192 1.766 12.7514818846
366 1 26.49 26.49 0.0 12 11.015446192 1.766 13.3100867995
367 1 26.49 24.724 1.766 12 11.015446192 1.766 14.5948190423
368 1 24.724 26.49 1.766 12 11.015446192 1.766 14.8823400004
369 1 28.256 24.724 0.0 12 11.015446192 1.766 13.2231671726
370 1 30.022 26.49 0.0 12 11.015446192 1.766 14.2110438025
371 1 30.022 24.724 1.766 12 11.015446192 1.766 15.3703399087
372 1 28.256 26.49 1.766 12 11.015446192 1.766 15.2906630083
373 1 31.788 24.724 0.0 12 11.015446192 1.766 14.4332798345
374 1 33.554 26.49 0.0 12 11.015446192 1.766 15.7927202873
375 1 33.554 24.724 1.766 12 11.015446192 1.766 16.7631409087
376 1 31.788 26.49 1.766 12 11.015446192 1.766 16.4509331502
377 1 35.32 24.724 0.0 12 11.015446192 1.766 16.2953455888
378 1 37.086 26.49 0.0 12 11.015446192 1.766 17.8634755619
379 1 37.086 24.724 1.766 12 11.015446192 1.766 18.7268961177
380 1 35.32 26.49 1.766 12 11.015446192 1.766 18.1199021083
381 1 38.852 24.724 0.0 12 11.015446192 1.766 18.6274527082
382 1 40.618 26.49 0.0 12 11.015446192 1.766 20.101476476
383 1 40.618 24.724 1.766 12 11.015446192 1.766 21.0608481964
384 1 38.852 26.49 1.766 12 11.015446192 1.766 20.2607902485
385 1 0.0 28.256 0.0 12 11.015446192 1.766 21.7630821033
386 1 1.766 30.022 0.0 12 11.015446192 1.766 23.5726356769
387 1 1.766 28.256 1.766 12 11.015446192 1.766 24.1388504074
388 1 0.0 30.022 1.766 12 11.015446192 1.766 23.5962727748
389 1 3.532 28.256 0.0 12 11.015446192 1.766 24.2447246816
390 1 5.298 30.022 0.0 12 11.015446192 1.766 23.5734726596
391 1 5.298 28.256 1.766 12 11.015446192 1.766 24.2714947968
392 1 3.532 30.022 1.766 12 11.015446192 1.766 25.9028766957
393 1 7.064 28.256 0.0 12 11.015446192 1.766 21.8754968957
394 1 8.83 30.022 0.0 12 11.015446192 1.766 21.2113330103
395 1 8.83 28.256 1.766 12 11.015446192 1.766 21.8764208675
396 1 7.064 30.022 1.766 12 11.015446192 1.766 23.5787837847
397 1 10.596 28.256 0.0 12 11.015446192 1.766 19.4888917321
398 1 12.362 30.022 0.0 12 11.015446192 1.766 19.0009799254
399 1 12.362 28.256 1.766 12 11.015446192 1.766 19.6235889443
400 1 10.596 30.022 1.766 12 11.015446192 1.766 21.3120282868
401 1 14.128 28.256 0.0 12 11.015446192 1.766 17.3215826171
402 1 15.894 30.022 0.0 12 11.015446192 1.766 17.1479011571
403 1 15.894 28.256 1.766 12 11.015446192 1.766 17.7516363507
404 1 14.128 30.022 1.766 12 11.015446192 1.766 19.3568939012
405 1 17.66 28.256 0.0 12 11.015446192 1.766 15.5531086232
406 1 19.426 30.022 0.0 12 11.015446192 1.766 15.6257416234
407 1 19.426 28.256 1.766 12 11.015446192 1.766 16.3566228039
408 1 17.66 30.022 1.766 12 11.015446192 1.766 17.7042221675
409 1 21.192 28.256 0.0 12 11.015446192 1.766 14.3003825219
410 1 22.958 30.022 0.0 12 11.015446192 1.766 14.8006439261
411 1 22.958 28.256 1.766 12 11.015446192 1.766 15.570304072
412 1 21.192 30.022 1.766 12 11.015446192 1.766 16.6090251943
413 1 24.724 28.256 0.0 12 11.015446192 1.766 13.8517588637
414 1 26.49 30.022 0.0 12 11.015446192 1.766 14.7954171275
415 1 26.49 28.256 1.766 12 11.015446192 1.766 15.5653357254
416 1 24.724 30.022 1.766 12 11.015446192 1.766 16.2243644329
417 1 28.256 28.256 0.0 12 11.015446192 1.766 14.2895610488
418 1 30.022 30.022 0.0 12 11.015446192 1.766 15.6108847707
419 1 30.022 28.256 1.766 12 11.015446192 1.766 16.3424304065
420 1 28.256 30.022 1.766 12 11.015446192 1.766 16.5997088107
421 1 31.788 28.256 0.0 12 11.015446192 1.766 15.5390454763
422 1 33.554 30.022 0.0 12 11.015446192 1.766 17.130240123
423 1 33.554 28.256 1.766 12 11.015446192 1.766 17.7992647774
424 1 31.788 30.022 1.766 12 11.015446192 1.766 17.6867383072
425 1 35.32 28.256 0.0 12 11.015446192 1.766 17.4011778043
426 1 37.086 30.022 0.0 12 11.015446192 1.766 19.1735081809
427 1 37.086 28.256 1.766 12 11.015446192 1.766 19.70111255
428 1 35.32 30.022 1.766 12 11.015446192 1.766 19.3659789139
429 1 38.852 28.256 0.0 12 11.015446192 1.766 19.6057158957
430 1 40.618 30.022 0.0 12 11.015446192 1.766 21.3063219929
431 1 40.618 28.256 1.766 12 11.015446192 1.766 21.9313517764
432 1 38.852 30.022 1.766 12 11.015446192 1.766 21.4543593902
433 1 0.0 31.788 0.0 12 11.015446192 1.766 23.1517677637
434 1 1.766 33.554 0.0 12 11.015446192 1.766 25.1101391622
435 1 1.766 31.788 1.766 12 11.015446192 1.766 25.3980119494
436 1 0.0 33.554 1.766 12 11.015446192 1.766 25.0807839115
437 1 3.532 31.788 0.0 12 11.015446192 1.766 25.351398534
438 1 5.298 33.554 0.0 12 11.015446192 1.766 24.8235947657
439 1 5.298 31.788 1.766 12 11.015446192 1.766 25.3225748501
440 1 3.532 33.554 1.766 12 11.015446192 1.766 27.1144241709
441 1 7.064 31.788 0.0 12 11.015446192 1.766 22.9925502465
442 1 8.83 33.554 0.0 12 11.015446192 1.766 22.6359060093
443 1 8.83 31.788 1.766 12 11.015446192 1.766 23.0385093593
444 1 7.064 33.554 1.766 12 11.015446192 1.766 24.8702286005
445 1 10.596 31.788 0.0 12 11.015446192 1.766 20.7626231798
446 1 12.362 33.554 0.0 12 11.015446192 1.766 20.6001514712
447 1 12.362 31.788 1.766 12 11.015446192 1.766 21.0125845864
448 1 10.596 33.554 1.766 12 11.015446192 1.766 22.7555514288
449 1 14.128 31.788 0.0 12 11.015446192 1.766 18.8233191231
450 1 15.894 33.554 0.0 12 11.015446192 1.766 18.9578351169
451 1 15.894 31.788 1.766 12 11.015446192 1.766 19.2825019011
452 1 14.128 33.554 1.766 12 11.015446192 1.766 20.9916205107
453 1 17.66 31.788 0.0 12 11.015446192 1.766 17.2134158809
454 1 19.426 33.554 0.0 12 11.015446192 1.766 17.6312168226
455 1 19.426 31.788 1.766 12 11.015446192 1.766 17.937672394
456 1 17.66 33.554 1.766 12 11.015446192 1.766 19.4970635718
457 1 21.192 31.788 0.0 12 11.015446192 1.766 16.0848351449
458 1 22.958 33.554 0.0 12 11.015446192 1.766 16.9042913485
459 1 22.958 31.788 1.766 12 11.015446192 1.766 17.2236857339
460 1 21.192 33.554 1.766 12 11.015446192 1.766 18.5082609467
461 1 24.724 31.788 0.0 12 11.015446192 1.766 15.6873262535
462 1 26.49 33.554 0.0 12 11.015446192 1.766 16.8997151852
463 1 26.49 31.788 1.766 12 11.015446192 1.766 17.219194453
464 1 24.724 33.554 1.766 12 11.015446192 1.766 18.1638654096
465 1 28.256 31.788 0.0 12 11.015446192 1.766 16.07521497
466 1 30.022 33.554 0.0 12 11.015446192 1.766 17.6180512171
467 1 30.022 31.788 1.766 12 11.015446192 1.766 17.9247318796
468 1 28.256 33.554 1.766 12 11.015446192 1.766 18.4999010258
469 1 31.788 31.788 0.0 12 11.015446192 1.766 17.195432989
470 1 33.554 33.554 0.0 12 11.015446192 1.766 18.9773847523
471 1 33.554 31.788 1.766 12 11.015446192 1.766 19.2624353679
472 1 31.788 33.554 1.766 12 11.015446192 1.766 19.4811888065
473 1 35.32 31.788 0.0 12 11.015446192 1.766 18.9183335161
474 1 37.086 33.554 0.0 12 11.015446192 1.766 20.8122452054
475 1 37.086 31.788 1.766 12 11.015446192 1.766 21.1124813239
476 1 35.32 33.554 1.766 12 11.015446192 1.766 21.0175437352
477 1 38.852 31.788 0.0 12 11.015446192 1.766 20.9839793621
478 1 40.618 33.554 0.0 12 11.015446192 1.766 22.8613787463
479 1 40.618 31.788 1.766 12 11.015446192 1.766 23.2508634385
480 1 38.852 33.554 1.766 12 11.015446192 1.766 22.9655027156
481 1 0.0 35.32 0.0 12 11.015446192 1.766 24.8474125449
482 1 1.766 37.086 0.0 12 11.015446192 1.766 26.9187705175
483 1 1.766 35.32 1.766 12 11.015446192 1.766 27.0177446363
484 1 0.0 37.086 1.766 12 11.015446192 1.766 26.8001645592
485 1 3.532 35.32 0.0 12 11.015446192 1.766 26.7520218954
486 1 5.298 37.086 0.0 12 11.015446192 1.766 26.4889250245
487 1 5.298 35.32 1.766 12 11.015446192 1.766 26.7361741634
488 1 3.532 37.086 1.766 12 11.015446192 1.766 28.6468897086
489 1 7.064 35.32 0.0 12 11.015446192 1.766 24.5385807577
490 1 8.83 37.086 0.0 12 11.015446192 1.766 24.4802998751
491 1 8.83 35.32 1.766 12 11.015446192 1.766 24.6286649105
492 1 7.064 37.086 1.766 12 11.015446192 1.766 26.561904014
493 1 10.596 35.32 0.0 12 11.015446192 1.766 22.5135182925
494 1 12.362 37.086 0.0 12 11.015446192 1.766 22.6416630527
495 1 12.362 35.32 1.766 12 11.015446192 1.766 22.7449412432
496 1 10.596 37.086 1.766 12 11.015446192 1.766 24.6189720741
497 1 14.128 35.32 0.0 12 11.015446192 1.766 20.7393583306
498 1 15.894 37.086 0.0 12 11.015446192 1.766 21.1742945879
499 1 15.894 35.32 1.766 12 11.015446192 1.766 21.229933919
500 1 14.128 37.086 1.766 12 11.015446192 1.766 23.0070556023
501 1 17.66 35.32 0.0 12 11.015446192 1.766 19.3742085263
502 1 19.426 37.086 0.0 12 11.015446192 1.766 20.0625486918
503 1 19.426 35.32 1.766 12 11.015446192 1.766 20.0232644761
504 1 17.66 37.086 1.766 12 11.015446192 1.766 21.7205327119
505 1 21.192 35.32 0.0 12 11.015446192 1.766 18.3818647314
506 1 22.958 37.086 0.0 12 11.015446192 1.766 19.4268144419
507 1 22.958 35.32 1.766 12 11.015446192 1.766 19.3862420192
508 1 21.192 37.086 1.766 12 11.015446192 1.766 20.8375088875
509 1 24.724 35.32 0.0 12 11.015446192 1.766 18.0350557069
510 1 26.49 37.086 0.0 12 11.015446192 1.766 19.4228326128
511 1 26.49 35.32 1.766 12 11.015446192 1.766 19.3822518551
512 1 24.724 37.086 1.766 12 11.015446192 1.766 20.5322200452
513 1 28.256 35.32 0.0 12 11.015446192 1.766 18.3734473003
514 1 30.022 37.086 0.0 12 11.015446192 1.766 20.0509795784
515 1 30.022 35.32 1.766 12 11.015446192 1.766 20.0116726518
516 1 28.256 37.086 1.766 12 11.015446192 1.766 20.8300838052
517 1 31.788 35.32 0.0 12 11.015446192 1.766 19.3611452411
518 1 33.554 37.086 0.0 12 11.015446192 1.766 21.2552860579
519 1 33.554 35.32 1.766 12 11.015446192 1.766 21.2182102372
520 1 31.788 37.086 1.766 12 11.015446192 1.766 21.7062841288
521 1 35.32 35.32 0.0 12 11.015446192 1.766 20.9021228294
522 1 37.086 37.086 0.0 12 11.015446192 1.766 22.8647496649
523 1 37.086 35.32 1.766 12 11.015446192 1.766 22.9083122663
524 1 35.32 37.086 1.766 12 11.015446192 1.766 23.0950903446
525 1 38.852 35.32 0.0 12 11.015446192 1.766 22.7285344961
526 1 40.618 37.086 0.0 12 11.015446192 1.766 24.7252411987
527 1 40.618 35.32 1.766 12 11.015446192 1.766 24.844718481
528 1 38.852 37.086 1.766 12 11.015446192 1.766 24.8426445693
529 1 0.0 38.852 0.0 12 11.015446192 1.766 26.8060412656
530 1 1.766 40.618 0.0 12 11.015446192 1.766 28.9426228834
531 1 1.766 38.852 1.766 12 11.015446192 1.766 28.8394283646
532 1 0.0 40.618 1.766 12 11.015446192 1.766 28.8425689312
533 1 3.532 38.852 0.0 12 11.015446192 1.766 28.5236391674
534 1 5.298 40.618 0.0 12 11.015446192 1.766 28.4967627777
535 1 5.298 38.852 1.766 12 11.015446192 1.766 28.5109500971
536 1 3.532 40.618 1.766 12 11.015446192 1.766 30.5130567108
537 1 7.064 38.852 0.0 12 11.015446192 1.766 26.4599819806
538 1 8.83 40.618 0.0 12 11.015446192 1.766 26.6575162274
539 1 8.83 38.852 1.766 12 11.015446192 1.766 26.5893563635
540 1 7.064 40.618 1.766 12 11.015446192 1.766 28.5828351879
541 1 10.596 38.852 0.0 12 11.015446192 1.766 24.640933614
542 1 12.362 40.618 0.0 12 11.015446192 1.766 25.0028475676
543 1 12.362 38.852 1.766 12 11.015446192 1.766 24.8613362737
544 1 10.596 40.618 1.766 12 11.015446192 1.766 26.8201882756
545 1 14.128 38.852 0.0 12 11.015446192 1.766 23.0407177215
546 1 15.894 40.618 0.0 12 11.015446192 1.766 23.6561234008
547 1 15.894 38.852 1.766 12 11.015446192 1.766 23.5222237181
548 1 14.128 40.618 1.766 12 11.015446192 1.766 25.3486354789
549 1 17.66 38.852 0.0 12 11.015446192 1.766 21.8558292509
550 1 19.426 40.618 0.0 12 11.015446192 1.766 22.6145164434
551 1 19.426 38.852 1.766 12 11.015446192 1.766 22.4733664066
552 1 17.66 40.618 1.766 12 11.015446192 1.766 24.2523037095
553 1 21.192 38.852 0.0 12 11.015446192 1.766 21.0241296697
554 1 22.958 40.618 0.0 12 11.015446192 1.766 22.0555460598
555 1 22.958 38.852 1.766 12 11.015446192 1.766 21.9077031428
556 1 21.192 40.618 1.766 12 11.015446192 1.766 23.4690834504
557 1 24.724 38.852 0.0 12 11.015446192 1.766 20.7215904726
558 1 26.49 40.618 0.0 12 11.015446192 1.766 22.0551109275
559 1 26.49 38.852 1.766 12 11.015446192 1.766 21.9041723044
560 1 24.724 40.618 1.766 12 11.015446192 1.766 23.1984517015
561 1 28.256 38.852 0.0 12 11.015446192 1.766 21.0167705194
562 1 30.022 40.618 0.0 12 11.015446192 1.766 22.6132432891
563 1 30.022 38.852 1.766 12 11.015446192 1.766 22.4630389682
564 1 28.256 40.618 1.766 12 11.015446192 1.766 23.4624911869
565 1 31.788 38.852 0.0 12 11.015446192 1.766 21.8854979932
566 1 33.554 40.618 0.0 12 11.015446192 1.766 23.6904975482
567 1 33.554 38.852 1.766 12 11.015446192 1.766 23.5442885438
568 1 31.788 40.618 1.766 12 11.015446192 1.766 24.2437388215
569 1 35.32 38.852 0.0 12 11.015446192 1.766 23.2403456853
570 1 37.086 40.618 0.0 12 11.015446192 1.766 25.1751986759
571 1 37.086 38.852 1.766 12 11.015446192 1.766 25.0619461965
572 1 35.32 40.618 1.766 12 11.015446192 1.766 25.4945549634
573 1 38.852 38.852 0.0 12 11.015446192 1.766 24.8539700133
574 1 40.618 40.618 0.0 12 11.015446192 1.766 26.8974569522
575 1 40.618 38.852 1.766 12 11.015446192 1.766 26.8035440671
576 1 38.852 40.618 1.766 12 11.015446192 1.766 27.0374352986
577 1 0.0 0.0 3.532 12 11.015446192 1.766 30.9394764203
578 1 1.766 1.766 3.532 12 11.015446192 1.766 30.8359491708
579 1 1.766 0.0 5.298 12 11.015446192 1.766 32.6089602817
580 1 0.0 1.766 5.298 12 11.015446192 1.766 30.6293445919
581 1 3.532 0.0 3.532 12 11.015446192 1.766 32.5725389296
582 1 5.298 1.766 3.532 12 11.015446192 1.766 30.6701994115
583 1 5.298 0.0 5.298 12 11.015446192 1.766 30.9602298631
584 1 3.532 1.766 5.298 12 11.015446192 1.766 30.9870470861
585 1 7.064 0.0 3.532 12 11.015446192 1.766 30.7283422362
586 1 8.83 1.766 3.532 12 11.015446192 1.766 28.7453117338
587 1 8.83 0.0 5.298 12 11.015446192 1.766 29.2541953371
588 1 7.064 1.766 5.298 12 11.015446192 1.766 29.0639001061
589 1 10.596 0.0 3.532 12 11.015446192 1.766 29.0426612186
590 1 12.362 1.766 3.532 12 11.015446192 1.766 27.145257104
591 1 12.362 0.0 5.298 12 11.015446192 1.766 27.7455709147
592 1 10.596 1.766 5.298 12 11.015446192 1.766 27.3916628985
593 1 14.128 0.0 3.532 12 11.015446192 1.766 27.5953508647
594 1 15.894 1.766 3.532 12 11.015446192 1.766 25.8280430924
595 1 15.894 0.0 5.298 12 11.015446192 1.766 26.6123507209
596 1 14.128 1.766 5.298 12 11.015446192 1.766 26.0043972792
597 1 17.66 0.0 3.532 12 11.015446192 1.766 26.4441359535
598 1 19.426 1.766 3.532 12 11.015446192 1.766 24.8465660157
599 1 19.426 0.0 5.298 12 11.015446192 1.766 25.9146245275
600 1 17.66 1.766 5.298 12 11.015446192 1.766 25.0420487853
601 1 21.192 0.0 3.532 12 11.015446192 1.766 25.7299691276
602 1 22.958 1.766 3.532 12 11.015446192 1.766 24.3426755258
603 1 22.958 0.0 5.298 12 11.015446192 1.766 25.6879031046
604 1 21.192 1.766 5.298 12 11.015446192 1.766 24.5546285835
605 1 24.724 0.0 3.532 12 11.015446192 1.766 25.4896124782
606 1 26.49 1.766 3.532 12 11.015446192 1.766 24.3460450327
607 1 26.49 0.0 5.298 12 11.015446192 1.766 25.9445372944
608 1 24.724 1.766 5.298 12 11.015446192 1.766 24.5704173831
609 1 28.256 0.0 3.532 12 11.015446192 1.766 25.7363444426
610 1 30.022 1.766 3.532 12 11.015446192 1.766 24.856468247
611 1 30.022 0.0 5.298 12 11.015446192 1.766 26.6684024942
612 1 28.256 1.766 5.298 12 11.015446192 1.766 25.0884651561
613 1 31.788 0.0 3.532 12 11.015446192 1.766 26.4565408595
614 1 33.554 1.766 3.532 12 11.015446192 1.766 25.843919337
615 1 33.554 0.0 5.298 12 11.015446192 1.766 27.6380567959
616 1 31.788 1.766 5.298 12 11.015446192 1.766 26.0019175241
617 1 35.32 0.0 3.532 12 11.015446192 1.766 27.6131803897
618 1 37.086 1.766 3.532 12 11.015446192 1.766 27.2566022768
619 1 37.086 0.0 5.298 12 11.015446192 1.766 28.9609997155
620 1 35.32 1.766 5.298 12 11.015446192 1.766 27.1753935022
621 1 38.852 0.0 3.532 12 11.015446192 1.766 29.1543642739
622 1 40.618 1.766 3.532 12 11.015446192 1.766 28.9389890085
623 1 40.618 0.0 5.298 12 11.015446192 1.766 30.6360388038
624 1 38.852 1.766 5.298 12 11.015446192 1.766 28.7376818318
625 1 0.0 3.532 3.532 12 11.015446192 1.766 28.8280957086
626 1 1.766 5.298 3.532 12 11.015446192 1.766 28.9330900013
627 1 1.766 3.532 5.298 12 11.015446192 1.766 30.7591988017
628 1 0.0 5.298 5.298 12 11.015446192 1.766 28.8768912995
629 1 3.532 3.532 3.532 12 11.015446192 1.766 30.7807881633
630 1 5.298 5.298 3.532 12 11.015446192 1.766 28.7647266404
631 1 5.298 3.532 5.298 12 11.015446192 1.766 29.0795379443
632 1 3.532 5.298 5.298 12 11.015446192 1.766 29.3087664143
633 1 7.064 3.532 3.532 12 11.015446192 1.766 28.6463559757
634 1 8.83 5.298 3.532 12 11.015446192 1.766 26.7028334345
635 1 8.83 3.532 5.298 12 11.015446192 1.766 27.2464923578
636 1 7.064 5.298 5.298 12 11.015446192 1.766 27.2675079717
637 1 10.596 3.532 3.532 12 11.015446192 1.766 26.808963975
638 1 12.362 5.298 3.532 12 11.015446192 1.766 24.9724483413
639 1 12.362 3.532 5.298 12 11.015446192 1.766 25.6264544722
640 1 10.596 5.298 5.298 12 11.015446192 1.766 25.4887560265
641 1 14.128 3.532 3.532 12 11.015446192 1.766 25.3248678551
642 1 15.894 5.298 3.532 12 11.015446192 1.766 23.5306066594
643 1 15.894 3.532 5.298 12 11.015446192 1.766 24.3949928126
644 1 14.128 5.298 5.298 12 11.015446192 1.766 23.9917103452
645 1 17.66 3.532 3.532 12 11.015446192 1.766 24.0972274012
646 1 19.426 5.298 3.532 12 11.015446192 1.766 22.4406451098
647 1 19.426 3.532 5.298 12 11.015446192 1.766 23.6318900606
648 1 17.66 5.298 5.298 12 11.015446192 1.766 22.9451017605
649 1 21.192 3.532 3.532 12 11.015446192 1.766 23.3033151206
650 1 22.958 5.298 3.532 12 11.015446192 1.766 21.8729445693
651 1 22.958 3.532 5.298 12 11.015446192 1.766 23.3830457671
652 1 21.192 5.298 5.298 12 11.015446192 1.766 22.4121233333
653 1 24.724 3.532 3.532 12 11.015446192 1.766 23.0296042258
654 1 26.49 5.298 3.532 12 11.015446192 1.766 21.8682167384
655 1 26.49 3.532 5.298 12 11.015446192 1.766 23.6646884377
656 1 24.724 5.298 5.298 12 11.015446192 1.766 22.4294203629
657 1 28.256 3.532 3.532 12 11.015446192 1.766 23.2944391215
658 1 30.022 5.298 3.532 12 11.015446192 1.766 22.4268176634
659 1 30.022 3.532 5.298 12 11.015446192 1.766 24.4560528446
660 1 28.256 5.298 5.298 12 11.015446192 1.766 22.9924284013
661 1 31.788 3.532 3.532 12 11.015446192 1.766 24.0800574163
662 1 33.554 5.298 3.532 12 11.015446192 1.766 23.5086249214
663 1 33.554 3.532 5.298 12 11.015446192 1.766 25.5095910439
664 1 31.788 5.298 5.298 12 11.015446192 1.766 23.9329036604
665 1 35.32 3.532 3.532 12 11.015446192 1.766 25.3380639426
666 1 37.086 5.298 3.532 12 11.015446192 1.766 25.0459335797
667 1 37.086 3.532 5.298 12 11.015446192 1.766 26.9372764871
668 1 35.32 5.298 5.298 12 11.015446192 1.766 25.2329289206
669 1 38.852 3.532 3.532 12 11.015446192 1.766 26.9859638627
670 1 40.618 5.298 3.532 12 11.015446192 1.766 26.8980029549
671 1 40.618 3.532 5.298 12 11.015446192 1.766 28.7305453065
672 1 38.852 5.298 5.298 12 11.015446192 1.766 26.9247430821
673 1 0.0 7.064 3.532 12 11.015446192 1.766 27.0148489159
674 1 1.766 8.83 3.532 12 11.015446192 1.766 27.3163234193
675 1 1.766 7.064 5.298 12 11.015446192 1.766 29.0658518157
676 1 0.0 8.83 5.298 12 11.015446192 1.766 27.2050808051
677 1 3.532 7.064 3.532 12 11.015446192 1.766 29.0977715764
678 1 5.298 8.83 3.532 12 11.015446192 1.766 27.186539196
679 1 5.298 7.064 5.298 12 11.015446192 1.766 27.4834445865
680 1 3.532 8.83 5.298 12 11.015446192 1.766 27.8757175746
681 1 7.064 7.064 3.532 12 11.015446192 1.766 26.8297801229
682 1 8.83 8.83 3.532 12 11.015446192 1.766 24.9947940217
683 1 8.83 7.064 5.298 12 11.015446192 1.766 25.5251149462
684 1 7.064 8.83 5.298 12 11.015446192 1.766 25.7021780106
685 1 10.596 7.064 3.532 12 11.015446192 1.766 24.8584782352
686 1 12.362 8.83 3.532 12 11.015446192 1.766 23.1299571411
687 1 12.362 7.064 5.298 12 11.015446192 1.766 23.8445733921
688 1 10.596 8.83 5.298 12 11.015446192 1.766 23.8557818292
689 1 14.128 7.064 3.532 12 11.015446192 1.766 23.2131870537
690 1 15.894 8.83 3.532 12 11.015446192 1.766 21.4961331317
691 1 15.894 7.064 5.298 12 11.015446192 1.766 22.5158652013
692 1 14.128 8.83 5.298 12 11.015446192 1.766 22.3582974906
693 1 17.66 7.064 3.532 12 11.015446192 1.766 21.8310703879
694 1 19.426 8.83 3.532 12 11.015446192 1.766 20.2972126855
695 1 19.426 7.064 5.298 12 11.015446192 1.766 21.6867410938
696 1 17.66 8.83 5.298 12 11.015446192 1.766 21.2320802145
697 1 21.192 7.064 3.532 12 11.015446192 1.766 20.9514620365
698 1 22.958 8.83 3.532 12 11.015446192 1.766 19.6677399309
699 1 22.958 7.064 5.298 12 11.015446192 1.766 21.4153062266
700 1 21.192 8.83 5.298 12 11.015446192 1.766 20.6549463263
701 1 24.724 7.064 3.532 12 11.015446192 1.766 20.6465962486
702 1 26.49 8.83 3.532 12 11.015446192 1.766 19.6624818672
703 1 26.49 7.064 5.298 12 11.015446192 1.766 21.7125327655
704 1 24.724 8.83 5.298 12 11.015446192 1.766 20.6530771069
705 1 28.256 7.064 3.532 12 11.015446192 1.766 20.9415892387
706 1 30.022 8.83 3.532 12 11.015446192 1.766 20.2819239808
707 1 30.022 7.064 5.298 12 11.015446192 1.766 22.4210385309
708 1 28.256 8.83 5.298 12 11.015446192 1.766 21.081093697
709 1 31.788 7.064 3.532 12 11.015446192 1.766 21.8121166105
710 1 33.554 8.83 3.532 12 11.015446192 1.766 21.4720687301
711 1 33.554 7.064 5.298 12 11.015446192 1.766 23.5665714587
712 1 31.788 8.83 5.298 12 11.015446192 1.766 22.0140366353
713 1 35.32 7.064 3.532 12 11.015446192 1.766 23.1934635235
714 1 37.086 8.83 3.532 12 11.015446192 1.766 23.1450443667
715 1 37.086 7.064 5.298 12 11.015446192 1.766 25.1575956694
716 1 35.32 8.83 5.298 12 11.015446192 1.766 23.4472419379
717 1 38.852 7.064 3.532 12 11.015446192 1.766 24.9988139252
718 1 40.618 8.83 3.532 12 11.015446192 1.766 25.1746619796
719 1 40.618 7.064 5.298 12 11.015446192 1.766 27.0521814303
720 1 38.852 8.83 5.298 12 11.015446192 1.766 25.2385997508
721 1 0.0 10.596 3.532 12 11.015446192 1.766 25.5252865619
722 1 1.766 12.362 3.532 12 11.015446192 1.766 25.9244092944
723 1 1.766 10.596 5.298 12 11.015446192 1.766 27.5743263559
724 1 0.0 12.362 5.298 12 11.015446192 1.766 25.7948746903
725 1 3.532 10.596 3.532 12 11.015446192 1.766 27.6873191081
726 1 5.298 12.362 3.532 12 11.015446192 1.766 25.9913003277
727 1 5.298 10.596 5.298 12 11.015446192 1.766 26.11749256
728 1 3.532 12.362 5.298 12 11.015446192 1.766 26.7604167521
729 1 7.064 10.596 3.532 12 11.015446192 1.766 25.3773627511
730 1 8.83 12.362 3.532 12 11.015446192 1.766 23.6590425457
731 1 8.83 10.596 5.298 12 11.015446192 1.766 24.0446411038
732 1 7.064 12.362 5.298 12 11.015446192 1.766 24.4880834068
733 1 10.596 10.596 3.532 12 11.015446192 1.766 23.274581115
734 1 12.362 12.362 3.532 12 11.015446192 1.766 21.5860235202
735 1 12.362 10.596 5.298 12 11.015446192 1.766 22.3409078151
736 1 10.596 12.362 5.298 12 11.015446192 1.766 22.5424621799
737 1 14.128 10.596 3.532 12 11.015446192 1.766 21.4487031997
738 1 15.894 12.362 3.532 12 11.015446192 1.766 19.8794989545
739 1 15.894 10.596 5.298 12 11.015446192 1.766 21.0584615578
740 1 14.128 12.362 5.298 12 11.015446192 1.766 21.0144955049
741 1 17.66 10.596 3.532 12 11.015446192 1.766 19.9365229701
742 1 19.426 12.362 3.532 12 11.015446192 1.766 18.5828195024
743 1 19.426 10.596 5.298 12 11.015446192 1.766 20.1770488106
744 1 17.66 12.362 5.298 12 11.015446192 1.766 19.9805589617
745 1 21.192 10.596 3.532 12 11.015446192 1.766 18.9692665995
746 1 22.958 12.362 3.532 12 11.015446192 1.766 17.8931364452
747 1 22.958 10.596 5.298 12 11.015446192 1.766 19.849390632
748 1 21.192 12.362 5.298 12 11.015446192 1.766 19.3333965594
749 1 24.724 10.596 3.532 12 11.015446192 1.766 18.6319953443
750 1 26.49 12.362 3.532 12 11.015446192 1.766 17.8873567369
751 1 26.49 10.596 5.298 12 11.015446192 1.766 19.964896146
752 1 24.724 12.362 5.298 12 11.015446192 1.766 19.111689323
753 1 28.256 10.596 3.532 12 11.015446192 1.766 18.9583615774
754 1 30.022 12.362 3.532 12 11.015446192 1.766 18.5661190942
755 1 30.022 10.596 5.298 12 11.015446192 1.766 20.6476960371
756 1 28.256 12.362 5.298 12 11.015446192 1.766 19.5067146977
757 1 31.788 10.596 3.532 12 11.015446192 1.766 19.915766239
758 1 33.554 12.362 3.532 12 11.015446192 1.766 19.8593573261
759 1 33.554 10.596 5.298 12 11.015446192 1.766 21.8862439253
760 1 31.788 12.362 5.298 12 11.015446192 1.766 20.5113923422
761 1 35.32 10.596 3.532 12 11.015446192 1.766 21.4197587305
762 1 37.086 12.362 3.532 12 11.015446192 1.766 21.6519996481
763 1 37.086 10.596 5.298 12 11.015446192 1.766 23.5428139783
764 1 35.32 12.362 5.298 12 11.015446192 1.766 21.9992106297
765 1 38.852 10.596 3.532 12 11.015446192 1.766 23.3650258134
766 1 40.618 12.362 3.532 12 11.015446192 1.766 23.7533598008
767 1 40.618 10.596 5.298 12 11.015446192 1.766 25.3997738419
768 1 38.852 12.362 5.298 12 11.015446192 1.766 23.7203630143
769 1 0.0 14.128 3.532 12 11.015446192 1.766 24.2906850281
770 1 1.766 15.894 3.532 12 11.015446192 1.766 24.9434298615
771 1 1.766 14.128 5.298 12 11.015446192 1.766 26.4211588193
772 1 0.0 15.894 5.298 12 11.015446192 1.766 24.8109803044
773 1 3.532 14.128 3.532 12 11.015446192 1.766 26.5369989144
774 1 5.298 15.894 3.532 12 11.015446192 1.766 25.1170296605
775 1 5.298 14.128 5.298 12 11.015446192 1.766 25.172658105
776 1 3.532 15.894 5.298 12 11.015446192 1.766 26.0793831828
777 1 7.064 14.128 3.532 12 11.015446192 1.766 24.2786755715
778 1 8.83 15.894 3.532 12 11.015446192 1.766 22.6053186891
779 1 8.83 14.128 5.298 12 11.015446192 1.766 23.0148661578
780 1 7.064 15.894 5.298 12 11.015446192 1.766 23.7419576149
781 1 10.596 14.128 3.532 12 11.015446192 1.766 21.9599842947
782 1 12.362 15.894 3.532 12 11.015446192 1.766 20.3981797008
783 1 12.362 14.128 5.298 12 11.015446192 1.766 21.2286471649
784 1 10.596 15.894 5.298 12 11.015446192 1.766 21.7296323849
785 1 14.128 14.128 3.532 12 11.015446192 1.766 19.9950302899
786 1 15.894 15.894 3.532 12 11.015446192 1.766 18.6043297428
787 1 15.894 14.128 5.298 12 11.015446192 1.766 19.9142387413
788 1 14.128 15.894 5.298 12 11.015446192 1.766 20.1387991098
789 1 17.66 14.128 3.532 12 11.015446192 1.766 18.4986370495
790 1 19.426 15.894 3.532 12 11.015446192 1.766 17.3524200978
791 1 19.426 14.128 5.298 12 11.015446192 1.766 19.1102508932
792 1 17.66 15.894 5.298 12 11.015446192 1.766 19.0438437223
793 1 21.192 14.128 3.532 12 11.015446192 1.766 17.48291844
794 1 22.958 15.894 3.532 12 11.015446192 1.766 16.6870823604
795 1 22.958 14.128 5.298 12 11.015446192 1.766 18.5577822878
796 1 21.192 15.894 5.298 12 11.015446192 1.766 18.3301711128
797 1 24.724 14.128 3.532 12 11.015446192 1.766 17.1163843252
798 1 26.49 15.894 3.532 12 11.015446192 1.766 16.6808847754
799 1 26.49 14.128 5.298 12 11.015446192 1.766 18.6325389831
800 1 24.724 15.894 5.298 12 11.015446192 1.766 18.0639454056
801 1 28.256 14.128 3.532 12 11.015446192 1.766 17.4710857005
802 1 30.022 15.894 3.532 12 11.015446192 1.766 17.4067562767
803 1 30.022 14.128 5.298 12 11.015446192 1.766 19.3623805994
804 1 28.256 15.894 5.298 12 11.015446192 1.766 18.4813790918
805 1 31.788 14.128 3.532 12 11.015446192 1.766 18.505596633
806 1 33.554 15.894 3.532 12 11.015446192 1.766 18.7081958823
807 1 33.554 14.128 5.298 12 11.015446192 1.766 20.641958539
808 1 31.788 15.894 5.298 12 11.015446192 1.766 19.5099882626
809 1 35.32 14.128 3.532 12 11.015446192 1.766 20.0865932656
810 1 37.086 15.894 3.532 12 11.015446192 1.766 20.4863451657
811 1 37.086 14.128 5.298 12 11.015446192 1.766 22.195444484
812 1 35.32 15.894 5.298 12 11.015446192 1.766 20.8589288831
813 1 38.852 14.128 3.532 12 11.015446192 1.766 22.0390269304
814 1 40.618 15.894 3.532 12 11.015446192 1.766 22.6789358509
815 1 40.618 14.128 5.298 12 11.015446192 1.766 24.1429631694
816 1 38.852 15.894 5.298 12 11.015446192 1.766 22.6465186046
817 1 0.0 17.66 3.532 12 11.015446192 1.766 23.5077029742
818 1 1.766 19.426 3.532 12 11.015446192 1.766 24.4381758166
819 1 1.766 17.66 5.298 12 11.015446192 1.766 25.7052881862
820 1 0.0 19.426 5.298 12 11.015446192 1.766 24.3052252621
821 1 3.532 17.66 3.532 12 11.015446192 1.766 25.8222197221
822 1 5.298 19.426 3.532 12 11.015446192 1.766 24.6116670631
823 1 5.298 17.66 5.298 12 11.015446192 1.766 24.7012562943
824 1 3.532 19.426 5.298 12 11.015446192 1.766 25.793256575
825 1 7.064 17.66 3.532 12 11.015446192 1.766 23.4996804201
826 1 8.83 19.426 3.532 12 11.015446192 1.766 22.0472176188
827 1 8.83 17.66 5.298 12 11.015446192 1.766 22.4937779001
828 1 7.064 19.426 5.298 12 11.015446192 1.766 23.4533397935
829 1 10.596 17.66 3.532 12 11.015446192 1.766 21.0913550518
830 1 12.362 19.426 3.532 12 11.015446192 1.766 19.7778943976
831 1 12.362 17.66 5.298 12 11.015446192 1.766 20.6209987726
832 1 10.596 19.426 5.298 12 11.015446192 1.766 21.323164429
833 1 14.128 17.66 3.532 12 11.015446192 1.766 19.0369531173
834 1 15.894 19.426 3.532 12 11.015446192 1.766 17.9220661999
835 1 15.894 17.66 5.298 12 11.015446192 1.766 19.1751138759
836 1 14.128 19.426 5.298 12 11.015446192 1.766 19.5702272801
837 1 17.66 17.66 3.532 12 11.015446192 1.766 17.4618429171
838 1 19.426 19.426 3.532 12 11.015446192 1.766 16.618840361
839 1 19.426 17.66 5.298 12 11.015446192 1.766 18.2625732455
840 1 17.66 19.426 5.298 12 11.015446192 1.766 18.3359433535
841 1 21.192 17.66 3.532 12 11.015446192 1.766 16.5038292566
842 1 22.958 19.426 3.532 12 11.015446192 1.766 16.0037902078
843 1 22.958 17.66 5.298 12 11.015446192 1.766 17.8280497649
844 1 21.192 19.426 5.298 12 11.015446192 1.766 17.7304357157
845 1 24.724 17.66 3.532 12 11.015446192 1.766 16.2371576459
846 1 26.49 19.426 3.532 12 11.015446192 1.766 16.131429128
847 1 26.49 17.66 5.298 12 11.015446192 1.766 17.9079867041
848 1 24.724 19.426 5.298 12 11.015446192 1.766 17.6657322308
849 1 28.256 17.66 3.532 12 11.015446192 1.766 16.6076480342
850 1 30.022 19.426 3.532 12 11.015446192 1.766 16.7426095216
851 1 30.022 17.66 5.298 12 11.015446192 1.766 18.6443781706
852 1 28.256 19.426 5.298 12 11.015446192 1.766 18.0822326845
853 1 31.788 17.66 3.532 12 11.015446192 1.766 17.5760709882
854 1 33.554 19.426 3.532 12 11.015446192 1.766 18.0293835356
855 1 33.554 17.66 5.298 12 11.015446192 1.766 19.7491036876
856 1 31.788 19.426 5.298 12 11.015446192 1.766 18.9059330045
857 1 35.32 17.66 3.532 12 11.015446192 1.766 19.1347064901
858 1 37.086 19.426 3.532 12 11.015446192 1.766 19.8683772803
859 1 37.086 17.66 5.298 12 11.015446192 1.766 21.3382746074
860 1 35.32 19.426 5.298 12 11.015446192 1.766 20.2547314356
861 1 38.852 17.66 3.532 12 11.015446192 1.766 21.173232194
862 1 40.618 19.426 3.532 12 11.015446192 1.766 22.1223011649
863 1 40.618 17.66 5.298 12 11.015446192 1.766 23.3573730967
864 1 38.852 19.426 5.298 12 11.015446192 1.766 22.0912660635
865 1 0.0 21.192 3.532 12 11.015446192 1.766 23.2408448021
866 1 1.766 22.958 3.532 12 11.015446192 1.766 24.4381715608
867 1 1.766 21.192 5.298 12 11.015446192 1.766 25.4636229966
868 1 0.0 22.958 5.298 12 11.015446192 1.766 24.3074732216
869 1 3.532 21.192 3.532 12 11.015446192 1.766 25.5795191387
870 1 5.298 22.958 3.532 12 11.015446192 1.766 24.6064558175
871 1 5.298 21.192 5.298 12 11.015446192 1.766 24.383668644
872 1 3.532 22.958 5.298 12 11.015446192 1.766 25.5167401951
873 1 7.064 21.192 3.532 12 11.015446192 1.766 23.2333677185
874 1 8.83 22.958 3.532 12 11.015446192 1.766 22.0478848062
875 1 8.83 21.192 5.298 12 11.015446192 1.766 22.1856487486
876 1 7.064 22.958 5.298 12 11.015446192 1.766 23.158357721
877 1 10.596 21.192 3.532 12 11.015446192 1.766 20.79422164
878 1 12.362 22.958 3.532 12 11.015446192 1.766 19.7786381356
879 1 12.362 21.192 5.298 12 11.015446192 1.766 20.2625656856
880 1 10.596 22.958 5.298 12 11.015446192 1.766 21.1297203599
881 1 14.128 21.192 3.532 12 11.015446192 1.766 18.7072173154
882 1 15.894 22.958 3.532 12 11.015446192 1.766 17.9228869485
883 1 15.894 21.192 5.298 12 11.015446192 1.766 18.7432539072
884 1 14.128 22.958 5.298 12 11.015446192 1.766 19.46435171
885 1 17.66 21.192 3.532 12 11.015446192 1.766 17.1017646386
886 1 19.426 22.958 3.532 12 11.015446192 1.766 16.6197254682
887 1 19.426 21.192 5.298 12 11.015446192 1.766 17.8044268062
888 1 17.66 22.958 5.298 12 11.015446192 1.766 18.2236209977
889 1 21.192 21.192 3.532 12 11.015446192 1.766 16.1223688032
890 1 22.958 22.958 3.532 12 11.015446192 1.766 16.0047093291
891 1 22.958 21.192 5.298 12 11.015446192 1.766 17.5395469943
892 1 21.192 22.958 5.298 12 11.015446192 1.766 17.6142962713
893 1 24.724 21.192 3.532 12 11.015446192 1.766 15.8852524656
894 1 26.49 22.958 3.532 12 11.015446192 1.766 16.1315954674
895 1 26.49 21.192 5.298 12 11.015446192 1.766 17.7922895208
896 1 24.724 22.958 5.298 12 11.015446192 1.766 17.6762776326
897 1 28.256 21.192 3.532 12 11.015446192 1.766 16.2538210832
898 1 30.022 22.958 3.532 12 11.015446192 1.766 16.7429716328
899 1 30.022 21.192 5.298 12 11.015446192 1.766 18.3540193459
900 1 28.256 22.958 5.298 12 11.015446192 1.766 18.075922826
901 1 31.788 21.192 3.532 12 11.015446192 1.766 17.2178794538
902 1 33.554 22.958 3.532 12 11.015446192 1.766 18.029719803
903 1 33.554 21.192 5.298 12 11.015446192 1.766 19.4335110528
904 1 31.788 22.958 5.298 12 11.015446192 1.766 18.9088228652
905 1 35.32 21.192 3.532 12 11.015446192 1.766 18.8062248727
906 1 37.086 22.958 3.532 12 11.015446192 1.766 19.8686824237
907 1 37.086 21.192 5.298 12 11.015446192 1.766 21.0465250955
908 1 35.32 22.958 5.298 12 11.015446192 1.766 20.2574288819
909 1 38.852 21.192 3.532 12 11.015446192 1.766 20.876849931
910 1 40.618 22.958 3.532 12 11.015446192 1.766 22.1225752193
911 1 40.618 21.192 5.298 12 11.015446192 1.766 23.0911483767
912 1 38.852 22.958 5.298 12 11.015446192 1.766 22.0937392866
913 1 0.0 24.724 3.532 12 11.015446192 1.766 23.5076941257
914 1 1.766 26.49 3.532 12 11.015446192 1.766 24.9434173526
915 1 1.766 24.724 5.298 12 11.015446192 1.766 25.7095390758
916 1 0.0 26.49 5.298 12 11.015446192 1.766 24.8175861396
917 1 3.532 24.724 3.532 12 11.015446192 1.766 25.8222116666
918 1 5.298 26.49 3.532 12 11.015446192 1.766 25.1016356131
919 1 5.298 24.724 5.298 12 11.015446192 1.766 24.34851671
920 1 3.532 26.49 5.298 12 11.015446192 1.766 25.7267569589
921 1 7.064 24.724 3.532 12 11.015446192 1.766 23.5009323057
922 1 8.83 26.49 3.532 12 11.015446192 1.766 22.60727078
923 1 8.83 24.724 5.298 12 11.015446192 1.766 22.1479297482
924 1 7.064 26.49 5.298 12 11.015446192 1.766 23.3895601877
925 1 10.596 24.724 3.532 12 11.015446192 1.766 21.0927498755
926 1 12.362 26.49 3.532 12 11.015446192 1.766 20.400342992
927 1 12.362 24.724 5.298 12 11.015446192 1.766 20.326371203
928 1 10.596 26.49 5.298 12 11.015446192 1.766 21.3828687488
929 1 14.128 24.724 3.532 12 11.015446192 1.766 19.0384984539
930 1 15.894 26.49 3.532 12 11.015446192 1.766 18.6067015955
931 1 15.894 24.724 5.298 12 11.015446192 1.766 18.9553666804
932 1 14.128 26.49 5.298 12 11.015446192 1.766 19.8073893807
933 1 17.66 24.724 3.532 12 11.015446192 1.766 17.4635276348
934 1 19.426 26.49 3.532 12 11.015446192 1.766 17.3549630461
935 1 19.426 24.724 5.298 12 11.015446192 1.766 18.0379095658
936 1 17.66 26.49 5.298 12 11.015446192 1.766 18.756996482
937 1 21.192 24.724 3.532 12 11.015446192 1.766 16.5056117585
938 1 22.958 26.49 3.532 12 11.015446192 1.766 16.6818674363
939 1 22.958 24.724 5.298 12 11.015446192 1.766 17.7765091166
940 1 21.192 26.49 5.298 12 11.015446192 1.766 18.1963464668
941 1 24.724 24.724 3.532 12 11.015446192 1.766 16.2333623269
942 1 26.49 26.49 3.532 12 11.015446192 1.766 16.677230241
943 1 26.49 24.724 5.298 12 11.015446192 1.766 17.9353412588
944 1 24.724 26.49 5.298 12 11.015446192 1.766 18.1377682475
945 1 28.256 24.724 3.532 12 11.015446192 1.766 16.6054202963
946 1 30.022 26.49 3.532 12 11.015446192 1.766 17.4047511863
947 1 30.022 24.724 5.298 12 11.015446192 1.766 18.6106745468
948 1 28.256 26.49 5.298 12 11.015446192 1.766 18.4721817809
949 1 31.788 24.724 3.532 12 11.015446192 1.766 17.5767608617
950 1 33.554 26.49 3.532 12 11.015446192 1.766 18.7091680649
951 1 33.554 24.724 5.298 12 11.015446192 1.766 19.7546362967
952 1 31.788 26.49 5.298 12 11.015446192 1.766 19.4523660184
953 1 35.32 24.724 3.532 12 11.015446192 1.766 19.1353401712
954 1 37.086 26.49 3.532 12 11.015446192 1.766 20.4872329698
955 1 37.086 24.724 5.298 12 11.015446192 1.766 21.3433952775
956 1 35.32 26.49 5.298 12 11.015446192 1.766 20.8667858638
957 1 38.852 24.724 3.532 12 11.015446192 1.766 21.173804867
958 1 40.618 26.49 3.532 12 11.015446192 1.766 22.6797378256
959 1 40.618 24.724 5.298 12 11.015446192 1.766 23.3620512098
960 1 38.852 26.49 5.298 12 11.015446192 1.766 22.6537556057
961 1 0.0 28.256 3.532 12 11.015446192 1.766 24.2906679014
962 1 1.766 30.022 3.532 12 11.015446192 1.766 25.9243892352
963 1 1.766 28.256 5.298 12 11.015446192 1.766 26.4294296356
964 1 0.0 30.022 5.298 12 11.015446192 1.766 25.8054637078
965 1 3.532 28.256 3.532 12 11.015446192 1.766 26.5369832375
966 1 5.298 30.022 3.532 12 11.015446192 1.766 25.9692226249
967 1 5.298 28.256 5.298 12 11.015446192 1.766 24.8211056043
968 1 3.532 30.022 5.298 12 11.015446192 1.766 26.4117031837
969 1 7.064 28.256 3.532 12 11.015446192 1.766 24.2752315463
970 1 8.83 30.022 3.532 12 11.015446192 1.766 23.6498636128
971 1 8.83 28.256 5.298 12 11.015446192 1.766 22.6664467787
972 1 7.064 30.022 5.298 12 11.015446192 1.766 24.1409106542
973 1 10.596 28.256 3.532 12 11.015446192 1.766 21.9626635225
974 1 12.362 30.022 3.532 12 11.015446192 1.766 21.5892054377
975 1 12.362 28.256 5.298 12 11.015446192 1.766 20.8901503997
976 1 10.596 30.022 5.298 12 11.015446192 1.766 22.2022322609
977 1 14.128 28.256 3.532 12 11.015446192 1.766 19.9979727741
978 1 15.894 30.022 3.532 12 11.015446192 1.766 19.8764562483
979 1 15.894 28.256 5.298 12 11.015446192 1.766 19.595382259
980 1 14.128 30.022 5.298 12 11.015446192 1.766 20.6892415404
981 1 17.66 28.256 3.532 12 11.015446192 1.766 18.4991240414
982 1 19.426 30.022 3.532 12 11.015446192 1.766 18.5778200869
983 1 19.426 28.256 5.298 12 11.015446192 1.766 18.8790349486
984 1 17.66 30.022 5.298 12 11.015446192 1.766 19.7002629848
985 1 21.192 28.256 3.532 12 11.015446192 1.766 17.4777726891
986 1 22.958 30.022 3.532 12 11.015446192 1.766 17.8894007314
987 1 22.958 28.256 5.298 12 11.015446192 1.766 18.6432360206
988 1 21.192 30.022 5.298 12 11.015446192 1.766 19.2913964005
989 1 24.724 28.256 3.532 12 11.015446192 1.766 17.1126509203
990 1 26.49 30.022 3.532 12 11.015446192 1.766 17.8850766248
991 1 26.49 28.256 5.298 12 11.015446192 1.766 18.669320755
992 1 24.724 30.022 5.298 12 11.015446192 1.766 19.1912499084
993 1 28.256 28.256 3.532 12 11.015446192 1.766 17.4689196251
994 1 30.022 30.022 3.532 12 11.015446192 1.766 18.5653257775
995 1 30.022 28.256 5.298 12 11.015446192 1.766 19.3194605883
996 1 28.256 30.022 5.298 12 11.015446192 1.766 19.5080392436
997 1 31.788 28.256 3.532 12 11.015446192 1.766 18.5049596653
998 1 33.554 30.022 3.532 12 11.015446192 1.766 19.8599276074
999 1 33.554 28.256 5.298 12 11.015446192 1.766 20.5642803276
1000 1 31.788 30.022 5.298 12 11.015446192 1.766 20.4386065841
1001 1 35.32 28.256 3.532 12 11.015446192 1.766 20.0876775829
1002 1 37.086 30.022 3.532 12 11.015446192 1.766 21.6535864942
1003 1 37.086 28.256 5.298 12 11.015446192 1.766 22.2052893102
1004 1 35.32 30.022 5.298 12 11.015446192 1.766 21.9057008806
1005 1 38.852 28.256 3.532 12 11.015446192 1.766 22.0401272694
1006 1 40.618 30.022 3.532 12 11.015446192 1.766 23.7546359547
1007 1 40.618 28.256 5.298 12 11.015446192 1.766 24.1520141626
1008 1 38.852 30.022 5.298 12 11.015446192 1.766 23.7317405529
1009 1 0.0 31.788 3.532 12 11.015446192 1.766 25.5304934859
1010 1 1.766 33.554 3.532 12 11.015446192 1.766 27.3202475446
1011 1 1.766 31.788 5.298 12 11.015446192 1.766 27.5862130464
1012 1 0.0 33.554 5.298 12 11.015446192 1.766 27.2157097406
1013 1 3.532 31.788 3.532 12 11.015446192 1.766 27.6814286403
1014 1 5.298 33.554 3.532 12 11.015446192 1.766 27.1500564412
1015 1 5.298 31.788 5.298 12 11.015446192 1.766 25.773520304
1016 1 3.532 33.554 5.298 12 11.015446192 1.766 27.5361608526
1017 1 7.064 31.788 3.532 12 11.015446192 1.766 25.356149741
1018 1 8.83 33.554 3.532 12 11.015446192 1.766 24.974767767
1019 1 8.83 31.788 5.298 12 11.015446192 1.766 23.7055874218
1020 1 7.064 33.554 5.298 12 11.015446192 1.766 25.3662306355
1021 1 10.596 31.788 3.532 12 11.015446192 1.766 23.2602252117
1022 1 12.362 33.554 3.532 12 11.015446192 1.766 23.1149311633
1023 1 12.362 31.788 5.298 12 11.015446192 1.766 22.0133016416
1024 1 10.596 33.554 5.298 12 11.015446192 1.766 23.5287315172
1025 1 14.128 31.788 3.532 12 11.015446192 1.766 21.4430197697
1026 1 15.894 33.554 3.532 12 11.015446192 1.766 21.4915377114
1027 1 15.894 31.788 5.298 12 11.015446192 1.766 20.7886043619
1028 1 14.128 33.554 5.298 12 11.015446192 1.766 22.1067140244
1029 1 17.66 31.788 3.532 12 11.015446192 1.766 19.9317155355
1030 1 19.426 33.554 3.532 12 11.015446192 1.766 20.2936296543
1031 1 19.426 31.788 5.298 12 11.015446192 1.766 20.1086956984
1032 1 17.66 33.554 5.298 12 11.015446192 1.766 21.1831841608
1033 1 21.192 31.788 3.532 12 11.015446192 1.766 18.965587772
1034 1 22.958 33.554 3.532 12 11.015446192 1.766 19.6653671182
1035 1 22.958 31.788 5.298 12 11.015446192 1.766 19.8468226462
1036 1 21.192 33.554 5.298 12 11.015446192 1.766 20.6574045592
1037 1 24.724 31.788 3.532 12 11.015446192 1.766 18.6296484906
1038 1 26.49 33.554 3.532 12 11.015446192 1.766 19.6614336009
1039 1 26.49 31.788 5.298 12 11.015446192 1.766 20.0090143895
1040 1 24.724 33.554 5.298 12 11.015446192 1.766 20.6804067394
1041 1 28.256 31.788 3.532 12 11.015446192 1.766 18.957429526
1042 1 30.022 33.554 3.532 12 11.015446192 1.766 20.2821923516
1043 1 30.022 31.788 5.298 12 11.015446192 1.766 20.6169512006
1044 1 28.256 33.554 5.298 12 11.015446192 1.766 21.0916035075
1045 1 31.788 31.788 3.532 12 11.015446192 1.766 19.916187225
1046 1 33.554 33.554 3.532 12 11.015446192 1.766 21.4735355714
1047 1 33.554 31.788 5.298 12 11.015446192 1.766 21.7877659428
1048 1 31.788 33.554 5.298 12 11.015446192 1.766 21.9551538935
1049 1 35.32 31.788 3.532 12 11.015446192 1.766 21.421366458
1050 1 37.086 33.554 3.532 12 11.015446192 1.766 23.1475307816
1051 1 37.086 31.788 5.298 12 11.015446192 1.766 23.4372536947
1052 1 35.32 33.554 5.298 12 11.015446192 1.766 23.327063134
1053 1 38.852 31.788 3.532 12 11.015446192 1.766 23.3676146895
1054 1 40.618 33.554 3.532 12 11.015446192 1.766 25.1821820285
1055 1 40.618 31.788 5.298 12 11.015446192 1.766 25.4114479255
1056 1 38.852 33.554 5.298 12 11.015446192 1.766 25.1241918164
1057 1 0.0 35.32 3.532 12 11.015446192 1.766 27.0260766014
1058 1 1.766 37.086 3.532 12 11.015446192 1.766 28.9419265506
1059 1 1.766 35.32 5.298 12 11.015446192 1.766 29.0680983268
1060 1 0.0 37.086 5.298 12 11.015446192 1.766 28.8355196966
1061 1 3.532 35.32 3.532 12 11.015446192 1.766 28.9820174681
1062 1 5.298 37.086 3.532 12 11.015446192 1.766 28.7095397395
1063 1 5.298 35.32 5.298 12 11.015446192 1.766 27.1553210679
1064 1 3.532 37.086 5.298 12 11.015446192 1.766 29.0491358209
1065 1 7.064 35.32 3.532 12 11.015446192 1.766 26.8092888911
1066 1 8.83 37.086 3.532 12 11.015446192 1.766 26.6836596098
1067 1 8.83 35.32 5.298 12 11.015446192 1.766 25.2010314958
1068 1 7.064 37.086 5.298 12 11.015446192 1.766 27.0010702398
1069 1 10.596 35.32 3.532 12 11.015446192 1.766 24.8398620034
1070 1 12.362 37.086 3.532 12 11.015446192 1.766 24.9554300239
1071 1 12.362 35.32 5.298 12 11.015446192 1.766 23.6161504611
1072 1 10.596 37.086 5.298 12 11.015446192 1.766 25.2826688513
1073 1 14.128 35.32 3.532 12 11.015446192 1.766 23.2048168288
1074 1 15.894 37.086 3.532 12 11.015446192 1.766 23.527266024
1075 1 15.894 35.32 5.298 12 11.015446192 1.766 22.4789498143
1076 1 14.128 37.086 5.298 12 11.015446192 1.766 23.9649523763
1077 1 17.66 35.32 3.532 12 11.015446192 1.766 21.8276043934
1078 1 19.426 37.086 3.532 12 11.015446192 1.766 22.4383033653
1079 1 19.426 35.32 5.298 12 11.015446192 1.766 21.7263752406
1080 1 17.66 37.086 5.298 12 11.015446192 1.766 23.0177632073
1081 1 21.192 35.32 3.532 12 11.015446192 1.766 20.9490942263
1082 1 22.958 37.086 3.532 12 11.015446192 1.766 21.8717332934
1083 1 22.958 35.32 5.298 12 11.015446192 1.766 21.4610229272
1084 1 21.192 37.086 5.298 12 11.015446192 1.766 22.4918323631
1085 1 24.724 35.32 3.532 12 11.015446192 1.766 20.6454554866
1086 1 26.49 37.086 3.532 12 11.015446192 1.766 21.8681966473
1087 1 26.49 35.32 5.298 12 11.015446192 1.766 21.7641620856
1088 1 24.724 37.086 5.298 12 11.015446192 1.766 22.5143880893
1089 1 28.256 35.32 3.532 12 11.015446192 1.766 20.9417087077
1090 1 30.022 37.086 3.532 12 11.015446192 1.766 22.4279597814
1091 1 30.022 35.32 5.298 12 11.015446192 1.766 22.4014696883
1092 1 28.256 37.086 5.298 12 11.015446192 1.766 23.0625615472
1093 1 31.788 35.32 3.532 12 11.015446192 1.766 21.8134257499
1094 1 33.554 37.086 3.532 12 11.015446192 1.766 23.5108226845
1095 1 33.554 35.32 5.298 12 11.015446192 1.766 23.4834816874
1096 1 31.788 37.086 5.298 12 11.015446192 1.766 23.90127557
1097 1 35.32 35.32 3.532 12 11.015446192 1.766 23.1958179484
1098 1 37.086 37.086 3.532 12 11.015446192 1.766 25.0490366012
1099 1 37.086 35.32 5.298 12 11.015446192 1.766 25.0214313766
1100 1 35.32 37.086 5.298 12 11.015446192 1.766 25.1673213879
1101 1 38.852 35.32 3.532 12 11.015446192 1.766 25.0029201345
1102 1 40.618 37.086 3.532 12 11.015446192 1.766 26.9068841267
1103 1 40.618 35.32 5.298 12 11.015446192 1.766 26.937338252
1104 1 38.852 37.086 5.298 12 11.015446192 1.766 26.8415201844
1105 1 0.0 38.852 3.532 12 11.015446192 1.766 28.8371072512
1106 1 1.766 40.618 3.532 12 11.015446192 1.766 30.8428285767
1107 1 1.766 38.852 5.298 12 11.015446192 1.766 30.7642521271
1108 1 0.0 40.618 5.298 12 11.015446192 1.766 30.7496747595
1109 1 3.532 38.852 3.532 12 11.015446192 1.766 30.6283027356
1110 1 5.298 40.618 3.532 12 11.015446192 1.766 30.5906362745
1111 1 5.298 38.852 5.298 12 11.015446192 1.766 28.904993059
1112 1 3.532 40.618 5.298 12 11.015446192 1.766 30.8935992947
1113 1 7.064 38.852 3.532 12 11.015446192 1.766 28.622812556
1114 1 8.83 40.618 3.532 12 11.015446192 1.766 28.7271022439
1115 1 8.83 38.852 5.298 12 11.015446192 1.766 27.0772810653
1116 1 7.064 40.618 5.298 12 11.015446192 1.766 28.9761967748
1117 1 10.596 38.852 3.532 12 11.015446192 1.766 26.7912753243
1118 1 12.362 40.618 3.532 12 11.015446192 1.766 27.1293604944
1119 1 12.362 38.852 5.298 12 11.015446192 1.766 25.6087821663
1120 1 10.596 40.618 5.298 12 11.015446192 1.766 27.3820293201
1121 1 14.128 38.852 3.532 12 11.015446192 1.766 25.312793251
1122 1 15.894 40.618 3.532 12 11.015446192 1.766 25.8789151159
1123 1 15.894 38.852 5.298 12 11.015446192 1.766 24.4964178817
1124 1 14.128 40.618 5.298 12 11.015446192 1.766 26.130232012
1125 1 17.66 38.852 3.532 12 11.015446192 1.766 24.0949245884
1126 1 19.426 40.618 3.532 12 11.015446192 1.766 24.901276258
1127 1 19.426 38.852 5.298 12 11.015446192 1.766 23.7416209434
1128 1 17.66 40.618 5.298 12 11.015446192 1.766 25.1778003605
1129 1 21.192 38.852 3.532 12 11.015446192 1.766 23.3020519755
1130 1 22.958 40.618 3.532 12 11.015446192 1.766 24.391982671
1131 1 22.958 38.852 5.298 12 11.015446192 1.766 23.4990359166
1132 1 21.192 40.618 5.298 12 11.015446192 1.766 24.6979094455
1133 1 24.724 38.852 3.532 12 11.015446192 1.766 23.0294574321
1134 1 26.49 40.618 3.532 12 11.015446192 1.766 24.3888114916
1135 1 26.49 38.852 5.298 12 11.015446192 1.766 23.7843406676
1136 1 24.724 40.618 5.298 12 11.015446192 1.766 24.718452196
1137 1 28.256 38.852 3.532 12 11.015446192 1.766 23.2954124446
1138 1 30.022 40.618 3.532 12 11.015446192 1.766 24.891956157
1139 1 30.022 38.852 5.298 12 11.015446192 1.766 24.541560757
1140 1 28.256 40.618 5.298 12 11.015446192 1.766 25.2382066508
1141 1 31.788 38.852 3.532 12 11.015446192 1.766 24.0820808966
1142 1 33.554 40.618 3.532 12 11.015446192 1.766 25.8718937202
1143 1 33.554 38.852 5.298 12 11.015446192 1.766 25.5576041042
1144 1 31.788 40.618 5.298 12 11.015446192 1.766 26.1705584408
1145 1 35.32 38.852 3.532 12 11.015446192 1.766 25.3410151268
1146 1 37.086 40.618 3.532 12 11.015446192 1.766 27.2772852798
1147 1 37.086 38.852 5.298 12 11.015446192 1.766 26.9775692663
1148 1 35.32 40.618 5.298 12 11.015446192 1.766 27.3398003021
1149 1 38.852 38.852 3.532 12 11.015446192 1.766 26.9916994461
1150 1 40.618 40.618 3.532 12 11.015446192 1.766 28.9481851033
1151 1 40.618 38.852 5.298 12 11.015446192 1.766 28.7634734948
1152 1 38.852 40.618 5.298 12 11.015446192 1.766 28.8877048025
1153 1 0.0 0.0 7.064 12 11.015446192 1.766 30.5457675981
1154 1 1.766 1.766 7.064 12 11.015446192 1.766 30.6213982537
1155 1 1.766 0.0 8.83 12 11.015446192 1.766 30.6588890051
1156 1 0.0 1.766 8.83 12 11.015446192 1.766 28.544802307
1157 1 3.532 0.0 7.064 12 11.015446192 1.766 30.9037642457
1158 1 5.298 1.766 7.064 12 11.015446192 1.766 28.882997983
1159 1 5.298 0.0 8.83 12 11.015446192 1.766 28.9017411572
1160 1 3.532 1.766 8.83 12 11.015446192 1.766 28.917466687
1161 1 7.064 0.0 7.064 12 11.015446192 1.766 28.9750901087
1162 1 8.83 1.766 7.064 12 11.015446192 1.766 27.0410021771
1163 1 8.83 0.0 8.83 12 11.015446192 1.766 27.0610211961
1164 1 7.064 1.766 8.83 12 11.015446192 1.766 26.8464724285
1165 1 10.596 0.0 7.064 12 11.015446192 1.766 27.3413637093
1166 1 12.362 1.766 7.064 12 11.015446192 1.766 25.4513804789
1167 1 12.362 0.0 8.83 12 11.015446192 1.766 25.5206855657
1168 1 10.596 1.766 8.83 12 11.015446192 1.766 25.1032120377
1169 1 14.128 0.0 7.064 12 11.015446192 1.766 25.9523368758
1170 1 15.894 1.766 7.064 12 11.015446192 1.766 24.2110155464
1171 1 15.894 0.0 8.83 12 11.015446192 1.766 24.2838608391
1172 1 14.128 1.766 8.83 12 11.015446192 1.766 23.6160404009
1173 1 17.66 0.0 7.064 12 11.015446192 1.766 24.9879834886
1174 1 19.426 1.766 7.064 12 11.015446192 1.766 23.4419245647
1175 1 19.426 0.0 8.83 12 11.015446192 1.766 23.5171522672
1176 1 17.66 1.766 8.83 12 11.015446192 1.766 22.5520042064
1177 1 21.192 0.0 7.064 12 11.015446192 1.766 24.499487675
1178 1 22.958 1.766 7.064 12 11.015446192 1.766 23.1910419949
1179 1 22.958 0.0 8.83 12 11.015446192 1.766 23.2670808713
1180 1 21.192 1.766 8.83 12 11.015446192 1.766 22.009508655
1181 1 24.724 0.0 7.064 12 11.015446192 1.766 24.5153119875
1182 1 26.49 1.766 7.064 12 11.015446192 1.766 23.4749883561
1183 1 26.49 0.0 8.83 12 11.015446192 1.766 23.5501104409
1184 1 24.724 1.766 8.83 12 11.015446192 1.766 22.0271218443
1185 1 28.256 0.0 7.064 12 11.015446192 1.766 25.0345001019
1186 1 30.022 1.766 7.064 12 11.015446192 1.766 24.2564094695
1187 1 30.022 0.0 8.83 12 11.015446192 1.766 24.2980167811
1188 1 28.256 1.766 8.83 12 11.015446192 1.766 22.6035344637
1189 1 31.788 0.0 7.064 12 11.015446192 1.766 25.9034145039
1190 1 33.554 1.766 7.064 12 11.015446192 1.766 25.2861463949
1191 1 33.554 0.0 8.83 12 11.015446192 1.766 25.3083756794
1192 1 31.788 1.766 8.83 12 11.015446192 1.766 23.5106658988
1193 1 35.32 0.0 7.064 12 11.015446192 1.766 27.0811591337
1194 1 37.086 1.766 7.064 12 11.015446192 1.766 26.7257651073
1195 1 37.086 0.0 8.83 12 11.015446192 1.766 26.7467979503
1196 1 35.32 1.766 8.83 12 11.015446192 1.766 24.8022923955
1197 1 38.852 0.0 7.064 12 11.015446192 1.766 28.6485867905
1198 1 40.618 1.766 7.064 12 11.015446192 1.766 28.5323306029
1199 1 40.618 0.0 8.83 12 11.015446192 1.766 28.5520326713
1200 1 38.852 1.766 8.83 12 11.015446192 1.766 26.504830751
1201 1 0.0 3.532 7.064 12 11.015446192 1.766 28.6175196859
1202 1 1.766 5.298 7.064 12 11.015446192 1.766 28.753019679
1203 1 1.766 3.532 8.83 12 11.015446192 1.766 28.6446162791
1204 1 0.0 5.298 8.83 12 11.015446192 1.766 26.6153539845
1205 1 3.532 3.532 7.064 12 11.015446192 1.766 29.0064531124
1206 1 5.298 5.298 7.064 12 11.015446192 1.766 27.0746057053
1207 1 5.298 3.532 8.83 12 11.015446192 1.766 26.8634011162
1208 1 3.532 5.298 8.83 12 11.015446192 1.766 27.1113736503
1209 1 7.064 3.532 7.064 12 11.015446192 1.766 26.9422999096
1210 1 8.83 5.298 7.064 12 11.015446192 1.766 25.1002490098
1211 1 8.83 3.532 8.83 12 11.015446192 1.766 24.8722846918
1212 1 7.064 5.298 8.83 12 11.015446192 1.766 24.89055611
1213 1 10.596 3.532 7.064 12 11.015446192 1.766 25.1857610298
1214 1 12.362 5.298 7.064 12 11.015446192 1.766 23.3911576395
1215 1 12.362 3.532 8.83 12 11.015446192 1.766 23.1992210037
1216 1 10.596 5.298 8.83 12 11.015446192 1.766 23.0000659504
1217 1 14.128 3.532 7.064 12 11.015446192 1.766 23.673239169
1218 1 15.894 5.298 7.064 12 11.015446192 1.766 22.0351256231
1219 1 15.894 3.532 8.83 12 11.015446192 1.766 21.8312702491
1220 1 14.128 5.298 8.83 12 11.015446192 1.766 21.3796831513
1221 1 17.66 3.532 7.064 12 11.015446192 1.766 22.6118947075
1222 1 19.426 5.298 7.064 12 11.015446192 1.766 21.1871969532
1223 1 19.426 3.532 8.83 12 11.015446192 1.766 20.9751022452
1224 1 17.66 5.298 8.83 12 11.015446192 1.766 20.1981776693
1225 1 21.192 3.532 7.064 12 11.015446192 1.766 22.0708712961
1226 1 22.958 5.298 7.064 12 11.015446192 1.766 20.9092782334
1227 1 22.958 3.532 8.83 12 11.015446192 1.766 20.6943353531
1228 1 21.192 5.298 8.83 12 11.015446192 1.766 19.5906089407
1229 1 24.724 3.532 7.064 12 11.015446192 1.766 22.0884355553
1230 1 26.49 5.298 7.064 12 11.015446192 1.766 21.2237735983
1231 1 26.49 3.532 8.83 12 11.015446192 1.766 21.0120480966
1232 1 24.724 5.298 8.83 12 11.015446192 1.766 19.6103947991
1233 1 28.256 3.532 7.064 12 11.015446192 1.766 22.6632887902
1234 1 30.022 5.298 7.064 12 11.015446192 1.766 22.0802966054
1235 1 30.022 3.532 8.83 12 11.015446192 1.766 21.846638244
1236 1 28.256 5.298 8.83 12 11.015446192 1.766 20.2556969193
1237 1 31.788 3.532 7.064 12 11.015446192 1.766 23.6191499208
1238 1 33.554 5.298 7.064 12 11.015446192 1.766 23.2096328858
1239 1 33.554 3.532 8.83 12 11.015446192 1.766 22.9650003168
1240 1 31.788 5.298 8.83 12 11.015446192 1.766 21.262732539
1241 1 35.32 3.532 7.064 12 11.015446192 1.766 24.9051508738
1242 1 37.086 5.298 7.064 12 11.015446192 1.766 24.7713323136
1243 1 37.086 3.532 8.83 12 11.015446192 1.766 24.5411605393
1244 1 35.32 5.298 8.83 12 11.015446192 1.766 22.6827267341
1245 1 38.852 3.532 7.064 12 11.015446192 1.766 26.60110684
1246 1 40.618 5.298 7.064 12 11.015446192 1.766 26.6964897455
1247 1 40.618 3.532 8.83 12 11.015446192 1.766 26.4970928534
1248 1 38.852 5.298 8.83 12 11.015446192 1.766 24.5328032878
1249 1 0.0 7.064 7.064 12 11.015446192 1.766 26.8499121194
1250 1 1.766 8.83 7.064 12 11.015446192 1.766 27.1559800085
1251 1 1.766 7.064 8.83 12 11.015446192 1.766 26.8178893315
1252 1 0.0 8.83 8.83 12 11.015446192 1.766 24.892134106
1253 1 3.532 7.064 7.064 12 11.015446192 1.766 27.4344760971
1254 1 5.298 8.83 7.064 12 11.015446192 1.766 25.5751793928
1255 1 5.298 7.064 8.83 12 11.015446192 1.766 25.1579817382
1256 1 3.532 8.83 8.83 12 11.015446192 1.766 25.6624976713
1257 1 7.064 7.064 7.064 12 11.015446192 1.766 25.2396360024
1258 1 8.83 8.83 7.064 12 11.015446192 1.766 23.4544955293
1259 1 8.83 7.064 8.83 12 11.015446192 1.766 23.0198234441
1260 1 7.064 8.83 8.83 12 11.015446192 1.766 23.2965069306
1261 1 10.596 7.064 7.064 12 11.015446192 1.766 23.3626146987
1262 1 12.362 8.83 7.064 12 11.015446192 1.766 21.6898336992
1263 1 12.362 7.064 8.83 12 11.015446192 1.766 21.2142569174
1264 1 10.596 8.83 8.83 12 11.015446192 1.766 21.2526982268
1265 1 14.128 7.064 7.064 12 11.015446192 1.766 21.7317915549
1266 1 15.894 8.83 7.064 12 11.015446192 1.766 20.2452536823
1267 1 15.894 7.064 8.83 12 11.015446192 1.766 19.7092078005
1268 1 14.128 8.83 8.83 12 11.015446192 1.766 19.529833258
1269 1 17.66 7.064 7.064 12 11.015446192 1.766 20.5705200152
1270 1 19.426 8.83 7.064 12 11.015446192 1.766 19.3189246639
1271 1 19.426 7.064 8.83 12 11.015446192 1.766 18.7564235832
1272 1 17.66 8.83 8.83 12 11.015446192 1.766 18.2288210424
1273 1 21.192 7.064 7.064 12 11.015446192 1.766 19.9742802425
1274 1 22.958 8.83 7.064 12 11.015446192 1.766 19.0137174608
1275 1 22.958 7.064 8.83 12 11.015446192 1.766 18.4419095308
1276 1 21.192 8.83 8.83 12 11.015446192 1.766 17.5532189101
1277 1 24.724 7.064 7.064 12 11.015446192 1.766 19.9936864214
1278 1 26.49 8.83 7.064 12 11.015446192 1.766 19.3122496653
1279 1 26.49 7.064 8.83 12 11.015446192 1.766 18.797730625
1280 1 24.724 8.83 8.83 12 11.015446192 1.766 17.575298564
1281 1 28.256 7.064 7.064 12 11.015446192 1.766 20.5987740171
1282 1 30.022 8.83 7.064 12 11.015446192 1.766 20.0528600322
1283 1 30.022 7.064 8.83 12 11.015446192 1.766 19.7045553652
1284 1 28.256 8.83 8.83 12 11.015446192 1.766 18.2070319415
1285 1 31.788 7.064 7.064 12 11.015446192 1.766 21.5933162203
1286 1 33.554 8.83 7.064 12 11.015446192 1.766 21.3259822046
1287 1 33.554 7.064 8.83 12 11.015446192 1.766 20.9527238951
1288 1 31.788 8.83 8.83 12 11.015446192 1.766 19.290943202
1289 1 35.32 7.064 7.064 12 11.015446192 1.766 23.0310598735
1290 1 37.086 8.83 7.064 12 11.015446192 1.766 23.0669241077
1291 1 37.086 7.064 8.83 12 11.015446192 1.766 22.6736844963
1292 1 35.32 8.83 8.83 12 11.015446192 1.766 20.8935514536
1293 1 38.852 7.064 7.064 12 11.015446192 1.766 24.8718111732
1294 1 40.618 8.83 7.064 12 11.015446192 1.766 24.9972830442
1295 1 40.618 7.064 8.83 12 11.015446192 1.766 24.6715995319
1296 1 38.852 8.83 8.83 12 11.015446192 1.766 22.8257324394
1297 1 0.0 10.596 7.064 12 11.015446192 1.766 25.2858866732
1298 1 1.766 12.362 7.064 12 11.015446192 1.766 25.8041783629
1299 1 1.766 10.596 8.83 12 11.015446192 1.766 25.3318826488
1300 1 0.0 12.362 8.83 12 11.015446192 1.766 23.4751278033
1301 1 3.532 10.596 7.064 12 11.015446192 1.766 26.1122765662
1302 1 5.298 12.362 7.064 12 11.015446192 1.766 24.354800077
1303 1 5.298 10.596 8.83 12 11.015446192 1.766 23.7723554053
1304 1 3.532 12.362 8.83 12 11.015446192 1.766 24.4769558697
1305 1 7.064 10.596 7.064 12 11.015446192 1.766 23.7780846929
1306 1 8.83 12.362 7.064 12 11.015446192 1.766 22.1173604887
1307 1 8.83 10.596 8.83 12 11.015446192 1.766 21.4743155819
1308 1 7.064 12.362 8.83 12 11.015446192 1.766 21.9696994253
1309 1 10.596 10.596 7.064 12 11.015446192 1.766 21.7690992891
1310 1 12.362 12.362 7.064 12 11.015446192 1.766 20.2521364596
1311 1 12.362 10.596 8.83 12 11.015446192 1.766 19.5478291864
1312 1 10.596 12.362 8.83 12 11.015446192 1.766 19.7778680608
1313 1 14.128 10.596 7.064 12 11.015446192 1.766 20.1781795785
1314 1 15.894 12.362 7.064 12 11.015446192 1.766 18.8697528613
1315 1 15.894 10.596 8.83 12 11.015446192 1.766 18.0342387306
1316 1 14.128 12.362 8.83 12 11.015446192 1.766 18.0169499423
1317 1 17.66 10.596 7.064 12 11.015446192 1.766 18.9722126578
1318 1 19.426 12.362 7.064 12 11.015446192 1.766 17.9581300141
1319 1 19.426 10.596 8.83 12 11.015446192 1.766 16.9882896452
1320 1 17.66 12.362 8.83 12 11.015446192 1.766 16.7722627443
1321 1 21.192 10.596 7.064 12 11.015446192 1.766 18.3240396922
1322 1 22.958 12.362 7.064 12 11.015446192 1.766 17.5291065988
1323 1 22.958 10.596 8.83 12 11.015446192 1.766 16.6403902171
1324 1 21.192 12.362 8.83 12 11.015446192 1.766 16.0416039005
1325 1 24.724 10.596 7.064 12 11.015446192 1.766 18.2742902147
1326 1 26.49 12.362 7.064 12 11.015446192 1.766 17.6206222589
1327 1 26.49 10.596 8.83 12 11.015446192 1.766 16.9121461995
1328 1 24.724 12.362 8.83 12 11.015446192 1.766 15.9021560052
1329 1 28.256 10.596 7.064 12 11.015446192 1.766 18.7100040121
1330 1 30.022 12.362 7.064 12 11.015446192 1.766 18.3906661736
1331 1 30.022 10.596 8.83 12 11.015446192 1.766 17.7202270341
1332 1 28.256 12.362 8.83 12 11.015446192 1.766 16.3765384865
1333 1 31.788 10.596 7.064 12 11.015446192 1.766 19.7552410172
1334 1 33.554 12.362 7.064 12 11.015446192 1.766 19.7692989434
1335 1 33.554 10.596 8.83 12 11.015446192 1.766 19.149067018
1336 1 31.788 12.362 8.83 12 11.015446192 1.766 17.5612160831
1337 1 35.32 10.596 7.064 12 11.015446192 1.766 21.3364027289
1338 1 37.086 12.362 7.064 12 11.015446192 1.766 21.4573004702
1339 1 37.086 10.596 8.83 12 11.015446192 1.766 20.9884735599
1340 1 35.32 12.362 8.83 12 11.015446192 1.766 19.2444228362
1341 1 38.852 10.596 7.064 12 11.015446192 1.766 23.1661632809
1342 1 40.618 12.362 7.064 12 11.015446192 1.766 23.4661598526
1343 1 40.618 10.596 8.83 12 11.015446192 1.766 23.0257440001
1344 1 38.852 12.362 8.83 12 11.015446192 1.766 21.1759481527
1345 1 0.0 14.128 7.064 12 11.015446192 1.766 24.0234306312
1346 1 1.766 15.894 7.064 12 11.015446192 1.766 24.8206527787
1347 1 1.766 14.128 8.83 12 11.015446192 1.766 24.0919964839
1348 1 0.0 15.894 8.83 12 11.015446192 1.766 22.3908441623
1349 1 3.532 14.128 7.064 12 11.015446192 1.766 25.167246292
1350 1 5.298 15.894 7.064 12 11.015446192 1.766 23.6044616385
1351 1 5.298 14.128 8.83 12 11.015446192 1.766 22.7302481281
1352 1 3.532 15.894 8.83 12 11.015446192 1.766 23.7304802121
1353 1 7.064 14.128 7.064 12 11.015446192 1.766 22.7362400171
1354 1 8.83 15.894 7.064 12 11.015446192 1.766 21.2883056497
1355 1 8.83 14.128 8.83 12 11.015446192 1.766 20.3146628857
1356 1 7.064 15.894 8.83 12 11.015446192 1.766 21.1348530936
1357 1 10.596 14.128 7.064 12 11.015446192 1.766 20.6260268182
1358 1 12.362 15.894 7.064 12 11.015446192 1.766 19.3433025522
1359 1 12.362 14.128 8.83 12 11.015446192 1.766 18.2662783388
1360 1 10.596 15.894 8.83 12 11.015446192 1.766 18.8461769991
1361 1 14.128 14.128 7.064 12 11.015446192 1.766 18.9441126078
1362 1 15.894 15.894 7.064 12 11.015446192 1.766 17.889973765
1363 1 15.894 14.128 8.83 12 11.015446192 1.766 16.7205971348
1364 1 14.128 15.894 8.83 12 11.015446192 1.766 16.9889613477
1365 1 17.66 14.128 7.064 12 11.015446192 1.766 17.8122393508
1366 1 19.426 15.894 7.064 12 11.015446192 1.766 16.9958355266
1367 1 19.426 14.128 8.83 12 11.015446192 1.766 15.7959607173
1368 1 17.66 15.894 8.83 12 11.015446192 1.766 15.7163000772
1369 1 21.192 14.128 7.064 12 11.015446192 1.766 17.1149838749
1370 1 22.958 15.894 7.064 12 11.015446192 1.766 16.3937658306
1371 1 22.958 14.128 8.83 12 11.015446192 1.766 15.2338563057
1372 1 21.192 15.894 8.83 12 11.015446192 1.766 14.9557344882
1373 1 24.724 14.128 7.064 12 11.015446192 1.766 16.8339963006
1374 1 26.49 15.894 7.064 12 11.015446192 1.766 16.4783428665
1375 1 26.49 14.128 8.83 12 11.015446192 1.766 15.3248361642
1376 1 24.724 15.894 8.83 12 11.015446192 1.766 14.6282335953
1377 1 28.256 14.128 7.064 12 11.015446192 1.766 17.2811654979
1378 1 30.022 15.894 7.064 12 11.015446192 1.766 17.2993079961
1379 1 30.022 14.128 8.83 12 11.015446192 1.766 16.2043474715
1380 1 28.256 15.894 8.83 12 11.015446192 1.766 15.1406891401
1381 1 31.788 14.128 7.064 12 11.015446192 1.766 18.4073975809
1382 1 33.554 15.894 7.064 12 11.015446192 1.766 18.5830584159
1383 1 33.554 14.128 8.83 12 11.015446192 1.766 17.6805996477
1384 1 31.788 15.894 8.83 12 11.015446192 1.766 16.3488043352
1385 1 35.32 14.128 7.064 12 11.015446192 1.766 19.9157071122
1386 1 37.086 15.894 7.064 12 11.015446192 1.766 20.2638823241
1387 1 37.086 14.128 8.83 12 11.015446192 1.766 19.4525811777
1388 1 35.32 15.894 8.83 12 11.015446192 1.766 17.9125674537
1389 1 38.852 14.128 7.064 12 11.015446192 1.766 21.7808466442
1390 1 40.618 15.894 7.064 12 11.015446192 1.766 22.3801215726
1391 1 40.618 14.128 8.83 12 11.015446192 1.766 21.6482754332
1392 1 38.852 15.894 8.83 12 11.015446192 1.766 19.9657197101
1393 1 0.0 17.66 7.064 12 11.015446192 1.766 23.2337992302
1394 1 1.766 19.426 7.064 12 11.015446192 1.766 24.3150989251
1395 1 1.766 17.66 8.83 12 11.015446192 1.766 23.3014842285
1396 1 0.0 19.426 8.83 12 11.015446192 1.766 21.8290891628
1397 1 3.532 17.66 7.064 12 11.015446192 1.766 24.6957411788
1398 1 5.298 19.426 7.064 12 11.015446192 1.766 23.3255076021
1399 1 5.298 17.66 8.83 12 11.015446192 1.766 22.2070602831
1400 1 3.532 19.426 8.83 12 11.015446192 1.766 23.4549791494
1401 1 7.064 17.66 7.064 12 11.015446192 1.766 22.2131932996
1402 1 8.83 19.426 7.064 12 11.015446192 1.766 20.969332012
1403 1 8.83 17.66 8.83 12 11.015446192 1.766 19.7275156725
1404 1 7.064 19.426 8.83 12 11.015446192 1.766 20.8639756144
1405 1 10.596 17.66 7.064 12 11.015446192 1.766 20.0438875621
1406 1 12.362 19.426 7.064 12 11.015446192 1.766 18.8915319482
1407 1 12.362 17.66 8.83 12 11.015446192 1.766 17.6072657748
1408 1 10.596 19.426 8.83 12 11.015446192 1.766 18.4888511722
1409 1 14.128 17.66 7.064 12 11.015446192 1.766 18.2639501556
1410 1 15.894 19.426 7.064 12 11.015446192 1.766 17.2541076618
1411 1 15.894 17.66 8.83 12 11.015446192 1.766 15.9495816644
1412 1 14.128 19.426 8.83 12 11.015446192 1.766 16.479490663
1413 1 17.66 17.66 7.064 12 11.015446192 1.766 16.9879421232
1414 1 19.426 19.426 7.064 12 11.015446192 1.766 16.2293646848
1415 1 19.426 17.66 8.83 12 11.015446192 1.766 14.8978078101
1416 1 17.66 19.426 8.83 12 11.015446192 1.766 14.9963225699
1417 1 21.192 17.66 7.064 12 11.015446192 1.766 16.2737432245
1418 1 22.958 19.426 7.064 12 11.015446192 1.766 15.8875234918
1419 1 22.958 17.66 8.83 12 11.015446192 1.766 14.3382492811
1420 1 21.192 19.426 8.83 12 11.015446192 1.766 14.2479851962
1421 1 24.724 17.66 7.064 12 11.015446192 1.766 16.0283470853
1422 1 26.49 19.426 7.064 12 11.015446192 1.766 16.0479059837
1423 1 26.49 17.66 8.83 12 11.015446192 1.766 14.4352028838
1424 1 24.724 19.426 8.83 12 11.015446192 1.766 14.1384578952
1425 1 28.256 17.66 7.064 12 11.015446192 1.766 16.497368269
1426 1 30.022 19.426 7.064 12 11.015446192 1.766 16.7373435064
1427 1 30.022 17.66 8.83 12 11.015446192 1.766 15.3097096041
1428 1 28.256 19.426 8.83 12 11.015446192 1.766 14.6258339529
1429 1 31.788 17.66 7.064 12 11.015446192 1.766 17.5071343857
1430 1 33.554 19.426 7.064 12 11.015446192 1.766 17.9022147084
1431 1 33.554 17.66 8.83 12 11.015446192 1.766 16.6069941619
1432 1 31.788 19.426 8.83 12 11.015446192 1.766 15.5948536833
1433 1 35.32 17.66 7.064 12 11.015446192 1.766 18.9557272917
1434 1 37.086 19.426 7.064 12 11.015446192 1.766 19.6413889077
1435 1 37.086 17.66 8.83 12 11.015446192 1.766 18.4685441184
1436 1 35.32 19.426 8.83 12 11.015446192 1.766 17.2052115407
1437 1 38.852 17.66 7.064 12 11.015446192 1.766 20.9066852445
1438 1 40.618 19.426 7.064 12 11.015446192 1.766 21.8180904981
1439 1 40.618 17.66 8.83 12 11.015446192 1.766 20.7685347728
1440 1 38.852 19.426 8.83 12 11.015446192 1.766 19.333628602
1441 1 0.0 21.192 7.064 12 11.015446192 1.766 22.9661420802
1442 1 1.766 22.958 7.064 12 11.015446192 1.766 24.3173459719
1443 1 1.766 21.192 8.83 12 11.015446192 1.766 23.0313718204
1444 1 0.0 22.958 8.83 12 11.015446192 1.766 21.831592087
1445 1 3.532 21.192 7.064 12 11.015446192 1.766 24.3799615779
1446 1 5.298 22.958 7.064 12 11.015446192 1.766 23.0193668535
1447 1 5.298 21.192 8.83 12 11.015446192 1.766 21.8953707138
1448 1 3.532 22.958 8.83 12 11.015446192 1.766 23.1505505839
1449 1 7.064 21.192 7.064 12 11.015446192 1.766 21.8994983662
1450 1 8.83 22.958 7.064 12 11.015446192 1.766 20.6778087932
1451 1 8.83 21.192 8.83 12 11.015446192 1.766 19.4187482822
1452 1 7.064 22.958 8.83 12 11.015446192 1.766 20.5220246197
1453 1 10.596 21.192 7.064 12 11.015446192 1.766 19.7322724485
1454 1 12.362 22.958 7.064 12 11.015446192 1.766 18.7129265772
1455 1 12.362 21.192 8.83 12 11.015446192 1.766 17.2815603292
1456 1 10.596 22.958 8.83 12 11.015446192 1.766 18.2018967321
1457 1 14.128 21.192 7.064 12 11.015446192 1.766 17.8618165811
1458 1 15.894 22.958 7.064 12 11.015446192 1.766 17.1346950604
1459 1 15.894 21.192 8.83 12 11.015446192 1.766 15.4916893523
1460 1 14.128 22.958 8.83 12 11.015446192 1.766 16.3117360084
1461 1 17.66 21.192 7.064 12 11.015446192 1.766 16.5002277088
1462 1 19.426 22.958 7.064 12 11.015446192 1.766 16.1023545384
1463 1 19.426 21.192 8.83 12 11.015446192 1.766 14.3415649723
1464 1 17.66 22.958 8.83 12 11.015446192 1.766 14.8587763367
1465 1 21.192 21.192 7.064 12 11.015446192 1.766 15.824682787
1466 1 22.958 22.958 7.064 12 11.015446192 1.766 15.8089821477
1467 1 22.958 21.192 8.83 12 11.015446192 1.766 14.0113619997
1468 1 21.192 22.958 8.83 12 11.015446192 1.766 14.1048326857
1469 1 24.724 21.192 7.064 12 11.015446192 1.766 15.8862300608
1470 1 26.49 22.958 7.064 12 11.015446192 1.766 16.0648001467
1471 1 26.49 21.192 8.83 12 11.015446192 1.766 14.3016381464
1472 1 24.724 22.958 8.83 12 11.015446192 1.766 14.1580644247
1473 1 28.256 21.192 7.064 12 11.015446192 1.766 16.3145527324
1474 1 30.022 22.958 7.064 12 11.015446192 1.766 16.7364498674
1475 1 30.022 21.192 8.83 12 11.015446192 1.766 14.9359195135
1476 1 28.256 22.958 8.83 12 11.015446192 1.766 14.6148634092
1477 1 31.788 21.192 7.064 12 11.015446192 1.766 17.1503355587
1478 1 33.554 22.958 7.064 12 11.015446192 1.766 17.9052665672
1479 1 33.554 21.192 8.83 12 11.015446192 1.766 16.2304192944
1480 1 31.788 22.958 8.83 12 11.015446192 1.766 15.5983569898
1481 1 35.32 21.192 7.064 12 11.015446192 1.766 18.6266973061
1482 1 37.086 22.958 7.064 12 11.015446192 1.766 19.6441705756
1483 1 37.086 21.192 8.83 12 11.015446192 1.766 18.1306750351
1484 1 35.32 22.958 8.83 12 11.015446192 1.766 17.2083870115
1485 1 38.852 21.192 7.064 12 11.015446192 1.766 20.6088268296
1486 1 40.618 22.958 7.064 12 11.015446192 1.766 21.8205946839
1487 1 40.618 21.192 8.83 12 11.015446192 1.766 20.4686661018
1488 1 38.852 22.958 8.83 12 11.015446192 1.766 19.3364545431
1489 1 0.0 24.724 7.064 12 11.015446192 1.766 23.2385022199
1490 1 1.766 26.49 7.064 12 11.015446192 1.766 24.8272560403
1491 1 1.766 24.724 8.83 12 11.015446192 1.766 23.299765162
1492 1 0.0 26.49 8.83 12 11.015446192 1.766 22.3981637736
1493 1 3.532 24.724 7.064 12 11.015446192 1.766 24.3448042913
1494 1 5.298 26.49 7.064 12 11.015446192 1.766 23.2519513972
1495 1 5.298 24.724 8.83 12 11.015446192 1.766 21.8562171506
1496 1 3.532 26.49 8.83 12 11.015446192 1.766 23.3818302487
1497 1 7.064 24.724 7.064 12 11.015446192 1.766 21.860352196
1498 1 8.83 26.49 7.064 12 11.015446192 1.766 20.93642209
1499 1 8.83 24.724 8.83 12 11.015446192 1.766 19.3745904289
1500 1 7.064 26.49 8.83 12 11.015446192 1.766 20.782576547
1501 1 10.596 24.724 7.064 12 11.015446192 1.766 19.6984910154
1502 1 12.362 26.49 7.064 12 11.015446192 1.766 18.9990616632
1503 1 12.362 24.724 8.83 12 11.015446192 1.766 17.2628308351
1504 1 10.596 26.49 8.83 12 11.015446192 1.766 18.495162559
1505 1 14.128 24.724 7.064 12 11.015446192 1.766 17.9759880518
1506 1 15.894 26.49 7.064 12 11.015446192 1.766 17.5654480795
1507 1 15.894 24.724 8.83 12 11.015446192 1.766 15.6705835352
1508 1 14.128 26.49 8.83 12 11.015446192 1.766 16.6486226528
1509 1 17.66 24.724 7.064 12 11.015446192 1.766 16.7507645637
1510 1 19.426 26.49 7.064 12 11.015446192 1.766 16.7247261143
1511 1 19.426 24.724 8.83 12 11.015446192 1.766 14.6304153551
1512 1 17.66 26.49 8.83 12 11.015446192 1.766 15.402346652
1513 1 21.192 24.724 7.064 12 11.015446192 1.766 16.0869249055
1514 1 22.958 26.49 7.064 12 11.015446192 1.766 16.4349122988
1515 1 22.958 24.724 8.83 12 11.015446192 1.766 14.3036919431
1516 1 21.192 26.49 8.83 12 11.015446192 1.766 14.8235689364
1517 1 24.724 24.724 7.064 12 11.015446192 1.766 16.0853308608
1518 1 26.49 26.49 7.064 12 11.015446192 1.766 16.5066608113
1519 1 26.49 24.724 8.83 12 11.015446192 1.766 14.4523765806
1520 1 24.724 26.49 8.83 12 11.015446192 1.766 14.7035106874
1521 1 28.256 24.724 7.064 12 11.015446192 1.766 16.4737769025
1522 1 30.022 26.49 7.064 12 11.015446192 1.766 17.2385576865
1523 1 30.022 24.724 8.83 12 11.015446192 1.766 15.2752299429
1524 1 28.256 26.49 8.83 12 11.015446192 1.766 15.1134450905
1525 1 31.788 24.724 7.064 12 11.015446192 1.766 17.5047333347
1526 1 33.554 26.49 7.064 12 11.015446192 1.766 18.5779521189
1527 1 33.554 24.724 8.83 12 11.015446192 1.766 16.6135731813
1528 1 31.788 26.49 8.83 12 11.015446192 1.766 16.2938254563
1529 1 35.32 24.724 7.064 12 11.015446192 1.766 18.9614913947
1530 1 37.086 26.49 7.064 12 11.015446192 1.766 20.2719699333
1531 1 37.086 24.724 8.83 12 11.015446192 1.766 18.474460225
1532 1 35.32 26.49 8.83 12 11.015446192 1.766 17.9217161822
1533 1 38.852 24.724 7.064 12 11.015446192 1.766 20.9119115977
1534 1 40.618 26.49 7.064 12 11.015446192 1.766 22.3874446897
1535 1 40.618 24.724 8.83 12 11.015446192 1.766 20.7737958824
1536 1 38.852 26.49 8.83 12 11.015446192 1.766 19.9739280482
1537 1 0.0 28.256 7.064 12 11.015446192 1.766 24.0325266421
1538 1 1.766 30.022 7.064 12 11.015446192 1.766 25.8147635641
1539 1 1.766 28.256 8.83 12 11.015446192 1.766 24.0886710567
1540 1 0.0 30.022 8.83 12 11.015446192 1.766 23.4837724887
1541 1 3.532 28.256 7.064 12 11.015446192 1.766 24.8174638797
1542 1 5.298 30.022 7.064 12 11.015446192 1.766 24.0076089025
1543 1 5.298 28.256 8.83 12 11.015446192 1.766 22.3814933723
1544 1 3.532 30.022 8.83 12 11.015446192 1.766 24.1334213741
1545 1 7.064 28.256 7.064 12 11.015446192 1.766 22.3855313891
1546 1 8.83 30.022 7.064 12 11.015446192 1.766 21.7725931246
1547 1 8.83 28.256 8.83 12 11.015446192 1.766 19.9652641287
1548 1 7.064 30.022 8.83 12 11.015446192 1.766 21.6246972088
1549 1 10.596 28.256 7.064 12 11.015446192 1.766 20.279732881
1550 1 12.362 30.022 7.064 12 11.015446192 1.766 19.916736317
1551 1 12.362 28.256 8.83 12 11.015446192 1.766 17.9232348051
1552 1 10.596 30.022 8.83 12 11.015446192 1.766 19.436642702
1553 1 14.128 28.256 7.064 12 11.015446192 1.766 18.6111032418
1554 1 15.894 30.022 7.064 12 11.015446192 1.766 18.5541641599
1555 1 15.894 28.256 8.83 12 11.015446192 1.766 16.3958216638
1556 1 14.128 30.022 8.83 12 11.015446192 1.766 17.6886595783
1557 1 17.66 28.256 7.064 12 11.015446192 1.766 17.5051081125
1558 1 19.426 30.022 7.064 12 11.015446192 1.766 17.7985302153
1559 1 19.426 28.256 8.83 12 11.015446192 1.766 15.53556044
1560 1 17.66 30.022 8.83 12 11.015446192 1.766 16.5210267184
1561 1 21.192 28.256 7.064 12 11.015446192 1.766 17.0542581617
1562 1 22.958 30.022 7.064 12 11.015446192 1.766 17.5538636866
1563 1 22.958 28.256 8.83 12 11.015446192 1.766 15.3001283535
1564 1 21.192 30.022 8.83 12 11.015446192 1.766 15.9906616018
1565 1 24.724 28.256 7.064 12 11.015446192 1.766 16.9124037572
1566 1 26.49 30.022 7.064 12 11.015446192 1.766 17.6581977145
1567 1 26.49 28.256 8.83 12 11.015446192 1.766 15.3537702279
1568 1 24.724 30.022 8.83 12 11.015446192 1.766 15.9541547866
1569 1 28.256 28.256 7.064 12 11.015446192 1.766 17.2699854319
1570 1 30.022 30.022 7.064 12 11.015446192 1.766 18.3442079822
1571 1 30.022 28.256 8.83 12 11.015446192 1.766 16.1380383003
1572 1 28.256 30.022 8.83 12 11.015446192 1.766 16.3633223365
1573 1 31.788 28.256 7.064 12 11.015446192 1.766 18.3146236867
1574 1 33.554 30.022 7.064 12 11.015446192 1.766 19.6509041641
1575 1 33.554 28.256 8.83 12 11.015446192 1.766 17.6085924211
1576 1 31.788 30.022 8.83 12 11.015446192 1.766 17.4622839817
1577 1 35.32 28.256 7.064 12 11.015446192 1.766 19.9068481082
1578 1 37.086 30.022 7.064 12 11.015446192 1.766 21.4439403825
1579 1 37.086 28.256 8.83 12 11.015446192 1.766 19.4638133978
1580 1 35.32 30.022 8.83 12 11.015446192 1.766 19.1586652413
1581 1 38.852 28.256 7.064 12 11.015446192 1.766 21.7908787809
1582 1 40.618 30.022 7.064 12 11.015446192 1.766 23.4777991965
1583 1 40.618 28.256 8.83 12 11.015446192 1.766 21.6583689769
1584 1 38.852 30.022 8.83 12 11.015446192 1.766 21.1888455809
1585 1 0.0 31.788 7.064 12 11.015446192 1.766 25.2971656606
1586 1 1.766 33.554 7.064 12 11.015446192 1.766 27.1556634084
1587 1 1.766 31.788 8.83 12 11.015446192 1.766 25.3272864189
1588 1 0.0 33.554 8.83 12 11.015446192 1.766 24.889163182
1589 1 3.532 31.788 7.064 12 11.015446192 1.766 25.7700131715
1590 1 5.298 33.554 7.064 12 11.015446192 1.766 25.2394012341
1591 1 5.298 31.788 8.83 12 11.015446192 1.766 23.4332735873
1592 1 3.532 33.554 8.83 12 11.015446192 1.766 25.3591032306
1593 1 7.064 31.788 7.064 12 11.015446192 1.766 23.437130392
1594 1 8.83 33.554 7.064 12 11.015446192 1.766 23.1237518757
1595 1 8.83 31.788 8.83 12 11.015446192 1.766 21.1376166388
1596 1 7.064 33.554 8.83 12 11.015446192 1.766 22.9845517427
1597 1 10.596 31.788 7.064 12 11.015446192 1.766 21.4348928424
1598 1 12.362 33.554 7.064 12 11.015446192 1.766 21.3854734566
1599 1 12.362 31.788 8.83 12 11.015446192 1.766 19.2205465927
1600 1 10.596 33.554 8.83 12 11.015446192 1.766 20.9390823334
1601 1 14.128 31.788 7.064 12 11.015446192 1.766 19.863540201
1602 1 15.894 33.554 7.064 12 11.015446192 1.766 20.1226016487
1603 1 15.894 31.788 8.83 12 11.015446192 1.766 17.8047755805
1604 1 14.128 33.554 8.83 12 11.015446192 1.766 19.3274614763
1605 1 17.66 31.788 7.064 12 11.015446192 1.766 18.8312473158
1606 1 19.426 33.554 7.064 12 11.015446192 1.766 19.3403709952
1607 1 19.426 31.788 8.83 12 11.015446192 1.766 16.9798814576
1608 1 17.66 33.554 8.83 12 11.015446192 1.766 18.2509580861
1609 1 21.192 31.788 7.064 12 11.015446192 1.766 18.3024709878
1610 1 22.958 33.554 7.064 12 11.015446192 1.766 19.0417980826
1611 1 22.958 31.788 8.83 12 11.015446192 1.766 16.6457101788
1612 1 21.192 33.554 8.83 12 11.015446192 1.766 17.6043080332
1613 1 24.724 31.788 7.064 12 11.015446192 1.766 18.3096996113
1614 1 26.49 33.554 7.064 12 11.015446192 1.766 19.3534372872
1615 1 26.49 31.788 8.83 12 11.015446192 1.766 16.9456896146
1616 1 24.724 33.554 8.83 12 11.015446192 1.766 17.6331168349
1617 1 28.256 31.788 7.064 12 11.015446192 1.766 18.7101447403
1618 1 30.022 33.554 7.064 12 11.015446192 1.766 20.0200427043
1619 1 30.022 31.788 8.83 12 11.015446192 1.766 17.6706932396
1620 1 28.256 33.554 8.83 12 11.015446192 1.766 18.2203513556
1621 1 31.788 31.788 7.064 12 11.015446192 1.766 19.6784796204
1622 1 33.554 33.554 7.064 12 11.015446192 1.766 21.2238115769
1623 1 33.554 31.788 8.83 12 11.015446192 1.766 19.0237080386
1624 1 31.788 33.554 8.83 12 11.015446192 1.766 19.2151894408
1625 1 35.32 31.788 7.064 12 11.015446192 1.766 21.1982464403
1626 1 37.086 33.554 7.064 12 11.015446192 1.766 22.9139323081
1627 1 37.086 31.788 8.83 12 11.015446192 1.766 20.8925724483
1628 1 35.32 33.554 8.83 12 11.015446192 1.766 20.7688853147
1629 1 38.852 31.788 7.064 12 11.015446192 1.766 23.1477912016
1630 1 40.618 33.554 7.064 12 11.015446192 1.766 24.9765755334
1631 1 40.618 31.788 8.83 12 11.015446192 1.766 23.0331291562
1632 1 38.852 33.554 8.83 12 11.015446192 1.766 22.7556869693
1633 1 0.0 35.32 7.064 12 11.015446192 1.766 26.8420282508
1634 1 1.766 37.086 7.064 12 11.015446192 1.766 28.7493724492
1635 1 1.766 35.32 8.83 12 11.015446192 1.766 26.8106791348
1636 1 0.0 37.086 8.83 12 11.015446192 1.766 26.6145757779
1637 1 3.532 35.32 7.064 12 11.015446192 1.766 27.1519924186
1638 1 5.298 37.086 7.064 12 11.015446192 1.766 26.881955139
1639 1 5.298 35.32 8.83 12 11.015446192 1.766 24.9450480949
1640 1 3.532 37.086 8.83 12 11.015446192 1.766 26.9943744899
1641 1 7.064 35.32 7.064 12 11.015446192 1.766 24.9486711961
1642 1 8.83 37.086 7.064 12 11.015446192 1.766 24.9062248896
1643 1 8.83 35.32 8.83 12 11.015446192 1.766 22.8021040829
1644 1 7.064 37.086 8.83 12 11.015446192 1.766 24.7770409099
1645 1 10.596 35.32 7.064 12 11.015446192 1.766 23.0779493154
1646 1 12.362 37.086 7.064 12 11.015446192 1.766 23.301300659
1647 1 12.362 35.32 8.83 12 11.015446192 1.766 21.0372651445
1648 1 10.596 37.086 8.83 12 11.015446192 1.766 22.8922979712
1649 1 14.128 35.32 7.064 12 11.015446192 1.766 21.6263113535
1650 1 15.894 37.086 7.064 12 11.015446192 1.766 22.1215966283
1651 1 15.894 35.32 8.83 12 11.015446192 1.766 19.7495455315
1652 1 14.128 37.086 8.83 12 11.015446192 1.766 21.4280868151
1653 1 17.66 35.32 7.064 12 11.015446192 1.766 20.6296695237
1654 1 19.426 37.086 7.064 12 11.015446192 1.766 21.2885910797
1655 1 19.426 35.32 8.83 12 11.015446192 1.766 18.847245934
1656 1 17.66 37.086 8.83 12 11.015446192 1.766 20.3224191786
1657 1 21.192 35.32 7.064 12 11.015446192 1.766 20.0414465593
1658 1 22.958 37.086 7.064 12 11.015446192 1.766 21.0177123909
1659 1 22.958 35.32 8.83 12 11.015446192 1.766 18.5407336231
1660 1 21.192 37.086 8.83 12 11.015446192 1.766 19.7247514878
1661 1 24.724 35.32 7.064 12 11.015446192 1.766 20.0667567926
1662 1 26.49 37.086 7.064 12 11.015446192 1.766 21.3362228647
1663 1 26.49 35.32 8.83 12 11.015446192 1.766 18.9010310636
1664 1 24.724 37.086 8.83 12 11.015446192 1.766 19.7504675702
1665 1 28.256 35.32 7.064 12 11.015446192 1.766 20.6414494463
1666 1 30.022 37.086 7.064 12 11.015446192 1.766 22.1311274251
1667 1 30.022 35.32 8.83 12 11.015446192 1.766 19.7236043093
1668 1 28.256 37.086 8.83 12 11.015446192 1.766 20.3964022016
1669 1 31.788 35.32 7.064 12 11.015446192 1.766 21.5408850226
1670 1 33.554 37.086 7.064 12 11.015446192 1.766 23.2312799741
1671 1 33.554 35.32 8.83 12 11.015446192 1.766 20.9444177508
1672 1 31.788 37.086 8.83 12 11.015446192 1.766 21.4098980598
1673 1 35.32 35.32 7.064 12 11.015446192 1.766 22.9375853029
1674 1 37.086 37.086 7.064 12 11.015446192 1.766 24.784884208
1675 1 37.086 35.32 8.83 12 11.015446192 1.766 22.6553912103
1676 1 35.32 37.086 8.83 12 11.015446192 1.766 22.8139187907
1677 1 38.852 35.32 7.064 12 11.015446192 1.766 24.7629957698
1678 1 40.618 37.086 7.064 12 11.015446192 1.766 26.7018911817
1679 1 40.618 35.32 8.83 12 11.015446192 1.766 24.6662893634
1680 1 38.852 37.086 8.83 12 11.015446192 1.766 24.6364916079
1681 1 0.0 38.852 7.064 12 11.015446192 1.766 28.6691356445
1682 1 1.766 40.618 7.064 12 11.015446192 1.766 30.6649908554
1683 1 1.766 38.852 8.83 12 11.015446192 1.766 28.6383089515
1684 1 0.0 40.618 8.83 12 11.015446192 1.766 28.6600568969
1685 1 3.532 38.852 7.064 12 11.015446192 1.766 28.9018659214
1686 1 5.298 40.618 7.064 12 11.015446192 1.766 28.8652333706
1687 1 5.298 38.852 8.83 12 11.015446192 1.766 26.8391986821
1688 1 3.532 40.618 8.83 12 11.015446192 1.766 28.9699575343
1689 1 7.064 38.852 7.064 12 11.015446192 1.766 26.8425661198
1690 1 8.83 40.618 7.064 12 11.015446192 1.766 27.0348335244
1691 1 8.83 38.852 8.83 12 11.015446192 1.766 24.8600706364
1692 1 7.064 40.618 8.83 12 11.015446192 1.766 26.9158678421
1693 1 10.596 38.852 7.064 12 11.015446192 1.766 25.1133212866
1694 1 12.362 40.618 7.064 12 11.015446192 1.766 25.5622089328
1695 1 12.362 38.852 8.83 12 11.015446192 1.766 23.2519609109
1696 1 10.596 40.618 8.83 12 11.015446192 1.766 25.1916552026
1697 1 14.128 38.852 7.064 12 11.015446192 1.766 23.7763073459
1698 1 15.894 40.618 7.064 12 11.015446192 1.766 24.366334195
1699 1 15.894 38.852 8.83 12 11.015446192 1.766 21.9831250563
1700 1 14.128 40.618 8.83 12 11.015446192 1.766 23.7905417595
1701 1 17.66 38.852 7.064 12 11.015446192 1.766 22.7425518386
1702 1 19.426 40.618 7.064 12 11.015446192 1.766 23.6073784671
1703 1 19.426 38.852 8.83 12 11.015446192 1.766 21.1387762944
1704 1 17.66 40.618 8.83 12 11.015446192 1.766 22.7399412752
1705 1 21.192 38.852 7.064 12 11.015446192 1.766 22.2101050001
1706 1 22.958 40.618 7.064 12 11.015446192 1.766 23.3633996258
1707 1 22.958 38.852 8.83 12 11.015446192 1.766 20.865952823
1708 1 21.192 40.618 8.83 12 11.015446192 1.766 22.2074318457
1709 1 24.724 38.852 7.064 12 11.015446192 1.766 22.2329465457
1710 1 26.49 40.618 7.064 12 11.015446192 1.766 23.6503406753
1711 1 26.49 38.852 8.83 12 11.015446192 1.766 21.1867448938
1712 1 24.724 40.618 8.83 12 11.015446192 1.766 22.2302761379
1713 1 28.256 38.852 7.064 12 11.015446192 1.766 22.8094083239
1714 1 30.022 40.618 7.064 12 11.015446192 1.766 24.4493561937
1715 1 30.022 38.852 8.83 12 11.015446192 1.766 22.0622103187
1716 1 28.256 40.618 8.83 12 11.015446192 1.766 22.8068054132
1717 1 31.788 38.852 7.064 12 11.015446192 1.766 23.7832236267
1718 1 33.554 40.618 7.064 12 11.015446192 1.766 25.522989757
1719 1 33.554 38.852 8.83 12 11.015446192 1.766 23.1935741468
1720 1 31.788 40.618 8.83 12 11.015446192 1.766 23.7671738585
1721 1 35.32 38.852 7.064 12 11.015446192 1.766 25.0545865116
1722 1 37.086 40.618 7.064 12 11.015446192 1.766 26.9417491243
1723 1 37.086 38.852 8.83 12 11.015446192 1.766 24.7462582609
1724 1 35.32 40.618 8.83 12 11.015446192 1.766 25.0342458788
1725 1 38.852 38.852 7.064 12 11.015446192 1.766 26.7351396094
1726 1 40.618 40.618 7.064 12 11.015446192 1.766 28.7264826372
1727 1 40.618 38.852 8.83 12 11.015446192 1.766 26.6349734411
1728 1 38.852 40.618 8.83 12 11.015446192 1.766 26.7113513732
1729 1 0.0 0.0 10.596 12 11.015446192 1.766 28.6735180652
1730 1 1.766 1.766 10.596 12 11.015446192 1.766 28.7307378887
1731 1 1.766 0.0 12.362 12 11.015446192 1.766 29.0026254227
1732 1 0.0 1.766 12.362 12 11.015446192 1.766 26.7601762115
1733 1 3.532 0.0 10.596 12 11.015446192 1.766 29.0437680239
1734 1 5.298 1.766 10.596 12 11.015446192 1.766 26.8835523873
1735 1 5.298 0.0 12.362 12 11.015446192 1.766 27.1345440793
1736 1 3.532 1.766 12.362 12 11.015446192 1.766 27.1512931565
1737 1 7.064 0.0 10.596 12 11.015446192 1.766 26.982469555
1738 1 8.83 1.766 10.596 12 11.015446192 1.766 24.894047787
1739 1 8.83 0.0 12.362 12 11.015446192 1.766 25.1648903962
1740 1 7.064 1.766 12.362 12 11.015446192 1.766 24.9340314095
1741 1 10.596 0.0 10.596 12 11.015446192 1.766 25.2490972818
1742 1 12.362 1.766 10.596 12 11.015446192 1.766 23.2632991243
1743 1 12.362 0.0 12.362 12 11.015446192 1.766 23.5628941964
1744 1 10.596 1.766 12.362 12 11.015446192 1.766 23.0471076838
1745 1 14.128 0.0 10.596 12 11.015446192 1.766 23.8219961313
1746 1 15.894 1.766 10.596 12 11.015446192 1.766 21.9120282984
1747 1 15.894 0.0 12.362 12 11.015446192 1.766 22.2743042902
1748 1 14.128 1.766 12.362 12 11.015446192 1.766 21.5431848206
1749 1 17.66 0.0 10.596 12 11.015446192 1.766 22.76758725
1750 1 19.426 1.766 10.596 12 11.015446192 1.766 21.0591438017
1751 1 19.426 0.0 12.362 12 11.015446192 1.766 21.4358388015
1752 1 17.66 1.766 12.362 12 11.015446192 1.766 20.3723250535
1753 1 21.192 0.0 10.596 12 11.015446192 1.766 22.2303532742
1754 1 22.958 1.766 10.596 12 11.015446192 1.766 20.7795124863
1755 1 22.958 0.0 12.362 12 11.015446192 1.766 21.1611858512
1756 1 21.192 1.766 12.362 12 11.015446192 1.766 19.7701088918
1757 1 24.724 0.0 10.596 12 11.015446192 1.766 22.2477916254
1758 1 26.49 1.766 10.596 12 11.015446192 1.766 21.0959424695
1759 1 26.49 0.0 12.362 12 11.015446192 1.766 21.4719918997
1760 1 24.724 1.766 12.362 12 11.015446192 1.766 19.7897152861
1761 1 28.256 0.0 10.596 12 11.015446192 1.766 22.8131058973
1762 1 30.022 1.766 10.596 12 11.015446192 1.766 21.8766689994
1763 1 30.022 0.0 12.362 12 11.015446192 1.766 22.1853183555
1764 1 28.256 1.766 12.362 12 11.015446192 1.766 20.3990994657
1765 1 31.788 0.0 10.596 12 11.015446192 1.766 23.6667193128
1766 1 33.554 1.766 10.596 12 11.015446192 1.766 22.9894741039
1767 1 33.554 0.0 12.362 12 11.015446192 1.766 23.2833765507
1768 1 31.788 1.766 12.362 12 11.015446192 1.766 21.3155613363
1769 1 35.32 0.0 10.596 12 11.015446192 1.766 24.9502685376
1770 1 37.086 1.766 10.596 12 11.015446192 1.766 24.5640640091
1771 1 37.086 0.0 12.362 12 11.015446192 1.766 24.8393426779
1772 1 35.32 1.766 12.362 12 11.015446192 1.766 22.7322557646
1773 1 38.852 0.0 10.596 12 11.015446192 1.766 26.6433527388
1774 1 40.618 1.766 10.596 12 11.015446192 1.766 26.5183070672
1775 1 40.618 0.0 12.362 12 11.015446192 1.766 26.7735002145
1776 1 38.852 1.766 12.362 12 11.015446192 1.766 24.5786044602
1777 1 0.0 3.532 10.596 12 11.015446192 1.766 26.5869175974
1778 1 1.766 5.298 10.596 12 11.015446192 1.766 26.7031916415
1779 1 1.766 3.532 12.362 12 11.015446192 1.766 26.8215719802
1780 1 0.0 5.298 12.362 12 11.015446192 1.766 24.6442863895
1781 1 3.532 3.532 10.596 12 11.015446192 1.766 27.0161458879
1782 1 5.298 5.298 10.596 12 11.015446192 1.766 24.9305453324
1783 1 5.298 3.532 12.362 12 11.015446192 1.766 24.9522576134
1784 1 3.532 5.298 12.362 12 11.015446192 1.766 25.2190289599
1785 1 7.064 3.532 10.596 12 11.015446192 1.766 24.7867977136
1786 1 8.83 5.298 10.596 12 11.015446192 1.766 22.771041189
1787 1 8.83 3.532 12.362 12 11.015446192 1.766 22.7948105117
1788 1 7.064 5.298 12.362 12 11.015446192 1.766 22.8147457566
1789 1 10.596 3.532 10.596 12 11.015446192 1.766 22.8877388825
1790 1 12.362 5.298 10.596 12 11.015446192 1.766 20.9814271044
1791 1 12.362 3.532 12.362 12 11.015446192 1.766 21.0128927214
1792 1 10.596 5.298 12.362 12 11.015446192 1.766 20.7358596204
1793 1 14.128 3.532 10.596 12 11.015446192 1.766 21.3163309018
1794 1 15.894 5.298 10.596 12 11.015446192 1.766 19.4810285043
1795 1 15.894 3.532 12.362 12 11.015446192 1.766 19.5714867869
1796 1 14.128 5.298 12.362 12 11.015446192 1.766 19.0619253379
1797 1 17.66 3.532 10.596 12 11.015446192 1.766 20.1311075856
1798 1 19.426 5.298 10.596 12 11.015446192 1.766 18.5165068276
1799 1 19.426 3.532 12.362 12 11.015446192 1.766 18.6116535686
1800 1 17.66 5.298 12.362 12 11.015446192 1.766 17.7314724578
1801 1 21.192 3.532 10.596 12 11.015446192 1.766 19.5214515375
1802 1 22.958 5.298 10.596 12 11.015446192 1.766 18.1978467574
1803 1 22.958 3.532 12.362 12 11.015446192 1.766 18.2946508594
1804 1 21.192 5.298 12.362 12 11.015446192 1.766 17.0361584
1805 1 24.724 3.532 10.596 12 11.015446192 1.766 19.5413074189
1806 1 26.49 5.298 10.596 12 11.015446192 1.766 18.5583478821
1807 1 26.49 3.532 12.362 12 11.015446192 1.766 18.6532812013
1808 1 24.724 5.298 12.362 12 11.015446192 1.766 17.0589073079
1809 1 28.256 3.532 10.596 12 11.015446192 1.766 20.182440887
1810 1 30.022 5.298 10.596 12 11.015446192 1.766 19.4407055049
1811 1 30.022 3.532 12.362 12 11.015446192 1.766 19.4696099231
1812 1 28.256 5.298 12.362 12 11.015446192 1.766 17.7618960538
1813 1 31.788 3.532 10.596 12 11.015446192 1.766 21.1421607943
1814 1 33.554 5.298 10.596 12 11.015446192 1.766 20.6849777277
1815 1 33.554 3.532 12.362 12 11.015446192 1.766 20.7121457996
1816 1 31.788 5.298 12.362 12 11.015446192 1.766 18.8070608842
1817 1 35.32 3.532 10.596 12 11.015446192 1.766 22.5697421368
1818 1 37.086 5.298 10.596 12 11.015446192 1.766 22.421989757
1819 1 37.086 3.532 12.362 12 11.015446192 1.766 22.4470555907
1820 1 35.32 5.298 12.362 12 11.015446192 1.766 20.3987214346
1821 1 38.852 3.532 10.596 12 11.015446192 1.766 24.4283770477
1822 1 40.618 5.298 10.596 12 11.015446192 1.766 24.5096063785
1823 1 40.618 3.532 12.362 12 11.015446192 1.766 24.5664305531
1824 1 38.852 5.298 12.362 12 11.015446192 1.766 22.4356796013
1825 1 0.0 7.064 10.596 12 11.015446192 1.766 24.6422824429
1826 1 1.766 8.83 10.596 12 11.015446192 1.766 24.9825878129
1827 1 1.766 7.064 12.362 12 11.015446192 1.766 24.8595759291
1828 1 0.0 8.83 12.362 12 11.015446192 1.766 22.7687871335
1829 1 3.532 7.064 10.596 12 11.015446192 1.766 25.3210162562
1830 1 5.298 8.83 10.596 12 11.015446192 1.766 23.3514205175
1831 1 5.298 7.064 12.362 12 11.015446192 1.766 23.1062088109
1832 1 3.532 8.83 12.362 12 11.015446192 1.766 23.6591667497
1833 1 7.064 7.064 10.596 12 11.015446192 1.766 22.9274304384
1834 1 8.83 8.83 10.596 12 11.015446192 1.766 21.0303843627
1835 1 8.83 7.064 12.362 12 11.015446192 1.766 20.7577723245
1836 1 7.064 8.83 12.362 12 11.015446192 1.766 21.077698488
1837 1 10.596 7.064 10.596 12 11.015446192 1.766 20.859777486
1838 1 12.362 8.83 10.596 12 11.015446192 1.766 19.0821365792
1839 1 12.362 7.064 12.362 12 11.015446192 1.766 18.7835935362
1840 1 10.596 8.83 12.362 12 11.015446192 1.766 18.8077809379
1841 1 14.128 7.064 10.596 12 11.015446192 1.766 19.137253579
1842 1 15.894 8.83 10.596 12 11.015446192 1.766 17.430834949
1843 1 15.894 7.064 12.362 12 11.015446192 1.766 17.1724082902
1844 1 14.128 8.83 12.362 12 11.015446192 1.766 16.9551418794
1845 1 17.66 7.064 10.596 12 11.015446192 1.766 17.8075827685
1846 1 19.426 8.83 10.596 12 11.015446192 1.766 16.3457811233
1847 1 19.426 7.064 12.362 12 11.015446192 1.766 16.0699147475
1848 1 17.66 8.83 12.362 12 11.015446192 1.766 15.4508462861
1849 1 21.192 7.064 10.596 12 11.015446192 1.766 17.1153609827
1850 1 22.958 8.83 10.596 12 11.015446192 1.766 15.9839032167
1851 1 22.958 7.064 12.362 12 11.015446192 1.766 15.7016802127
1852 1 21.192 8.83 12.362 12 11.015446192 1.766 14.6476697282
1853 1 24.724 7.064 10.596 12 11.015446192 1.766 17.1380047577
1854 1 26.49 8.83 10.596 12 11.015446192 1.766 16.3926820716
1855 1 26.49 7.064 12.362 12 11.015446192 1.766 16.118108171
1856 1 24.724 8.83 12.362 12 11.015446192 1.766 14.6741219149
1857 1 28.256 7.064 10.596 12 11.015446192 1.766 17.8654423843
1858 1 30.022 8.83 10.596 12 11.015446192 1.766 17.3419549245
1859 1 30.022 7.064 12.362 12 11.015446192 1.766 17.0555890715
1860 1 28.256 8.83 12.362 12 11.015446192 1.766 15.4852075083
1861 1 31.788 7.064 10.596 12 11.015446192 1.766 18.9425017111
1862 1 33.554 8.83 10.596 12 11.015446192 1.766 18.754412148
1863 1 33.554 7.064 12.362 12 11.015446192 1.766 18.4613215032
1864 1 31.788 8.83 12.362 12 11.015446192 1.766 16.6735710369
1865 1 35.32 7.064 10.596 12 11.015446192 1.766 20.5236611778
1866 1 37.086 8.83 10.596 12 11.015446192 1.766 20.6343700947
1867 1 37.086 7.064 12.362 12 11.015446192 1.766 20.3876839786
1868 1 35.32 8.83 12.362 12 11.015446192 1.766 18.4500224025
1869 1 38.852 7.064 10.596 12 11.015446192 1.766 22.5172190139
1870 1 40.618 8.83 10.596 12 11.015446192 1.766 22.6693349738
1871 1 40.618 7.064 12.362 12 11.015446192 1.766 22.5335180997
1872 1 38.852 8.83 12.362 12 11.015446192 1.766 20.5093736917
1873 1 0.0 10.596 10.596 12 11.015446192 1.766 23.0374395019
1874 1 1.766 12.362 10.596 12 11.015446192 1.766 23.5211779868
1875 1 1.766 10.596 12.362 12 11.015446192 1.766 23.2042511653
1876 1 0.0 12.362 12.362 12 11.015446192 1.766 21.2290127947
1877 1 3.532 10.596 10.596 12 11.015446192 1.766 24.0133662418
1878 1 5.298 12.362 10.596 12 11.015446192 1.766 22.1050395768
1879 1 5.298 10.596 12.362 12 11.015446192 1.766 21.6824504894
1880 1 3.532 12.362 12.362 12 11.015446192 1.766 22.5140932157
1881 1 7.064 10.596 10.596 12 11.015446192 1.766 21.461125514
1882 1 8.83 12.362 10.596 12 11.015446192 1.766 19.6126011249
1883 1 8.83 10.596 12.362 12 11.015446192 1.766 19.1585381368
1884 1 7.064 12.362 12.362 12 11.015446192 1.766 19.7635332118
1885 1 10.596 10.596 10.596 12 11.015446192 1.766 19.2172983716
1886 1 12.362 12.362 10.596 12 11.015446192 1.766 17.4821485829
1887 1 12.362 10.596 12.362 12 11.015446192 1.766 16.9928723401
1888 1 10.596 12.362 12.362 12 11.015446192 1.766 17.2949581361
1889 1 14.128 10.596 10.596 12 11.015446192 1.766 17.3811444343
1890 1 15.894 12.362 10.596 12 11.015446192 1.766 15.8531990942
1891 1 15.894 10.596 12.362 12 11.015446192 1.766 15.2213720117
1892 1 14.128 12.362 12.362 12 11.015446192 1.766 15.2499835121
1893 1 17.66 10.596 10.596 12 11.015446192 1.766 15.934508574
1894 1 19.426 12.362 10.596 12 11.015446192 1.766 14.7125165749
1895 1 19.426 10.596 12.362 12 11.015446192 1.766 13.9656979571
1896 1 17.66 12.362 12.362 12 11.015446192 1.766 13.7111192108
1897 1 21.192 10.596 10.596 12 11.015446192 1.766 15.1569832421
1898 1 22.958 12.362 10.596 12 11.015446192 1.766 14.2942463757
1899 1 22.958 10.596 12.362 12 11.015446192 1.766 13.5403589664
1900 1 21.192 12.362 12.362 12 11.015446192 1.766 12.7995238935
1901 1 24.724 10.596 10.596 12 11.015446192 1.766 15.1774883522
1902 1 26.49 12.362 10.596 12 11.015446192 1.766 14.5134574549
1903 1 26.49 10.596 12.362 12 11.015446192 1.766 13.9975078863
1904 1 24.724 12.362 12.362 12 11.015446192 1.766 12.7842690456
1905 1 28.256 10.596 10.596 12 11.015446192 1.766 15.8180696398
1906 1 30.022 12.362 10.596 12 11.015446192 1.766 15.4392590758
1907 1 30.022 10.596 12.362 12 11.015446192 1.766 15.0198170512
1908 1 28.256 12.362 12.362 12 11.015446192 1.766 13.4469385105
1909 1 31.788 10.596 10.596 12 11.015446192 1.766 17.0408752804
1910 1 33.554 12.362 10.596 12 11.015446192 1.766 17.0467908593
1911 1 33.554 10.596 12.362 12 11.015446192 1.766 16.6379406141
1912 1 31.788 12.362 12.362 12 11.015446192 1.766 14.8669247937
1913 1 35.32 10.596 10.596 12 11.015446192 1.766 18.8346372088
1914 1 37.086 12.362 10.596 12 11.015446192 1.766 18.938213382
1915 1 37.086 10.596 12.362 12 11.015446192 1.766 18.5999223196
1916 1 35.32 12.362 12.362 12 11.015446192 1.766 16.7607020358
1917 1 38.852 10.596 10.596 12 11.015446192 1.766 20.794213799
1918 1 40.618 12.362 10.596 12 11.015446192 1.766 21.1648654901
1919 1 40.618 10.596 12.362 12 11.015446192 1.766 20.7680486249
1920 1 38.852 12.362 12.362 12 11.015446192 1.766 18.8739782744
1921 1 0.0 14.128 10.596 12 11.015446192 1.766 21.7171192552
1922 1 1.766 15.894 10.596 12 11.015446192 1.766 22.4344748671
1923 1 1.766 14.128 12.362 12 11.015446192 1.766 21.8203387204
1924 1 0.0 15.894 12.362 12 11.015446192 1.766 20.0187948871
1925 1 3.532 14.128 10.596 12 11.015446192 1.766 22.9971035963
1926 1 5.298 15.894 10.596 12 11.015446192 1.766 21.2755046272
1927 1 5.298 14.128 12.362 12 11.015446192 1.766 20.6062051786
1928 1 3.532 15.894 12.362 12 11.015446192 1.766 21.7045433721
1929 1 7.064 14.128 10.596 12 11.015446192 1.766 20.3079565198
1930 1 8.83 15.894 10.596 12 11.015446192 1.766 18.6726657265
1931 1 8.83 14.128 12.362 12 11.015446192 1.766 17.906340778
1932 1 7.064 15.894 12.362 12 11.015446192 1.766 18.8317159915
1933 1 10.596 14.128 10.596 12 11.015446192 1.766 17.9139462488
1934 1 12.362 15.894 10.596 12 11.015446192 1.766 16.4207137946
1935 1 12.362 14.128 12.362 12 11.015446192 1.766 15.5437587555
1936 1 10.596 15.894 12.362 12 11.015446192 1.766 16.2212792152
1937 1 14.128 14.128 10.596 12 11.015446192 1.766 15.948538817
1938 1 15.894 15.894 10.596 12 11.015446192 1.766 14.6820055073
1939 1 15.894 14.128 12.362 12 11.015446192 1.766 13.6941549736
1940 1 14.128 15.894 12.362 12 11.015446192 1.766 14.0205677335
1941 1 17.66 14.128 10.596 12 11.015446192 1.766 14.5856867487
1942 1 19.426 15.894 10.596 12 11.015446192 1.766 13.6462690212
1943 1 19.426 14.128 12.362 12 11.015446192 1.766 12.5131736764
1944 1 17.66 15.894 12.362 12 11.015446192 1.766 12.4488066802
1945 1 21.192 14.128 10.596 12 11.015446192 1.766 13.8068101241
1946 1 22.958 15.894 10.596 12 11.015446192 1.766 12.9965255593
1947 1 22.958 14.128 12.362 12 11.015446192 1.766 11.9698806436
1948 1 21.192 15.894 12.362 12 11.015446192 1.766 11.6319279503
1949 1 24.724 14.128 10.596 12 11.015446192 1.766 13.5476031073
1950 1 26.49 15.894 10.596 12 11.015446192 1.766 13.1030493447
1951 1 26.49 14.128 12.362 12 11.015446192 1.766 12.1441239274
1952 1 24.724 15.894 12.362 12 11.015446192 1.766 11.2523046805
1953 1 28.256 14.128 10.596 12 11.015446192 1.766 14.0993900389
1954 1 30.022 15.894 10.596 12 11.015446192 1.766 14.1171000378
1955 1 30.022 14.128 12.362 12 11.015446192 1.766 13.2366921654
1956 1 28.256 15.894 12.362 12 11.015446192 1.766 11.9109029943
1957 1 31.788 14.128 10.596 12 11.015446192 1.766 15.4509156103
1958 1 33.554 15.894 10.596 12 11.015446192 1.766 15.606737094
1959 1 33.554 14.128 12.362 12 11.015446192 1.766 14.9576881879
1960 1 31.788 15.894 12.362 12 11.015446192 1.766 13.3619925469
1961 1 35.32 14.128 10.596 12 11.015446192 1.766 17.1719414282
1962 1 37.086 15.894 10.596 12 11.015446192 1.766 17.5745585856
1963 1 37.086 14.128 12.362 12 11.015446192 1.766 17.0033899282
1964 1 35.32 15.894 12.362 12 11.015446192 1.766 15.2175976888
1965 1 38.852 14.128 10.596 12 11.015446192 1.766 19.3040271231
1966 1 40.618 15.894 10.596 12 11.015446192 1.766 19.9777382162
1967 1 40.618 14.128 12.362 12 11.015446192 1.766 19.3731067956
1968 1 38.852 15.894 12.362 12 11.015446192 1.766 17.5882111135
1969 1 0.0 17.66 10.596 12 11.015446192 1.766 20.8367017884
1970 1 1.766 19.426 10.596 12 11.015446192 1.766 21.8704265902
1971 1 1.766 17.66 12.362 12 11.015446192 1.766 20.9442606589
1972 1 0.0 19.426 12.362 12 11.015446192 1.766 19.384582673
1973 1 3.532 17.66 10.596 12 11.015446192 1.766 22.4801272298
1974 1 5.298 19.426 10.596 12 11.015446192 1.766 21.0094809801
1975 1 5.298 17.66 12.362 12 11.015446192 1.766 20.0276069043
1976 1 3.532 19.426 12.362 12 11.015446192 1.766 21.4350461175
1977 1 7.064 17.66 10.596 12 11.015446192 1.766 19.7206096372
1978 1 8.83 19.426 10.596 12 11.015446192 1.766 18.3668806724
1979 1 8.83 17.66 12.362 12 11.015446192 1.766 17.237354394
1980 1 7.064 19.426 12.362 12 11.015446192 1.766 18.5363938681
1981 1 10.596 17.66 10.596 12 11.015446192 1.766 17.2452549025
1982 1 12.362 19.426 10.596 12 11.015446192 1.766 16.0135363174
1983 1 12.362 17.66 12.362 12 11.015446192 1.766 14.768134029
1984 1 10.596 19.426 12.362 12 11.015446192 1.766 15.8697866372
1985 1 14.128 17.66 10.596 12 11.015446192 1.766 15.1902989636
1986 1 15.894 19.426 10.596 12 11.015446192 1.766 14.0971004378
1987 1 15.894 17.66 12.362 12 11.015446192 1.766 12.8041224699
1988 1 14.128 19.426 12.362 12 11.015446192 1.766 13.5462197009
1989 1 17.66 17.66 10.596 12 11.015446192 1.766 13.6995412453
1990 1 19.426 19.426 10.596 12 11.015446192 1.766 12.8277111767
1991 1 19.426 17.66 12.362 12 11.015446192 1.766 11.5514804451
1992 1 17.66 19.426 12.362 12 11.015446192 1.766 11.7623919368
1993 1 21.192 17.66 10.596 12 11.015446192 1.766 12.862080212
1994 1 22.958 19.426 10.596 12 11.015446192 1.766 12.3726979242
1995 1 22.958 17.66 12.362 12 11.015446192 1.766 10.8730860054
1996 1 21.192 19.426 12.362 12 11.015446192 1.766 10.7947991268
1997 1 24.724 17.66 10.596 12 11.015446192 1.766 12.5324390599
1998 1 26.49 19.426 10.596 12 11.015446192 1.766 12.5573871119
1999 1 26.49 17.66 12.362 12 11.015446192 1.766 11.0001920346
2000 1 24.724 19.426 12.362 12 11.015446192 1.766 10.6113035305
2001 1 28.256 17.66 10.596 12 11.015446192 1.766 13.1254805412
2002 1 30.022 19.426 10.596 12 11.015446192 1.766 13.356071853
2003 1 30.022 17.66 12.362 12 11.015446192 1.766 12.0738253841
2004 1 28.256 19.426 12.362 12 11.015446192 1.766 11.1998071264
2005 1 31.788 17.66 10.596 12 11.015446192 1.766 14.3087363884
2006 1 33.554 19.426 10.596 12 11.015446192 1.766 14.7895055394
2007 1 33.554 17.66 12.362 12 11.015446192 1.766 13.6567734743
2008 1 31.788 19.426 12.362 12 11.015446192 1.766 12.4062350468
2009 1 35.32 17.66 10.596 12 11.015446192 1.766 16.0486690971
2010 1 37.086 19.426 10.596 12 11.015446192 1.766 16.8530217129
2011 1 37.086 17.66 12.362 12 11.015446192 1.766 15.8682805774
2012 1 35.32 19.426 12.362 12 11.015446192 1.766 14.378265222
2013 1 38.852 17.66 10.596 12 11.015446192 1.766 18.3120089162
2014 1 40.618 19.426 10.596 12 11.015446192 1.766 19.3460397915
2015 1 40.618 17.66 12.362 12 11.015446192 1.766 18.3807545979
2016 1 38.852 19.426 12.362 12 11.015446192 1.766 16.8672582701
2017 1 0.0 21.192 10.596 12 11.015446192 1.766 20.5341925114
2018 1 1.766 22.958 10.596 12 11.015446192 1.766 21.8695108293
2019 1 1.766 21.192 12.362 12 11.015446192 1.766 20.6433276199
2020 1 0.0 22.958 12.362 12 11.015446192 1.766 19.3835494707
2021 1 3.532 21.192 10.596 12 11.015446192 1.766 22.1743435686
2022 1 5.298 22.958 10.596 12 11.015446192 1.766 20.6690647223
2023 1 5.298 21.192 12.362 12 11.015446192 1.766 19.7281846315
2024 1 3.532 22.958 12.362 12 11.015446192 1.766 21.1126029304
2025 1 7.064 21.192 10.596 12 11.015446192 1.766 19.4140932019
2026 1 8.83 22.958 10.596 12 11.015446192 1.766 18.0247264236
2027 1 8.83 21.192 12.362 12 11.015446192 1.766 16.9375852767
2028 1 7.064 22.958 12.362 12 11.015446192 1.766 18.1919626388
2029 1 10.596 21.192 10.596 12 11.015446192 1.766 16.9429207932
2030 1 12.362 22.958 10.596 12 11.015446192 1.766 15.7328108359
2031 1 12.362 21.192 12.362 12 11.015446192 1.766 14.4745421053
2032 1 10.596 22.958 12.362 12 11.015446192 1.766 15.5274935132
2033 1 14.128 21.192 10.596 12 11.015446192 1.766 14.8348328161
2034 1 15.894 22.958 10.596 12 11.015446192 1.766 13.9320503864
2035 1 15.894 21.192 12.362 12 11.015446192 1.766 12.3945697362
2036 1 14.128 22.958 12.362 12 11.015446192 1.766 13.2743607362
2037 1 17.66 21.192 10.596 12 11.015446192 1.766 13.1687285036
2038 1 19.426 22.958 10.596 12 11.015446192 1.766 12.6666379769
2039 1 19.426 21.192 12.362 12 11.015446192 1.766 10.9230676009
2040 1 17.66 22.958 12.362 12 11.015446192 1.766 11.5871269164
2041 1 21.192 21.192 10.596 12 11.015446192 1.766 12.3117212959
2042 1 22.958 22.958 10.596 12 11.015446192 1.766 12.2915341803
2043 1 22.958 21.192 12.362 12 11.015446192 1.766 10.4839273893
2044 1 21.192 22.958 12.362 12 11.015446192 1.766 10.6103357652
2045 1 24.724 21.192 10.596 12 11.015446192 1.766 12.3685983784
2046 1 26.49 22.958 10.596 12 11.015446192 1.766 12.5597591741
2047 1 26.49 21.192 12.362 12 11.015446192 1.766 10.8090209884
2048 1 24.724 22.958 12.362 12 11.015446192 1.766 10.64017723
2049 1 28.256 21.192 10.596 12 11.015446192 1.766 12.8259267756
2050 1 30.022 22.958 10.596 12 11.015446192 1.766 13.3601371952
2051 1 30.022 21.192 12.362 12 11.015446192 1.766 11.5670609209
2052 1 28.256 22.958 12.362 12 11.015446192 1.766 11.1869381429
2053 1 31.788 21.192 10.596 12 11.015446192 1.766 13.8699023937
2054 1 33.554 22.958 10.596 12 11.015446192 1.766 14.7931995686
2055 1 33.554 21.192 12.362 12 11.015446192 1.766 13.1962766379
2056 1 31.788 22.958 12.362 12 11.015446192 1.766 12.4106384773
2057 1 35.32 21.192 10.596 12 11.015446192 1.766 15.6586728418
2058 1 37.086 22.958 10.596 12 11.015446192 1.766 16.8562635312
2059 1 37.086 21.192 12.362 12 11.015446192 1.766 15.4737385225
2060 1 35.32 22.958 12.362 12 11.015446192 1.766 14.3820648786
2061 1 38.852 21.192 10.596 12 11.015446192 1.766 17.9711971199
2062 1 40.618 22.958 10.596 12 11.015446192 1.766 19.3488639199
2063 1 40.618 21.192 12.362 12 11.015446192 1.766 18.0371023245
2064 1 38.852 22.958 12.362 12 11.015446192 1.766 16.8704973527
2065 1 0.0 24.724 10.596 12 11.015446192 1.766 20.834779355
2066 1 1.766 26.49 10.596 12 11.015446192 1.766 22.4317965529
2067 1 1.766 24.724 12.362 12 11.015446192 1.766 20.942348099
2068 1 0.0 26.49 12.362 12 11.015446192 1.766 20.0157933332
2069 1 3.532 24.724 10.596 12 11.015446192 1.766 22.1356834577
2070 1 5.298 26.49 10.596 12 11.015446192 1.766 20.9277860734
2071 1 5.298 24.724 12.362 12 11.015446192 1.766 19.6847209351
2072 1 3.532 26.49 12.362 12 11.015446192 1.766 21.3659541312
2073 1 7.064 24.724 10.596 12 11.015446192 1.766 19.3699247363
2074 1 8.83 26.49 10.596 12 11.015446192 1.766 18.3208284771
2075 1 8.83 24.724 12.362 12 11.015446192 1.766 16.8869406479
2076 1 7.064 26.49 12.362 12 11.015446192 1.766 18.4853860682
2077 1 10.596 24.724 10.596 12 11.015446192 1.766 16.8922921607
2078 1 12.362 26.49 10.596 12 11.015446192 1.766 16.0711956692
2079 1 12.362 24.724 12.362 12 11.015446192 1.766 14.4152467408
2080 1 10.596 26.49 12.362 12 11.015446192 1.766 15.8702567163
2081 1 14.128 24.724 10.596 12 11.015446192 1.766 14.847731564
2082 1 15.894 26.49 10.596 12 11.015446192 1.766 14.3479598686
2083 1 15.894 24.724 12.362 12 11.015446192 1.766 12.4651498487
2084 1 14.128 26.49 12.362 12 11.015446192 1.766 13.6737210149
2085 1 17.66 24.724 10.596 12 11.015446192 1.766 13.4240770183
2086 1 19.426 26.49 10.596 12 11.015446192 1.766 13.3560365435
2087 1 19.426 24.724 12.362 12 11.015446192 1.766 11.2683044463
2088 1 17.66 26.49 12.362 12 11.015446192 1.766 12.1254398908
2089 1 21.192 24.724 10.596 12 11.015446192 1.766 12.6470173904
2090 1 22.958 26.49 10.596 12 11.015446192 1.766 13.0634920712
2091 1 22.958 24.724 12.362 12 11.015446192 1.766 10.8604571199
2092 1 21.192 26.49 12.362 12 11.015446192 1.766 11.4787450367
2093 1 24.724 24.724 10.596 12 11.015446192 1.766 12.598127195
2094 1 26.49 26.49 10.596 12 11.015446192 1.766 13.1201980891
2095 1 26.49 24.724 12.362 12 11.015446192 1.766 11.0007254117
2096 1 24.724 26.49 12.362 12 11.015446192 1.766 11.328636162
2097 1 28.256 24.724 10.596 12 11.015446192 1.766 13.0788023989
2098 1 30.022 26.49 10.596 12 11.015446192 1.766 14.0298830311
2099 1 30.022 24.724 12.362 12 11.015446192 1.766 12.0418519594
2100 1 28.256 26.49 12.362 12 11.015446192 1.766 11.8558421574
2101 1 31.788 24.724 10.596 12 11.015446192 1.766 14.3150409392
2102 1 33.554 26.49 10.596 12 11.015446192 1.766 15.6129820716
2103 1 33.554 24.724 12.362 12 11.015446192 1.766 13.6647729759
2104 1 31.788 26.49 12.362 12 11.015446192 1.766 13.3147472026
2105 1 35.32 24.724 10.596 12 11.015446192 1.766 16.0554769018
2106 1 37.086 26.49 10.596 12 11.015446192 1.766 17.5838831778
2107 1 37.086 24.724 12.362 12 11.015446192 1.766 15.8751657389
2108 1 35.32 26.49 12.362 12 11.015446192 1.766 15.2283655574
2109 1 38.852 24.724 10.596 12 11.015446192 1.766 18.3179755787
2110 1 40.618 26.49 10.596 12 11.015446192 1.766 19.9859416183
2111 1 40.618 24.724 12.362 12 11.015446192 1.766 18.3785752695
2112 1 38.852 26.49 12.362 12 11.015446192 1.766 17.5975284715
2113 1 0.0 28.256 10.596 12 11.015446192 1.766 21.713430117
2114 1 1.766 30.022 10.596 12 11.015446192 1.766 23.5169202334
2115 1 1.766 28.256 12.362 12 11.015446192 1.766 21.8166670363
2116 1 0.0 30.022 12.362 12 11.015446192 1.766 21.2241040058
2117 1 3.532 28.256 10.596 12 11.015446192 1.766 22.6544807837
2118 1 5.298 30.022 10.596 12 11.015446192 1.766 21.7642889012
2119 1 5.298 28.256 12.362 12 11.015446192 1.766 20.2663577323
2120 1 3.532 30.022 12.362 12 11.015446192 1.766 22.1859423369
2121 1 7.064 28.256 10.596 12 11.015446192 1.766 19.9607365027
2122 1 8.83 30.022 10.596 12 11.015446192 1.766 19.2708276295
2123 1 8.83 28.256 12.362 12 11.015446192 1.766 17.5614857539
2124 1 7.064 30.022 12.362 12 11.015446192 1.766 19.4273400014
2125 1 10.596 28.256 10.596 12 11.015446192 1.766 17.566631774
2126 1 12.362 30.022 10.596 12 11.015446192 1.766 17.1462932344
2127 1 12.362 28.256 12.362 12 11.015446192 1.766 15.1998801324
2128 1 10.596 30.022 12.362 12 11.015446192 1.766 16.9580980561
2129 1 14.128 28.256 10.596 12 11.015446192 1.766 15.6106422044
2130 1 15.894 30.022 10.596 12 11.015446192 1.766 15.542715137
2131 1 15.894 28.256 12.362 12 11.015446192 1.766 13.3647662976
2132 1 14.128 30.022 12.362 12 11.015446192 1.766 14.9225563438
2133 1 17.66 28.256 10.596 12 11.015446192 1.766 14.2740252272
2134 1 19.426 30.022 10.596 12 11.015446192 1.766 14.628271464
2135 1 19.426 28.256 12.362 12 11.015446192 1.766 12.2942119854
2136 1 17.66 30.022 12.362 12 11.015446192 1.766 13.5180743446
2137 1 21.192 28.256 10.596 12 11.015446192 1.766 13.7188157384
2138 1 22.958 30.022 10.596 12 11.015446192 1.766 14.2844070403
2139 1 22.958 28.256 12.362 12 11.015446192 1.766 11.9746808306
2140 1 21.192 30.022 12.362 12 11.015446192 1.766 12.8000349844
2141 1 24.724 28.256 10.596 12 11.015446192 1.766 13.6216404372
2142 1 26.49 30.022 10.596 12 11.015446192 1.766 14.5423978887
2143 1 26.49 28.256 12.362 12 11.015446192 1.766 12.1607167128
2144 1 24.724 30.022 12.362 12 11.015446192 1.766 12.8221321546
2145 1 28.256 28.256 10.596 12 11.015446192 1.766 14.0684804999
2146 1 30.022 30.022 10.596 12 11.015446192 1.766 15.3681395508
2147 1 30.022 28.256 12.362 12 11.015446192 1.766 13.1370107307
2148 1 28.256 30.022 12.362 12 11.015446192 1.766 13.4127957058
2149 1 31.788 28.256 10.596 12 11.015446192 1.766 15.3328140778
2150 1 33.554 30.022 10.596 12 11.015446192 1.766 16.9064420036
2151 1 33.554 28.256 12.362 12 11.015446192 1.766 14.8988747354
2152 1 31.788 30.022 12.362 12 11.015446192 1.766 14.7335037454
2153 1 35.32 28.256 10.596 12 11.015446192 1.766 17.1763704576
2154 1 37.086 30.022 10.596 12 11.015446192 1.766 18.9395848921
2155 1 37.086 28.256 12.362 12 11.015446192 1.766 17.0152473442
2156 1 35.32 30.022 12.362 12 11.015446192 1.766 16.7002680289
2157 1 38.852 28.256 10.596 12 11.015446192 1.766 19.3153457302
2158 1 40.618 30.022 10.596 12 11.015446192 1.766 21.1688394467
2159 1 40.618 28.256 12.362 12 11.015446192 1.766 19.3689712069
2160 1 38.852 30.022 12.362 12 11.015446192 1.766 18.8740998671
2161 1 0.0 31.788 10.596 12 11.015446192 1.766 23.0310548951
2162 1 1.766 33.554 10.596 12 11.015446192 1.766 24.9714564876
2163 1 1.766 31.788 12.362 12 11.015446192 1.766 23.1978363287
2164 1 0.0 33.554 12.362 12 11.015446192 1.766 22.7564911777
2165 1 3.532 31.788 10.596 12 11.015446192 1.766 23.6941462184
2166 1 5.298 33.554 10.596 12 11.015446192 1.766 23.1159330509
2167 1 5.298 31.788 12.362 12 11.015446192 1.766 21.4222389393
2168 1 3.532 33.554 12.362 12 11.015446192 1.766 23.5133606024
2169 1 7.064 31.788 10.596 12 11.015446192 1.766 21.1333401802
2170 1 8.83 33.554 10.596 12 11.015446192 1.766 20.7852564807
2171 1 8.83 31.788 12.362 12 11.015446192 1.766 18.8836661516
2172 1 7.064 33.554 12.362 12 11.015446192 1.766 20.9304474145
2173 1 10.596 31.788 10.596 12 11.015446192 1.766 18.8884519568
2174 1 12.362 33.554 10.596 12 11.015446192 1.766 18.8323514495
2175 1 12.362 31.788 12.362 12 11.015446192 1.766 16.7099796971
2176 1 10.596 33.554 12.362 12 11.015446192 1.766 18.6611676784
2177 1 14.128 31.788 10.596 12 11.015446192 1.766 17.0844729352
2178 1 15.894 33.554 10.596 12 11.015446192 1.766 17.3849959238
2179 1 15.894 31.788 12.362 12 11.015446192 1.766 15.0600147287
2180 1 14.128 33.554 12.362 12 11.015446192 1.766 16.8328481629
2181 1 17.66 31.788 10.596 12 11.015446192 1.766 15.8724560679
2182 1 19.426 33.554 10.596 12 11.015446192 1.766 16.4227973389
2183 1 19.426 31.788 12.362 12 11.015446192 1.766 14.0240111799
2184 1 17.66 33.554 12.362 12 11.015446192 1.766 15.5519958201
2185 1 21.192 31.788 10.596 12 11.015446192 1.766 15.1867957932
2186 1 22.958 33.554 10.596 12 11.015446192 1.766 16.0701087869
2187 1 22.958 31.788 12.362 12 11.015446192 1.766 13.6092987901
2188 1 21.192 33.554 12.362 12 11.015446192 1.766 14.7663471289
2189 1 24.724 31.788 10.596 12 11.015446192 1.766 15.2200733185
2190 1 26.49 33.554 10.596 12 11.015446192 1.766 16.4789951961
2191 1 26.49 31.788 12.362 12 11.015446192 1.766 14.0579027749
2192 1 24.724 33.554 12.362 12 11.015446192 1.766 14.8006809139
2193 1 28.256 31.788 10.596 12 11.015446192 1.766 15.8031409207
2194 1 30.022 33.554 10.596 12 11.015446192 1.766 17.3341240516
2195 1 30.022 31.788 12.362 12 11.015446192 1.766 14.9799255781
2196 1 28.256 33.554 12.362 12 11.015446192 1.766 15.58992153
2197 1 31.788 31.788 10.596 12 11.015446192 1.766 16.9384859692
2198 1 33.554 33.554 10.596 12 11.015446192 1.766 18.7114917793
2199 1 33.554 31.788 12.362 12 11.015446192 1.766 16.5543419771
2200 1 31.788 33.554 12.362 12 11.015446192 1.766 16.7717808977
2201 1 35.32 31.788 10.596 12 11.015446192 1.766 18.6824890981
2202 1 37.086 33.554 10.596 12 11.015446192 1.766 20.5970443557
2203 1 37.086 31.788 12.362 12 11.015446192 1.766 18.5784451931
2204 1 35.32 33.554 12.362 12 11.015446192 1.766 18.5234106744
2205 1 38.852 31.788 10.596 12 11.015446192 1.766 20.7917908224
2206 1 40.618 33.554 10.596 12 11.015446192 1.766 22.6661574932
2207 1 40.618 31.788 12.362 12 11.015446192 1.766 20.7603189511
2208 1 38.852 33.554 12.362 12 11.015446192 1.766 20.5064373093
2209 1 0.0 35.32 10.596 12 11.015446192 1.766 24.6345134979
2210 1 1.766 37.086 10.596 12 11.015446192 1.766 26.6915499559
2211 1 1.766 35.32 12.362 12 11.015446192 1.766 24.843509464
2212 1 0.0 37.086 12.362 12 11.015446192 1.766 24.6317496467
2213 1 3.532 35.32 10.596 12 11.015446192 1.766 25.1902695194
2214 1 5.298 37.086 10.596 12 11.015446192 1.766 24.8989658069
2215 1 5.298 35.32 12.362 12 11.015446192 1.766 23.0661967956
2216 1 3.532 37.086 12.362 12 11.015446192 1.766 25.2683648909
2217 1 7.064 35.32 10.596 12 11.015446192 1.766 22.7981398498
2218 1 8.83 37.086 10.596 12 11.015446192 1.766 22.7516817929
2219 1 8.83 35.32 12.362 12 11.015446192 1.766 20.7299291066
2220 1 7.064 37.086 12.362 12 11.015446192 1.766 22.8844000666
2221 1 10.596 35.32 10.596 12 11.015446192 1.766 20.7342887692
2222 1 12.362 37.086 10.596 12 11.015446192 1.766 20.9826022828
2223 1 12.362 35.32 12.362 12 11.015446192 1.766 18.7712688681
2224 1 10.596 37.086 12.362 12 11.015446192 1.766 20.8290978336
2225 1 14.128 35.32 10.596 12 11.015446192 1.766 19.105400517
2226 1 15.894 37.086 10.596 12 11.015446192 1.766 19.6283559265
2227 1 15.894 35.32 12.362 12 11.015446192 1.766 17.298124172
2228 1 14.128 37.086 12.362 12 11.015446192 1.766 19.2029062031
2229 1 17.66 35.32 10.596 12 11.015446192 1.766 17.9235265059
2230 1 19.426 37.086 10.596 12 11.015446192 1.766 18.677859416
2231 1 19.426 35.32 12.362 12 11.015446192 1.766 16.228124522
2232 1 17.66 37.086 12.362 12 11.015446192 1.766 17.9202139349
2233 1 21.192 35.32 10.596 12 11.015446192 1.766 17.2429087567
2234 1 22.958 37.086 10.596 12 11.015446192 1.766 18.3685207992
2235 1 22.958 35.32 12.362 12 11.015446192 1.766 15.871110531
2236 1 21.192 37.086 12.362 12 11.015446192 1.766 17.2394654052
2237 1 24.724 35.32 10.596 12 11.015446192 1.766 17.272320353
2238 1 26.49 37.086 10.596 12 11.015446192 1.766 18.7321309075
2239 1 26.49 35.32 12.362 12 11.015446192 1.766 16.2905592744
2240 1 24.724 37.086 12.362 12 11.015446192 1.766 17.2688828661
2241 1 28.256 35.32 10.596 12 11.015446192 1.766 17.9907587101
2242 1 30.022 37.086 10.596 12 11.015446192 1.766 19.6752724681
2243 1 30.022 35.32 12.362 12 11.015446192 1.766 17.2890934121
2244 1 28.256 37.086 12.362 12 11.015446192 1.766 17.9827794449
2245 1 31.788 35.32 10.596 12 11.015446192 1.766 19.0683167689
2246 1 33.554 37.086 10.596 12 11.015446192 1.766 20.9030073886
2247 1 33.554 35.32 12.362 12 11.015446192 1.766 18.6655970888
2248 1 31.788 37.086 12.362 12 11.015446192 1.766 19.0497711895
2249 1 35.32 35.32 10.596 12 11.015446192 1.766 20.6323153457
2250 1 37.086 37.086 10.596 12 11.015446192 1.766 22.6135293699
2251 1 37.086 35.32 12.362 12 11.015446192 1.766 20.5219286019
2252 1 35.32 37.086 12.362 12 11.015446192 1.766 20.6089739335
2253 1 38.852 35.32 10.596 12 11.015446192 1.766 22.557019104
2254 1 40.618 37.086 10.596 12 11.015446192 1.766 24.5483175685
2255 1 40.618 35.32 12.362 12 11.015446192 1.766 22.5251197308
2256 1 38.852 37.086 12.362 12 11.015446192 1.766 22.54571079
2257 1 0.0 38.852 10.596 12 11.015446192 1.766 26.6120175713
2258 1 1.766 40.618 10.596 12 11.015446192 1.766 28.7446357949
2259 1 1.766 38.852 12.362 12 11.015446192 1.766 26.805599908
2260 1 0.0 40.618 12.362 12 11.015446192 1.766 26.8266297125
2261 1 3.532 38.852 10.596 12 11.015446192 1.766 27.0672650982
2262 1 5.298 40.618 10.596 12 11.015446192 1.766 27.0281461387
2263 1 5.298 38.852 12.362 12 11.015446192 1.766 25.1025217071
2264 1 3.532 40.618 12.362 12 11.015446192 1.766 27.3600851909
2265 1 7.064 38.852 10.596 12 11.015446192 1.766 24.8564346207
2266 1 8.83 40.618 10.596 12 11.015446192 1.766 25.0639424243
2267 1 8.83 38.852 12.362 12 11.015446192 1.766 22.9742708743
2268 1 7.064 40.618 12.362 12 11.015446192 1.766 25.1814555641
2269 1 10.596 38.852 10.596 12 11.015446192 1.766 22.9782047211
2270 1 12.362 40.618 10.596 12 11.015446192 1.766 23.4554901376
2271 1 12.362 38.852 12.362 12 11.015446192 1.766 21.2236682577
2272 1 10.596 40.618 12.362 12 11.015446192 1.766 23.3325010383
2273 1 14.128 38.852 10.596 12 11.015446192 1.766 21.4856425279
2274 1 15.894 40.618 10.596 12 11.015446192 1.766 22.1218571622
2275 1 15.894 38.852 12.362 12 11.015446192 1.766 19.7836076954
2276 1 14.128 40.618 12.362 12 11.015446192 1.766 21.7743707926
2277 1 17.66 38.852 10.596 12 11.015446192 1.766 20.319497689
2278 1 19.426 40.618 10.596 12 11.015446192 1.766 21.2830129515
2279 1 19.426 38.852 12.362 12 11.015446192 1.766 18.8409450249
2280 1 17.66 40.618 12.362 12 11.015446192 1.766 20.6213063456
2281 1 21.192 38.852 10.596 12 11.015446192 1.766 19.7217414627
2282 1 22.958 40.618 10.596 12 11.015446192 1.766 21.0120623518
2283 1 22.958 38.852 12.362 12 11.015446192 1.766 18.5343285127
2284 1 21.192 40.618 12.362 12 11.015446192 1.766 20.0325578843
2285 1 24.724 38.852 10.596 12 11.015446192 1.766 19.7474614649
2286 1 26.49 40.618 10.596 12 11.015446192 1.766 21.3306571925
2287 1 26.49 38.852 12.362 12 11.015446192 1.766 18.8947480904
2288 1 24.724 40.618 12.362 12 11.015446192 1.766 20.0578793339
2289 1 28.256 38.852 10.596 12 11.015446192 1.766 20.3921403671
2290 1 30.022 40.618 10.596 12 11.015446192 1.766 22.1141288534
2291 1 30.022 38.852 12.362 12 11.015446192 1.766 19.7032534632
2292 1 28.256 40.618 12.362 12 11.015446192 1.766 20.6243081176
2293 1 31.788 38.852 10.596 12 11.015446192 1.766 21.39272529
2294 1 33.554 40.618 10.596 12 11.015446192 1.766 23.207062759
2295 1 33.554 38.852 12.362 12 11.015446192 1.766 20.9183161486
2296 1 31.788 40.618 12.362 12 11.015446192 1.766 21.5150431345
2297 1 35.32 38.852 10.596 12 11.015446192 1.766 22.7921947843
2298 1 37.086 40.618 10.596 12 11.015446192 1.766 24.7563237044
2299 1 37.086 38.852 12.362 12 11.015446192 1.766 22.6248481089
2300 1 35.32 40.618 12.362 12 11.015446192 1.766 22.9069827462
2301 1 38.852 38.852 10.596 12 11.015446192 1.766 24.6151820178
2302 1 40.618 40.618 10.596 12 11.015446192 1.766 26.677895874
2303 1 40.618 38.852 12.362 12 11.015446192 1.766 24.6526598038
2304 1 38.852 40.618 12.362 12 11.015446192 1.766 24.7287825012
2305 1 0.0 0.0 14.128 12 11.015446192 1.766 27.1338793081
2306 1 1.766 1.766 14.128 12 11.015446192 1.766 27.1605132574
2307 1 1.766 0.0 15.894 12 11.015446192 1.766 27.5724992634
2308 1 0.0 1.766 15.894 12 11.015446192 1.766 25.3349804647
2309 1 3.532 0.0 14.128 12 11.015446192 1.766 27.5134208251
2310 1 5.298 1.766 14.128 12 11.015446192 1.766 25.2224751647
2311 1 5.298 0.0 15.894 12 11.015446192 1.766 25.7333707638
2312 1 3.532 1.766 15.894 12 11.015446192 1.766 25.7510312132
2313 1 7.064 0.0 14.128 12 11.015446192 1.766 25.3278804435
2314 1 8.83 1.766 14.128 12 11.015446192 1.766 23.0902897274
2315 1 8.83 0.0 15.894 12 11.015446192 1.766 23.6472957677
2316 1 7.064 1.766 15.894 12 11.015446192 1.766 23.4014702701
2317 1 10.596 0.0 14.128 12 11.015446192 1.766 23.4726389232
2318 1 12.362 1.766 14.128 12 11.015446192 1.766 21.3330671483
2319 1 12.362 0.0 15.894 12 11.015446192 1.766 21.9347411971
2320 1 10.596 1.766 15.894 12 11.015446192 1.766 21.3797114354
2321 1 14.128 0.0 14.128 12 11.015446192 1.766 22.0283840281
2322 1 15.894 1.766 14.128 12 11.015446192 1.766 19.9762544665
2323 1 15.894 0.0 15.894 12 11.015446192 1.766 20.6696891038
2324 1 14.128 1.766 15.894 12 11.015446192 1.766 19.7864943666
2325 1 17.66 0.0 14.128 12 11.015446192 1.766 20.9111641844
2326 1 19.426 1.766 14.128 12 11.015446192 1.766 19.0368404947
2327 1 19.426 0.0 15.894 12 11.015446192 1.766 19.7707857073
2328 1 17.66 1.766 15.894 12 11.015446192 1.766 18.6123725099
2329 1 21.192 0.0 14.128 12 11.015446192 1.766 20.3249198044
2330 1 22.958 1.766 14.128 12 11.015446192 1.766 18.7270365389
2331 1 22.958 0.0 15.894 12 11.015446192 1.766 19.4726620931
2332 1 21.192 1.766 15.894 12 11.015446192 1.766 17.9512113228
2333 1 24.724 0.0 14.128 12 11.015446192 1.766 20.3439915102
2334 1 26.49 1.766 14.128 12 11.015446192 1.766 19.0774474075
2335 1 26.49 0.0 15.894 12 11.015446192 1.766 19.7988605017
2336 1 24.724 1.766 15.894 12 11.015446192 1.766 17.9728020482
2337 1 28.256 0.0 14.128 12 11.015446192 1.766 20.8964336047
2338 1 30.022 1.766 14.128 12 11.015446192 1.766 19.8157870039
2339 1 30.022 0.0 15.894 12 11.015446192 1.766 20.4631410739
2340 1 28.256 1.766 15.894 12 11.015446192 1.766 18.5324768471
2341 1 31.788 0.0 14.128 12 11.015446192 1.766 21.7759126354
2342 1 33.554 1.766 14.128 12 11.015446192 1.766 21.0378869578
2343 1 33.554 0.0 15.894 12 11.015446192 1.766 21.6487278074
2344 1 31.788 1.766 15.894 12 11.015446192 1.766 19.5167862916
2345 1 35.32 0.0 14.128 12 11.015446192 1.766 23.1644699523
2346 1 37.086 1.766 14.128 12 11.015446192 1.766 22.7479671337
2347 1 37.086 0.0 15.894 12 11.015446192 1.766 23.3140459111
2348 1 35.32 1.766 15.894 12 11.015446192 1.766 21.0548627215
2349 1 38.852 0.0 14.128 12 11.015446192 1.766 24.9788913533
2350 1 40.618 1.766 14.128 12 11.015446192 1.766 24.845469965
2351 1 40.618 0.0 15.894 12 11.015446192 1.766 25.3647808153
2352 1 38.852 1.766 15.894 12 11.015446192 1.766 23.0360497761
2353 1 0.0 3.532 14.128 12 11.015446192 1.766 24.8841084599
2354 1 1.766 5.298 14.128 12 11.015446192 1.766 24.9866923586
2355 1 1.766 3.532 15.894 12 11.015446192 1.766 25.3603252872
2356 1 0.0 5.298 15.894 12 11.015446192 1.766 23.0453949158
2357 1 3.532 3.532 14.128 12 11.015446192 1.766 25.3637537268
2358 1 5.298 5.298 14.128 12 11.015446192 1.766 23.1296336989
2359 1 5.298 3.532 15.894 12 11.015446192 1.766 23.4208891479
2360 1 3.532 5.298 15.894 12 11.015446192 1.766 23.7049005515
2361 1 7.064 3.532 14.128 12 11.015446192 1.766 22.9746208972
2362 1 8.83 5.298 14.128 12 11.015446192 1.766 20.7838442379
2363 1 8.83 3.532 15.894 12 11.015446192 1.766 21.1074933315
2364 1 7.064 5.298 15.894 12 11.015446192 1.766 21.1290206213
2365 1 10.596 3.532 14.128 12 11.015446192 1.766 20.9116344562
2366 1 12.362 5.298 14.128 12 11.015446192 1.766 18.8124016427
2367 1 12.362 3.532 15.894 12 11.015446192 1.766 19.1693648564
2368 1 10.596 5.298 15.894 12 11.015446192 1.766 18.8652792896
2369 1 14.128 3.532 14.128 12 11.015446192 1.766 19.2791092876
2370 1 15.894 5.298 14.128 12 11.015446192 1.766 17.2749596221
2371 1 15.894 3.532 15.894 12 11.015446192 1.766 17.7166415515
2372 1 14.128 5.298 15.894 12 11.015446192 1.766 17.0385463268
2373 1 17.66 3.532 14.128 12 11.015446192 1.766 18.0048674248
2374 1 19.426 5.298 14.128 12 11.015446192 1.766 16.1794555982
2375 1 19.426 3.532 15.894 12 11.015446192 1.766 16.6668062603
2376 1 17.66 5.298 15.894 12 11.015446192 1.766 15.677815469
2377 1 21.192 3.532 14.128 12 11.015446192 1.766 17.3205319922
2378 1 22.958 5.298 14.128 12 11.015446192 1.766 15.8137720031
2379 1 22.958 3.532 15.894 12 11.015446192 1.766 16.3120517541
2380 1 21.192 5.298 15.894 12 11.015446192 1.766 14.8868893793
2381 1 24.724 3.532 14.128 12 11.015446192 1.766 17.3429078877
2382 1 26.49 5.298 14.128 12 11.015446192 1.766 16.2271941016
2383 1 26.49 3.532 15.894 12 11.015446192 1.766 16.6998888312
2384 1 24.724 5.298 15.894 12 11.015446192 1.766 14.9129172498
2385 1 28.256 3.532 14.128 12 11.015446192 1.766 17.9872513408
2386 1 30.022 5.298 14.128 12 11.015446192 1.766 17.088528275
2387 1 30.022 3.532 15.894 12 11.015446192 1.766 17.4819193063
2388 1 28.256 5.298 15.894 12 11.015446192 1.766 15.5822040196
2389 1 31.788 3.532 14.128 12 11.015446192 1.766 19.0017823145
2390 1 33.554 5.298 14.128 12 11.015446192 1.766 18.4917568573
2391 1 33.554 3.532 15.894 12 11.015446192 1.766 18.8558949853
2392 1 31.788 5.298 15.894 12 11.015446192 1.766 16.7408880044
2393 1 35.32 3.532 14.128 12 11.015446192 1.766 20.5783874051
2394 1 37.086 5.298 14.128 12 11.015446192 1.766 20.416228661
2395 1 37.086 3.532 15.894 12 11.015446192 1.766 20.7466165136
2396 1 35.32 5.298 15.894 12 11.015446192 1.766 18.5110677229
2397 1 38.852 3.532 14.128 12 11.015446192 1.766 22.6013798973
2398 1 40.618 5.298 14.128 12 11.015446192 1.766 22.6537404656
2399 1 40.618 3.532 15.894 12 11.015446192 1.766 23.0082637359
2400 1 38.852 5.298 15.894 12 11.015446192 1.766 20.7206876075
2401 1 0.0 7.064 14.128 12 11.015446192 1.766 22.7709559566
2402 1 1.766 8.83 14.128 12 11.015446192 1.766 23.1241342291
2403 1 1.766 7.064 15.894 12 11.015446192 1.766 23.2754783099
2404 1 0.0 8.83 15.894 12 11.015446192 1.766 21.0276508224
2405 1 3.532 7.064 14.128 12 11.015446192 1.766 23.5499836247
2406 1 5.298 8.83 14.128 12 11.015446192 1.766 21.4181396171
2407 1 5.298 7.064 15.894 12 11.015446192 1.766 21.4434086397
2408 1 3.532 8.83 15.894 12 11.015446192 1.766 22.0381274106
2409 1 7.064 7.064 14.128 12 11.015446192 1.766 20.9550693385
2410 1 8.83 8.83 14.128 12 11.015446192 1.766 18.8606715394
2411 1 8.83 7.064 15.894 12 11.015446192 1.766 18.8893620948
2412 1 7.064 8.83 15.894 12 11.015446192 1.766 19.240381026
2413 1 10.596 7.064 14.128 12 11.015446192 1.766 18.6702485586
2414 1 12.362 8.83 14.128 12 11.015446192 1.766 16.6632291341
2415 1 12.362 7.064 15.894 12 11.015446192 1.766 16.69569629
2416 1 10.596 8.83 15.894 12 11.015446192 1.766 16.7229038233
2417 1 14.128 7.064 14.128 12 11.015446192 1.766 16.8223505938
2418 1 15.894 8.83 14.128 12 11.015446192 1.766 14.9244910505
2419 1 15.894 7.064 15.894 12 11.015446192 1.766 15.0131402867
2420 1 14.128 8.83 15.894 12 11.015446192 1.766 14.6310905452
2421 1 17.66 7.064 14.128 12 11.015446192 1.766 15.3630648771
2422 1 19.426 8.83 14.128 12 11.015446192 1.766 13.6417857662
2423 1 19.426 7.064 15.894 12 11.015446192 1.766 13.7706551171
2424 1 17.66 8.83 15.894 12 11.015446192 1.766 13.0429073951
2425 1 21.192 7.064 14.128 12 11.015446192 1.766 14.5550451709
2426 1 22.958 8.83 14.128 12 11.015446192 1.766 13.2060183402
2427 1 22.958 7.064 15.894 12 11.015446192 1.766 13.3390983152
2428 1 21.192 8.83 15.894 12 11.015446192 1.766 12.0806875146
2429 1 24.724 7.064 14.128 12 11.015446192 1.766 14.5816653863
2430 1 26.49 8.83 14.128 12 11.015446192 1.766 13.6983447608
2431 1 26.49 7.064 15.894 12 11.015446192 1.766 13.8104195713
2432 1 24.724 8.83 15.894 12 11.015446192 1.766 12.1127468534
2433 1 28.256 7.064 14.128 12 11.015446192 1.766 15.3418211484
2434 1 30.022 8.83 14.128 12 11.015446192 1.766 14.7078288889
2435 1 30.022 7.064 15.894 12 11.015446192 1.766 14.7460133816
2436 1 28.256 8.83 15.894 12 11.015446192 1.766 12.9270071605
2437 1 31.788 7.064 14.128 12 11.015446192 1.766 16.5195381033
2438 1 33.554 8.83 14.128 12 11.015446192 1.766 16.3170923786
2439 1 33.554 7.064 15.894 12 11.015446192 1.766 16.3515193092
2440 1 31.788 8.83 15.894 12 11.015446192 1.766 14.3024390645
2441 1 35.32 7.064 14.128 12 11.015446192 1.766 18.3111287531
2442 1 37.086 8.83 14.128 12 11.015446192 1.766 18.3978627276
2443 1 37.086 7.064 15.894 12 11.015446192 1.766 18.4867877013
2444 1 35.32 8.83 15.894 12 11.015446192 1.766 16.3286090617
2445 1 38.852 7.064 14.128 12 11.015446192 1.766 20.4844523997
2446 1 40.618 8.83 14.128 12 11.015446192 1.766 20.6197259762
2447 1 40.618 7.064 15.894 12 11.015446192 1.766 20.7728038305
2448 1 38.852 8.83 15.894 12 11.015446192 1.766 18.5581129196
2449 1 0.0 10.596 14.128 12 11.015446192 1.766 21.0013180743
2450 1 1.766 12.362 14.128 12 11.015446192 1.766 21.4807757119
2451 1 1.766 10.596 15.894 12 11.015446192 1.766 21.4288425375
2452 1 0.0 12.362 15.894 12 11.015446192 1.766 19.2703200636
2453 1 3.532 10.596 14.128 12 11.015446192 1.766 22.1547625204
2454 1 5.298 12.362 14.128 12 11.015446192 1.766 20.1818860637
2455 1 5.298 10.596 15.894 12 11.015446192 1.766 19.9010438847
2456 1 3.532 12.362 15.894 12 11.015446192 1.766 20.8419254719
2457 1 7.064 10.596 14.128 12 11.015446192 1.766 19.373866537
2458 1 8.83 12.362 14.128 12 11.015446192 1.766 17.4357350068
2459 1 8.83 10.596 15.894 12 11.015446192 1.766 17.118404539
2460 1 7.064 12.362 15.894 12 11.015446192 1.766 17.8577450882
2461 1 10.596 10.596 14.128 12 11.015446192 1.766 16.876313426
2462 1 12.362 12.362 14.128 12 11.015446192 1.766 15.0162473235
2463 1 12.362 10.596 15.894 12 11.015446192 1.766 14.66212973
2464 1 10.596 12.362 15.894 12 11.015446192 1.766 15.1116613877
2465 1 14.128 10.596 14.128 12 11.015446192 1.766 14.8061896891
2466 1 15.894 12.362 14.128 12 11.015446192 1.766 13.0835851853
2467 1 15.894 10.596 15.894 12 11.015446192 1.766 12.7193171144
2468 1 14.128 12.362 15.894 12 11.015446192 1.766 12.7582553023
2469 1 17.66 10.596 14.128 12 11.015446192 1.766 13.1461903932
2470 1 19.426 12.362 14.128 12 11.015446192 1.766 11.6349431596
2471 1 19.426 10.596 15.894 12 11.015446192 1.766 11.2440874147
2472 1 17.66 12.362 15.894 12 11.015446192 1.766 10.9266196398
2473 1 21.192 10.596 14.128 12 11.015446192 1.766 12.1921244811
2474 1 22.958 12.362 14.128 12 11.015446192 1.766 11.1208139916
2475 1 22.958 10.596 15.894 12 11.015446192 1.766 10.7112139041
2476 1 21.192 12.362 15.894 12 11.015446192 1.766 9.7578990701
2477 1 24.724 10.596 14.128 12 11.015446192 1.766 12.2238915601
2478 1 26.49 12.362 14.128 12 11.015446192 1.766 11.6047069091
2479 1 26.49 10.596 15.894 12 11.015446192 1.766 11.2924347441
2480 1 24.724 12.362 15.894 12 11.015446192 1.766 9.7975619299
2481 1 28.256 10.596 14.128 12 11.015446192 1.766 13.1094662681
2482 1 30.022 12.362 14.128 12 11.015446192 1.766 12.7604139573
2483 1 30.022 10.596 15.894 12 11.015446192 1.766 12.4186298226
2484 1 28.256 12.362 15.894 12 11.015446192 1.766 10.7561155594
2485 1 31.788 10.596 14.128 12 11.015446192 1.766 14.4800184458
2486 1 33.554 12.362 14.128 12 11.015446192 1.766 14.5962844415
2487 1 33.554 10.596 15.894 12 11.015446192 1.766 14.2805237322
2488 1 31.788 12.362 15.894 12 11.015446192 1.766 12.3961832305
2489 1 35.32 10.596 14.128 12 11.015446192 1.766 16.4255181216
2490 1 37.086 12.362 14.128 12 11.015446192 1.766 16.6105839645
2491 1 37.086 10.596 15.894 12 11.015446192 1.766 16.4247604333
2492 1 35.32 12.362 15.894 12 11.015446192 1.766 14.4089201346
2493 1 38.852 10.596 14.128 12 11.015446192 1.766 18.5554516918
2494 1 40.618 12.362 14.128 12 11.015446192 1.766 18.9683070823
2495 1 40.618 10.596 15.894 12 11.015446192 1.766 18.8414297953
2496 1 38.852 12.362 15.894 12 11.015446192 1.766 16.7406209577
2497 1 0.0 14.128 14.128 12 11.015446192 1.766 19.4887449581
2498 1 1.766 15.894 14.128 12 11.015446192 1.766 20.2850578964
2499 1 1.766 14.128 15.894 12 11.015446192 1.766 19.9193402795
2500 1 0.0 15.894 15.894 12 11.015446192 1.766 17.9277740957
2501 1 3.532 14.128 14.128 12 11.015446192 1.766 21.1965018792
2502 1 5.298 15.894 14.128 12 11.015446192 1.766 19.3151141088
2503 1 5.298 14.128 15.894 12 11.015446192 1.766 18.8852788881
2504 1 3.532 15.894 15.894 12 11.015446192 1.766 20.0994717068
2505 1 7.064 14.128 14.128 12 11.015446192 1.766 18.2438930579
2506 1 8.83 15.894 14.128 12 11.015446192 1.766 16.4041147652
2507 1 8.83 14.128 15.894 12 11.015446192 1.766 15.9098959909
2508 1 7.064 15.894 15.894 12 11.015446192 1.766 16.9568595879
2509 1 10.596 14.128 14.128 12 11.015446192 1.766 15.5349929547
2510 1 12.362 15.894 14.128 12 11.015446192 1.766 13.786456304
2511 1 12.362 14.128 15.894 12 11.015446192 1.766 13.2053898284
2512 1 10.596 15.894 15.894 12 11.015446192 1.766 14.0011235005
2513 1 14.128 14.128 14.128 12 11.015446192 1.766 13.2205304846
2514 1 15.894 15.894 14.128 12 11.015446192 1.766 11.661381634
2515 1 15.894 14.128 15.894 12 11.015446192 1.766 10.973893972
2516 1 14.128 15.894 15.894 12 11.015446192 1.766 11.3788347148
2517 1 17.66 14.128 14.128 12 11.015446192 1.766 11.5286441286
2518 1 19.426 15.894 14.128 12 11.015446192 1.766 10.3362307601
2519 1 19.426 14.128 15.894 12 11.015446192 1.766 9.390236256
2520 1 17.66 15.894 15.894 12 11.015446192 1.766 9.374131835
2521 1 21.192 14.128 14.128 12 11.015446192 1.766 10.5069741981
2522 1 22.958 15.894 14.128 12 11.015446192 1.766 9.6829437513
2523 1 22.958 14.128 15.894 12 11.015446192 1.766 8.7442932713
2524 1 21.192 15.894 15.894 12 11.015446192 1.766 8.3179383163
2525 1 24.724 14.128 14.128 12 11.015446192 1.766 10.3946001018
2526 1 26.49 15.894 14.128 12 11.015446192 1.766 9.8383976659
2527 1 26.49 14.128 15.894 12 11.015446192 1.766 9.2161278073
2528 1 24.724 15.894 15.894 12 11.015446192 1.766 8.0116590925
2529 1 28.256 14.128 14.128 12 11.015446192 1.766 11.1309013999
2530 1 30.022 15.894 14.128 12 11.015446192 1.766 11.1327135519
2531 1 30.022 14.128 15.894 12 11.015446192 1.766 10.6039229031
2532 1 28.256 15.894 15.894 12 11.015446192 1.766 8.9134056703
2533 1 31.788 14.128 14.128 12 11.015446192 1.766 12.7767359345
2534 1 33.554 15.894 14.128 12 11.015446192 1.766 12.9135770937
2535 1 33.554 14.128 15.894 12 11.015446192 1.766 12.5375692039
2536 1 31.788 15.894 15.894 12 11.015446192 1.766 10.6966334378
2537 1 35.32 14.128 14.128 12 11.015446192 1.766 14.7461908935
2538 1 37.086 15.894 14.128 12 11.015446192 1.766 15.2323684802
2539 1 37.086 14.128 15.894 12 11.015446192 1.766 14.7617356388
2540 1 35.32 15.894 15.894 12 11.015446192 1.766 12.9004267472
2541 1 38.852 14.128 14.128 12 11.015446192 1.766 17.0572425079
2542 1 40.618 15.894 14.128 12 11.015446192 1.766 17.625937107
2543 1 40.618 14.128 15.894 12 11.015446192 1.766 17.2037845316
2544 1 38.852 15.894 15.894 12 11.015446192 1.766 15.2666365997
2545 1 0.0 17.66 14.128 12 11.015446192 1.766 18.5025958373
2546 1 1.766 19.426 14.128 12 11.015446192 1.766 19.6594371877
2547 1 1.766 17.66 15.894 12 11.015446192 1.766 18.9556057631
2548 1 0.0 19.426 15.894 12 11.015446192 1.766 17.2167064418
2549 1 3.532 17.66 14.128 12 11.015446192 1.766 20.6345015972
2550 1 5.298 19.426 14.128 12 11.015446192 1.766 19.0021060439
2551 1 5.298 17.66 15.894 12 11.015446192 1.766 18.2753789078
2552 1 3.532 19.426 15.894 12 11.015446192 1.766 19.704374338
2553 1 7.064 17.66 14.128 12 11.015446192 1.766 17.5877508613
2554 1 8.83 19.426 14.128 12 11.015446192 1.766 16.0642256973
2555 1 8.83 17.66 15.894 12 11.015446192 1.766 15.1666722258
2556 1 7.064 19.426 15.894 12 11.015446192 1.766 16.5856971952
2557 1 10.596 17.66 14.128 12 11.015446192 1.766 14.7589075663
2558 1 12.362 19.426 14.128 12 11.015446192 1.766 13.3726940168
2559 1 12.362 17.66 15.894 12 11.015446192 1.766 12.288178978
2560 1 10.596 19.426 15.894 12 11.015446192 1.766 13.599657009
2561 1 14.128 17.66 14.128 12 11.015446192 1.766 12.2992590323
2562 1 15.894 19.426 14.128 12 11.015446192 1.766 11.0922399029
2563 1 15.894 17.66 15.894 12 11.015446192 1.766 9.8448355389
2564 1 14.128 19.426 15.894 12 11.015446192 1.766 10.8756037856
2565 1 17.66 17.66 14.128 12 11.015446192 1.766 10.4698097845
2566 1 19.426 19.426 14.128 12 11.015446192 1.766 9.5105458557
2567 1 19.426 17.66 15.894 12 11.015446192 1.766 8.2316023168
2568 1 17.66 19.426 15.894 12 11.015446192 1.766 8.662938244
2569 1 21.192 17.66 14.128 12 11.015446192 1.766 9.506561615
2570 1 22.958 19.426 14.128 12 11.015446192 1.766 8.8679072898
2571 1 22.958 17.66 15.894 12 11.015446192 1.766 7.4701532638
2572 1 21.192 19.426 15.894 12 11.015446192 1.766 7.4085338986
2573 1 24.724 17.66 14.128 12 11.015446192 1.766 9.064557093
2574 1 26.49 19.426 14.128 12 11.015446192 1.766 9.0881234504
2575 1 26.49 17.66 15.894 12 11.015446192 1.766 7.6539803568
2576 1 24.724 19.426 15.894 12 11.015446192 1.766 7.0847056369
2577 1 28.256 17.66 14.128 12 11.015446192 1.766 9.8515809187
2578 1 30.022 19.426 14.128 12 11.015446192 1.766 10.0784366831
2579 1 30.022 17.66 15.894 12 11.015446192 1.766 9.0433948876
2580 1 28.256 19.426 15.894 12 11.015446192 1.766 7.8467841161
2581 1 31.788 17.66 14.128 12 11.015446192 1.766 11.3106218956
2582 1 33.554 19.426 14.128 12 11.015446192 1.766 11.9130056968
2583 1 33.554 17.66 15.894 12 11.015446192 1.766 11.0531767542
2584 1 31.788 19.426 15.894 12 11.015446192 1.766 9.464667066
2585 1 35.32 17.66 14.128 12 11.015446192 1.766 13.4443300474
2586 1 37.086 19.426 14.128 12 11.015446192 1.766 14.3949495133
2587 1 37.086 17.66 15.894 12 11.015446192 1.766 13.5146294038
2588 1 35.32 19.426 15.894 12 11.015446192 1.766 11.9331372835
2589 1 38.852 17.66 14.128 12 11.015446192 1.766 15.9377276221
2590 1 40.618 19.426 14.128 12 11.015446192 1.766 16.9021760603
2591 1 40.618 17.66 15.894 12 11.015446192 1.766 16.0780930114
2592 1 38.852 19.426 15.894 12 11.015446192 1.766 14.4249814468
2593 1 0.0 21.192 14.128 12 11.015446192 1.766 18.1612492244
2594 1 1.766 22.958 14.128 12 11.015446192 1.766 19.658418431
2595 1 1.766 21.192 15.894 12 11.015446192 1.766 18.6225645527
2596 1 0.0 22.958 15.894 12 11.015446192 1.766 17.2155431334
2597 1 3.532 21.192 14.128 12 11.015446192 1.766 20.3461560658
2598 1 5.298 22.958 14.128 12 11.015446192 1.766 18.6943646764
2599 1 5.298 21.192 15.894 12 11.015446192 1.766 17.982573132
2600 1 3.532 22.958 15.894 12 11.015446192 1.766 19.5060518982
2601 1 7.064 21.192 14.128 12 11.015446192 1.766 17.2967063052
2602 1 8.83 22.958 14.128 12 11.015446192 1.766 15.7213166371
2603 1 8.83 21.192 15.894 12 11.015446192 1.766 14.8871035854
2604 1 7.064 22.958 15.894 12 11.015446192 1.766 16.3000479388
2605 1 10.596 21.192 14.128 12 11.015446192 1.766 14.4682963462
2606 1 12.362 22.958 14.128 12 11.015446192 1.766 13.0303634238
2607 1 12.362 21.192 15.894 12 11.015446192 1.766 12.0106797191
2608 1 10.596 22.958 15.894 12 11.015446192 1.766 13.2607357624
2609 1 14.128 21.192 14.128 12 11.015446192 1.766 12.0119914877
2610 1 15.894 22.958 14.128 12 11.015446192 1.766 10.8337894159
2611 1 15.894 21.192 15.894 12 11.015446192 1.766 9.5495827444
2612 1 14.128 22.958 15.894 12 11.015446192 1.766 10.5334092825
2613 1 17.66 21.192 14.128 12 11.015446192 1.766 9.9761392512
2614 1 19.426 22.958 14.128 12 11.015446192 1.766 9.3033145489
2615 1 19.426 21.192 15.894 12 11.015446192 1.766 7.6089666691
2616 1 17.66 22.958 15.894 12 11.015446192 1.766 8.4192144055
2617 1 21.192 21.192 14.128 12 11.015446192 1.766 8.8139903124
2618 1 22.958 22.958 14.128 12 11.015446192 1.766 8.7852217133
2619 1 22.958 21.192 15.894 12 11.015446192 1.766 6.9565132412
2620 1 21.192 22.958 15.894 12 11.015446192 1.766 7.1527751963
2621 1 24.724 21.192 14.128 12 11.015446192 1.766 8.850966696
2622 1 26.49 22.958 14.128 12 11.015446192 1.766 9.0755849688
2623 1 26.49 21.192 15.894 12 11.015446192 1.766 7.3184413059
2624 1 24.724 22.958 15.894 12 11.015446192 1.766 7.1230990895
2625 1 28.256 21.192 14.128 12 11.015446192 1.766 9.3645410077
2626 1 30.022 22.958 14.128 12 11.015446192 1.766 10.0838566706
2627 1 30.022 21.192 15.894 12 11.015446192 1.766 8.3343957778
2628 1 28.256 22.958 15.894 12 11.015446192 1.766 7.8357541845
2629 1 31.788 21.192 14.128 12 11.015446192 1.766 10.7500894435
2630 1 33.554 22.958 14.128 12 11.015446192 1.766 11.917591372
2631 1 33.554 21.192 15.894 12 11.015446192 1.766 10.4788821798
2632 1 31.788 22.958 15.894 12 11.015446192 1.766 9.4704383239
2633 1 35.32 21.192 14.128 12 11.015446192 1.766 12.9762963052
2634 1 37.086 22.958 14.128 12 11.015446192 1.766 14.3987447671
2635 1 37.086 21.192 15.894 12 11.015446192 1.766 13.0433940598
2636 1 35.32 22.958 15.894 12 11.015446192 1.766 11.9377152255
2637 1 38.852 21.192 14.128 12 11.015446192 1.766 15.5401442217
2638 1 40.618 22.958 14.128 12 11.015446192 1.766 16.9009911026
2639 1 40.618 21.192 15.894 12 11.015446192 1.766 15.6840682082
2640 1 38.852 22.958 15.894 12 11.015446192 1.766 14.4235929787
2641 1 0.0 24.724 14.128 12 11.015446192 1.766 18.5004308617
2642 1 1.766 26.49 14.128 12 11.015446192 1.766 20.2820957469
2643 1 1.766 24.724 15.894 12 11.015446192 1.766 18.9534925329
2644 1 0.0 26.49 15.894 12 11.015446192 1.766 17.924422391
2645 1 3.532 24.724 14.128 12 11.015446192 1.766 20.3041255979
2646 1 5.298 26.49 14.128 12 11.015446192 1.766 18.9800227632
2647 1 5.298 24.724 15.894 12 11.015446192 1.766 17.9508299655
2648 1 3.532 26.49 15.894 12 11.015446192 1.766 19.7799912562
2649 1 7.064 24.724 14.128 12 11.015446192 1.766 17.2471162357
2650 1 8.83 26.49 14.128 12 11.015446192 1.766 16.0599436563
2651 1 8.83 24.724 15.894 12 11.015446192 1.766 14.8294579336
2652 1 7.064 26.49 15.894 12 11.015446192 1.766 16.6268925614
2653 1 10.596 24.724 14.128 12 11.015446192 1.766 14.4089752793
2654 1 12.362 26.49 14.128 12 11.015446192 1.766 13.4369775023
2655 1 12.362 24.724 15.894 12 11.015446192 1.766 11.939153938
2656 1 10.596 26.49 15.894 12 11.015446192 1.766 13.6604943688
2657 1 14.128 24.724 14.128 12 11.015446192 1.766 11.9467220087
2658 1 15.894 26.49 14.128 12 11.015446192 1.766 11.3195842039
2659 1 15.894 24.724 15.894 12 11.015446192 1.766 9.4933671007
2660 1 14.128 26.49 15.894 12 11.015446192 1.766 11.03243874
2661 1 17.66 24.724 14.128 12 11.015446192 1.766 10.1380379219
2662 1 19.426 26.49 14.128 12 11.015446192 1.766 10.033127962
2663 1 19.426 24.724 15.894 12 11.015446192 1.766 7.9154714995
2664 1 17.66 26.49 15.894 12 11.015446192 1.766 9.0426959865
2665 1 21.192 24.724 14.128 12 11.015446192 1.766 9.2668070141
2666 1 22.958 26.49 14.128 12 11.015446192 1.766 9.7203844041
2667 1 22.958 24.724 15.894 12 11.015446192 1.766 7.4837481218
2668 1 21.192 26.49 15.894 12 11.015446192 1.766 8.1559622299
2669 1 24.724 24.724 14.128 12 11.015446192 1.766 9.1351154706
2670 1 26.49 26.49 14.128 12 11.015446192 1.766 9.8366352304
2671 1 26.49 24.724 15.894 12 11.015446192 1.766 7.6230425908
2672 1 24.724 26.49 15.894 12 11.015446192 1.766 8.0679730893
2673 1 28.256 24.724 14.128 12 11.015446192 1.766 9.7813530223
2674 1 30.022 26.49 14.128 12 11.015446192 1.766 11.0207718707
2675 1 30.022 24.724 15.894 12 11.015446192 1.766 9.0209674371
2676 1 28.256 26.49 15.894 12 11.015446192 1.766 8.8122535154
2677 1 31.788 24.724 14.128 12 11.015446192 1.766 11.3202794321
2678 1 33.554 26.49 14.128 12 11.015446192 1.766 12.926260847
2679 1 33.554 24.724 15.894 12 11.015446192 1.766 11.0630590306
2680 1 31.788 26.49 15.894 12 11.015446192 1.766 10.6665057174
2681 1 35.32 24.724 14.128 12 11.015446192 1.766 13.452455879
2682 1 37.086 26.49 14.128 12 11.015446192 1.766 15.2407278195
2683 1 37.086 24.724 15.894 12 11.015446192 1.766 13.5116652295
2684 1 35.32 26.49 15.894 12 11.015446192 1.766 12.9040161914
2685 1 38.852 24.724 14.128 12 11.015446192 1.766 15.9352141845
2686 1 40.618 26.49 14.128 12 11.015446192 1.766 17.6225279947
2687 1 40.618 24.724 15.894 12 11.015446192 1.766 16.0756015201
2688 1 38.852 26.49 15.894 12 11.015446192 1.766 15.2627005176
2689 1 0.0 28.256 14.128 12 11.015446192 1.766 19.4846339135
2690 1 1.766 30.022 14.128 12 11.015446192 1.766 21.4761134417
2691 1 1.766 28.256 15.894 12 11.015446192 1.766 19.9153181213
2692 1 0.0 30.022 15.894 12 11.015446192 1.766 19.2651228578
2693 1 3.532 28.256 14.128 12 11.015446192 1.766 20.8685057859
2694 1 5.298 30.022 14.128 12 11.015446192 1.766 19.8985754649
2695 1 5.298 28.256 15.894 12 11.015446192 1.766 18.5868048328
2696 1 3.532 30.022 15.894 12 11.015446192 1.766 20.663012741
2697 1 7.064 28.256 14.128 12 11.015446192 1.766 17.9080997286
2698 1 8.83 30.022 14.128 12 11.015446192 1.766 17.1357471878
2699 1 8.83 28.256 15.894 12 11.015446192 1.766 15.5932626491
2700 1 7.064 30.022 15.894 12 11.015446192 1.766 17.6682086723
2701 1 10.596 28.256 14.128 12 11.015446192 1.766 15.1939325404
2702 1 12.362 30.022 14.128 12 11.015446192 1.766 14.7059309748
2703 1 12.362 28.256 15.894 12 11.015446192 1.766 12.8755743249
2704 1 10.596 30.022 15.894 12 11.015446192 1.766 14.9104375469
2705 1 14.128 28.256 14.128 12 11.015446192 1.766 12.8825922932
2706 1 15.894 30.022 14.128 12 11.015446192 1.766 12.8001964043
2707 1 15.894 28.256 15.894 12 11.015446192 1.766 10.6471139915
2708 1 14.128 30.022 15.894 12 11.015446192 1.766 12.546981549
2709 1 17.66 28.256 14.128 12 11.015446192 1.766 11.2257218184
2710 1 19.426 30.022 14.128 12 11.015446192 1.766 11.6453396815
2711 1 19.426 28.256 15.894 12 11.015446192 1.766 9.2670865869
2712 1 17.66 30.022 15.894 12 11.015446192 1.766 10.8389294741
2713 1 21.192 28.256 14.128 12 11.015446192 1.766 10.4604047384
2714 1 22.958 30.022 14.128 12 11.015446192 1.766 11.1647953271
2715 1 22.958 28.256 15.894 12 11.015446192 1.766 8.7502754148
2716 1 21.192 30.022 15.894 12 11.015446192 1.766 9.8450134488
2717 1 24.724 28.256 14.128 12 11.015446192 1.766 10.434921768
2718 1 26.49 30.022 14.128 12 11.015446192 1.766 11.636840479
2719 1 26.49 28.256 15.894 12 11.015446192 1.766 9.2158320508
2720 1 24.724 30.022 15.894 12 11.015446192 1.766 9.8964356104
2721 1 28.256 28.256 14.128 12 11.015446192 1.766 11.0698662292
2722 1 30.022 30.022 14.128 12 11.015446192 1.766 12.6806745881
2723 1 30.022 28.256 15.894 12 11.015446192 1.766 10.4726247759
2724 1 28.256 30.022 15.894 12 11.015446192 1.766 10.8144681066
2725 1 31.788 28.256 14.128 12 11.015446192 1.766 12.6378393051
2726 1 33.554 30.022 14.128 12 11.015446192 1.766 14.4993673145
2727 1 33.554 28.256 15.894 12 11.015446192 1.766 12.5154941352
2728 1 31.788 30.022 15.894 12 11.015446192 1.766 12.4103658352
2729 1 35.32 28.256 14.128 12 11.015446192 1.766 14.7546178068
2730 1 37.086 30.022 14.128 12 11.015446192 1.766 16.6082244323
2731 1 37.086 28.256 15.894 12 11.015446192 1.766 14.7554295259
2732 1 35.32 30.022 15.894 12 11.015446192 1.766 14.4063334129
2733 1 38.852 28.256 14.128 12 11.015446192 1.766 17.0529472039
2734 1 40.618 30.022 14.128 12 11.015446192 1.766 18.9608897976
2735 1 40.618 28.256 15.894 12 11.015446192 1.766 17.1991273299
2736 1 38.852 30.022 15.894 12 11.015446192 1.766 16.7283662006
2737 1 0.0 31.788 14.128 12 11.015446192 1.766 20.9903683405
2738 1 1.766 33.554 14.128 12 11.015446192 1.766 23.1093849291
2739 1 1.766 31.788 15.894 12 11.015446192 1.766 21.423234129
2740 1 0.0 33.554 15.894 12 11.015446192 1.766 21.0046515216
2741 1 3.532 31.788 14.128 12 11.015446192 1.766 21.9927624271
2742 1 5.298 33.554 14.128 12 11.015446192 1.766 21.3685609008
2743 1 5.298 31.788 15.894 12 11.015446192 1.766 19.8407756736
2744 1 3.532 33.554 15.894 12 11.015446192 1.766 22.0809644284
2745 1 7.064 31.788 14.128 12 11.015446192 1.766 19.2064338525
2746 1 8.83 33.554 14.128 12 11.015446192 1.766 18.8227500946
2747 1 8.83 31.788 15.894 12 11.015446192 1.766 17.0685941273
2748 1 7.064 33.554 15.894 12 11.015446192 1.766 19.3087463893
2749 1 10.596 31.788 14.128 12 11.015446192 1.766 16.7045697784
2750 1 12.362 33.554 14.128 12 11.015446192 1.766 16.6411085952
2751 1 12.362 31.788 15.894 12 11.015446192 1.766 14.6276272729
2752 1 10.596 33.554 15.894 12 11.015446192 1.766 16.8221056137
2753 1 14.128 31.788 14.128 12 11.015446192 1.766 14.6338050292
2754 1 15.894 33.554 14.128 12 11.015446192 1.766 14.9833112824
2755 1 15.894 31.788 15.894 12 11.015446192 1.766 12.7101574258
2756 1 14.128 33.554 15.894 12 11.015446192 1.766 14.7678311011
2757 1 17.66 31.788 14.128 12 11.015446192 1.766 13.1899122892
2758 1 19.426 33.554 14.128 12 11.015446192 1.766 13.7955298064
2759 1 19.426 31.788 15.894 12 11.015446192 1.766 11.3910615738
2760 1 17.66 33.554 15.894 12 11.015446192 1.766 13.2311489202
2761 1 21.192 31.788 14.128 12 11.015446192 1.766 12.2982574647
2762 1 22.958 33.554 14.128 12 11.015446192 1.766 13.3737342065
2763 1 22.958 31.788 15.894 12 11.015446192 1.766 10.8764152074
2764 1 21.192 33.554 15.894 12 11.015446192 1.766 12.2934292097
2765 1 24.724 31.788 14.128 12 11.015446192 1.766 12.3394604685
2766 1 26.49 33.554 14.128 12 11.015446192 1.766 13.868919879
2767 1 26.49 31.788 15.894 12 11.015446192 1.766 11.4754375797
2768 1 24.724 33.554 15.894 12 11.015446192 1.766 12.334648342
2769 1 28.256 31.788 14.128 12 11.015446192 1.766 13.1965141536
2770 1 30.022 33.554 14.128 12 11.015446192 1.766 14.9283599887
2771 1 30.022 31.788 15.894 12 11.015446192 1.766 12.620383255
2772 1 28.256 33.554 15.894 12 11.015446192 1.766 13.181320659
2773 1 31.788 31.788 14.128 12 11.015446192 1.766 14.5416479524
2774 1 33.554 33.554 14.128 12 11.015446192 1.766 16.5029776733
2775 1 33.554 31.788 15.894 12 11.015446192 1.766 14.4088837628
2776 1 31.788 33.554 15.894 12 11.015446192 1.766 14.5192574979
2777 1 35.32 31.788 14.128 12 11.015446192 1.766 16.4458218381
2778 1 37.086 33.554 14.128 12 11.015446192 1.766 18.4322616824
2779 1 37.086 31.788 15.894 12 11.015446192 1.766 16.4152198332
2780 1 35.32 33.554 15.894 12 11.015446192 1.766 16.4320869802
2781 1 38.852 31.788 14.128 12 11.015446192 1.766 18.5469035303
2782 1 40.618 33.554 14.128 12 11.015446192 1.766 20.6062409559
2783 1 40.618 31.788 15.894 12 11.015446192 1.766 18.8234337613
2784 1 38.852 33.554 15.894 12 11.015446192 1.766 18.5432323488
2785 1 0.0 35.32 14.128 12 11.015446192 1.766 22.7534992056
2786 1 1.766 37.086 14.128 12 11.015446192 1.766 24.9660030816
2787 1 1.766 35.32 15.894 12 11.015446192 1.766 23.2494614413
2788 1 0.0 37.086 15.894 12 11.015446192 1.766 23.0230446614
2789 1 3.532 35.32 14.128 12 11.015446192 1.766 23.5970064334
2790 1 5.298 37.086 14.128 12 11.015446192 1.766 23.2837105112
2791 1 5.298 35.32 15.894 12 11.015446192 1.766 21.584167784
2792 1 3.532 37.086 15.894 12 11.015446192 1.766 23.8657279847
2793 1 7.064 35.32 14.128 12 11.015446192 1.766 21.0243719233
2794 1 8.83 37.086 14.128 12 11.015446192 1.766 20.9739833102
2795 1 8.83 35.32 15.894 12 11.015446192 1.766 19.0799157272
2796 1 7.064 37.086 15.894 12 11.015446192 1.766 21.346069369
2797 1 10.596 35.32 14.128 12 11.015446192 1.766 18.766453179
2798 1 12.362 37.086 14.128 12 11.015446192 1.766 19.0404472825
2799 1 12.362 35.32 15.894 12 11.015446192 1.766 16.9404405815
2800 1 10.596 37.086 15.894 12 11.015446192 1.766 19.1489284885
2801 1 14.128 35.32 14.128 12 11.015446192 1.766 16.9494944784
2802 1 15.894 37.086 14.128 12 11.015446192 1.766 17.4894461485
2803 1 15.894 35.32 15.894 12 11.015446192 1.766 15.2578692517
2804 1 14.128 37.086 15.894 12 11.015446192 1.766 17.3815231715
2805 1 17.66 35.32 14.128 12 11.015446192 1.766 15.5518864647
2806 1 19.426 37.086 14.128 12 11.015446192 1.766 16.4155658619
2807 1 19.426 35.32 15.894 12 11.015446192 1.766 14.0155420768
2808 1 17.66 37.086 15.894 12 11.015446192 1.766 15.9441983705
2809 1 21.192 35.32 14.128 12 11.015446192 1.766 14.7623261242
2810 1 22.958 37.086 14.128 12 11.015446192 1.766 16.0627185294
2811 1 22.958 35.32 15.894 12 11.015446192 1.766 13.6005714472
2812 1 21.192 37.086 15.894 12 11.015446192 1.766 15.1750638108
2813 1 24.724 35.32 14.128 12 11.015446192 1.766 14.7966692395
2814 1 26.49 37.086 14.128 12 11.015446192 1.766 16.4695489958
2815 1 26.49 35.32 15.894 12 11.015446192 1.766 14.0445977441
2816 1 24.724 37.086 15.894 12 11.015446192 1.766 15.2080317463
2817 1 28.256 35.32 14.128 12 11.015446192 1.766 15.5782850496
2818 1 30.022 37.086 14.128 12 11.015446192 1.766 17.3118863683
2819 1 30.022 35.32 15.894 12 11.015446192 1.766 14.9552548029
2820 1 28.256 37.086 15.894 12 11.015446192 1.766 15.7791247161
2821 1 31.788 35.32 14.128 12 11.015446192 1.766 16.7515321695
2822 1 33.554 37.086 14.128 12 11.015446192 1.766 18.6831250888
2823 1 33.554 35.32 15.894 12 11.015446192 1.766 16.5232381717
2824 1 31.788 37.086 15.894 12 11.015446192 1.766 16.9074985218
2825 1 35.32 35.32 14.128 12 11.015446192 1.766 18.5003637529
2826 1 37.086 37.086 14.128 12 11.015446192 1.766 20.5702051893
2827 1 37.086 35.32 15.894 12 11.015446192 1.766 18.5613841871
2828 1 35.32 37.086 15.894 12 11.015446192 1.766 18.6466158785
2829 1 38.852 35.32 14.128 12 11.015446192 1.766 20.5031169947
2830 1 40.618 37.086 14.128 12 11.015446192 1.766 22.6601492993
2831 1 40.618 35.32 15.894 12 11.015446192 1.766 20.753759026
2832 1 38.852 37.086 15.894 12 11.015446192 1.766 20.7727309065
2833 1 0.0 38.852 14.128 12 11.015446192 1.766 24.8809555692
2834 1 1.766 40.618 14.128 12 11.015446192 1.766 27.1455004679
2835 1 1.766 38.852 15.894 12 11.015446192 1.766 25.3334596403
2836 1 0.0 40.618 15.894 12 11.015446192 1.766 25.2832790087
2837 1 3.532 38.852 14.128 12 11.015446192 1.766 25.556085202
2838 1 5.298 40.618 14.128 12 11.015446192 1.766 25.4734448932
2839 1 5.298 38.852 15.894 12 11.015446192 1.766 23.6454035494
2840 1 3.532 40.618 15.894 12 11.015446192 1.766 25.9813503214
2841 1 7.064 38.852 14.128 12 11.015446192 1.766 23.2171276868
2842 1 8.83 40.618 14.128 12 11.015446192 1.766 23.3977162132
2843 1 8.83 38.852 15.894 12 11.015446192 1.766 21.3930324705
2844 1 7.064 40.618 15.894 12 11.015446192 1.766 23.6878084633
2845 1 10.596 38.852 14.128 12 11.015446192 1.766 21.2067207014
2846 1 12.362 40.618 14.128 12 11.015446192 1.766 21.6884249598
2847 1 12.362 38.852 15.894 12 11.015446192 1.766 19.5235400364
2848 1 10.596 40.618 15.894 12 11.015446192 1.766 21.728875329
2849 1 14.128 38.852 14.128 12 11.015446192 1.766 19.5544190544
2850 1 15.894 40.618 14.128 12 11.015446192 1.766 20.2480847121
2851 1 15.894 38.852 15.894 12 11.015446192 1.766 18.0131765008
2852 1 14.128 40.618 15.894 12 11.015446192 1.766 20.1703672111
2853 1 17.66 38.852 14.128 12 11.015446192 1.766 18.2617183348
2854 1 19.426 40.618 14.128 12 11.015446192 1.766 19.3280886405
2855 1 19.426 38.852 15.894 12 11.015446192 1.766 16.9724660446
2856 1 17.66 40.618 15.894 12 11.015446192 1.766 18.9293864033
2857 1 21.192 38.852 14.128 12 11.015446192 1.766 17.5941881462
2858 1 22.958 40.618 14.128 12 11.015446192 1.766 19.0293230169
2859 1 22.958 38.852 15.894 12 11.015446192 1.766 16.63143793
2860 1 21.192 40.618 15.894 12 11.015446192 1.766 18.2862453661
2861 1 24.724 38.852 14.128 12 11.015446192 1.766 17.6230134912
2862 1 26.49 40.618 14.128 12 11.015446192 1.766 19.3355106895
2863 1 26.49 38.852 15.894 12 11.015446192 1.766 16.9238810053
2864 1 24.724 40.618 15.894 12 11.015446192 1.766 18.2902804742
2865 1 28.256 38.852 14.128 12 11.015446192 1.766 18.1993347912
2866 1 30.022 40.618 14.128 12 11.015446192 1.766 19.9925342129
2867 1 30.022 38.852 15.894 12 11.015446192 1.766 17.6404262094
2868 1 28.256 40.618 15.894 12 11.015446192 1.766 18.6810275797
2869 1 31.788 38.852 14.128 12 11.015446192 1.766 19.1870472369
2870 1 33.554 40.618 14.128 12 11.015446192 1.766 21.1910164389
2871 1 33.554 38.852 15.894 12 11.015446192 1.766 18.9879538209
2872 1 31.788 40.618 15.894 12 11.015446192 1.766 19.6434090955
2873 1 35.32 38.852 14.128 12 11.015446192 1.766 20.7358520232
2874 1 37.086 40.618 14.128 12 11.015446192 1.766 22.8772152845
2875 1 37.086 38.852 15.894 12 11.015446192 1.766 20.8530619278
2876 1 35.32 40.618 15.894 12 11.015446192 1.766 21.1588349951
2877 1 38.852 38.852 14.128 12 11.015446192 1.766 22.7260443111
2878 1 40.618 40.618 14.128 12 11.015446192 1.766 24.9455948913
2879 1 40.618 38.852 15.894 12 11.015446192 1.766 23.0199188425
2880 1 38.852 40.618 15.894 12 11.015446192 1.766 23.1137116738
2881 1 0.0 0.0 17.66 12 11.015446192 1.766 25.7885585779
2882 1 1.766 1.766 17.66 12 11.015446192 1.766 25.9684148896
2883 1 1.766 0.0 19.426 12 11.015446192 1.766 26.4168405884
2884 1 0.0 1.766 19.426 12 11.015446192 1.766 24.2770480004
2885 1 3.532 0.0 17.66 12 11.015446192 1.766 26.3701770562
2886 1 5.298 1.766 17.66 12 11.015446192 1.766 23.9702141399
2887 1 5.298 0.0 19.426 12 11.015446192 1.766 24.7604383512
2888 1 3.532 1.766 19.426 12 11.015446192 1.766 24.7787922429
2889 1 7.064 0.0 17.66 12 11.015446192 1.766 24.0811013086
2890 1 8.83 1.766 17.66 12 11.015446192 1.766 21.7154183052
2891 1 8.83 0.0 19.426 12 11.015446192 1.766 22.5846747509
2892 1 7.064 1.766 19.426 12 11.015446192 1.766 22.3271526908
2893 1 10.596 0.0 17.66 12 11.015446192 1.766 22.121543583
2894 1 12.362 1.766 17.66 12 11.015446192 1.766 19.8367756056
2895 1 12.362 0.0 19.426 12 11.015446192 1.766 20.7847494058
2896 1 10.596 1.766 19.426 12 11.015446192 1.766 20.1981434181
2897 1 14.128 0.0 17.66 12 11.015446192 1.766 20.5858200894
2898 1 15.894 1.766 17.66 12 11.015446192 1.766 18.4495525335
2899 1 15.894 0.0 19.426 12 11.015446192 1.766 19.4652030588
2900 1 14.128 1.766 19.426 12 11.015446192 1.766 18.503467129
2901 1 17.66 0.0 17.66 12 11.015446192 1.766 19.5228145238
2902 1 19.426 1.766 17.66 12 11.015446192 1.766 17.5004314913
2903 1 19.426 0.0 19.426 12 11.015446192 1.766 18.633915258
2904 1 17.66 1.766 19.426 12 11.015446192 1.766 17.3669763455
2905 1 21.192 0.0 17.66 12 11.015446192 1.766 18.8935484073
2906 1 22.958 1.766 17.66 12 11.015446192 1.766 17.1629165322
2907 1 22.958 0.0 19.426 12 11.015446192 1.766 18.317297818
2908 1 21.192 1.766 19.426 12 11.015446192 1.766 16.6908603228
2909 1 24.724 0.0 17.66 12 11.015446192 1.766 18.9140634695
2910 1 26.49 1.766 17.66 12 11.015446192 1.766 17.4984595057
2911 1 26.49 0.0 19.426 12 11.015446192 1.766 18.5809370781
2912 1 24.724 1.766 19.426 12 11.015446192 1.766 16.7126175159
2913 1 28.256 0.0 17.66 12 11.015446192 1.766 19.3846572865
2914 1 30.022 1.766 17.66 12 11.015446192 1.766 18.2124196816
2915 1 30.022 0.0 19.426 12 11.015446192 1.766 19.2416730739
2916 1 28.256 1.766 19.426 12 11.015446192 1.766 17.174240541
2917 1 31.788 0.0 17.66 12 11.015446192 1.766 20.3277442718
2918 1 33.554 1.766 17.66 12 11.015446192 1.766 19.5350839191
2919 1 33.554 0.0 19.426 12 11.015446192 1.766 20.4980305335
2920 1 31.788 1.766 19.426 12 11.015446192 1.766 18.2320264158
2921 1 35.32 0.0 17.66 12 11.015446192 1.766 21.8087020303
2922 1 37.086 1.766 17.66 12 11.015446192 1.766 21.3657863134
2923 1 37.086 0.0 19.426 12 11.015446192 1.766 22.1756948595
2924 1 35.32 1.766 19.426 12 11.015446192 1.766 19.869803328
2925 1 38.852 0.0 17.66 12 11.015446192 1.766 23.7052228212
2926 1 40.618 1.766 17.66 12 11.015446192 1.766 23.5865251175
2927 1 40.618 0.0 19.426 12 11.015446192 1.766 24.1315522796
2928 1 38.852 1.766 19.426 12 11.015446192 1.766 21.9434409064
2929 1 0.0 3.532 17.66 12 11.015446192 1.766 23.5802127325
2930 1 1.766 5.298 17.66 12 11.015446192 1.766 23.6708652063
2931 1 1.766 3.532 19.426 12 11.015446192 1.766 24.3032011402
2932 1 0.0 5.298 19.426 12 11.015446192 1.766 21.894753524
2933 1 3.532 3.532 17.66 12 11.015446192 1.766 24.1188290675
2934 1 5.298 5.298 17.66 12 11.015446192 1.766 21.7572486202
2935 1 5.298 3.532 19.426 12 11.015446192 1.766 22.347505117
2936 1 3.532 5.298 19.426 12 11.015446192 1.766 22.6449828136
2937 1 7.064 3.532 17.66 12 11.015446192 1.766 21.5923856451
2938 1 8.83 5.298 17.66 12 11.015446192 1.766 19.2448978636
2939 1 8.83 3.532 19.426 12 11.015446192 1.766 19.9097767746
2940 1 7.064 5.298 19.426 12 11.015446192 1.766 19.9325976453
2941 1 10.596 3.532 17.66 12 11.015446192 1.766 19.3828369468
2942 1 12.362 5.298 17.66 12 11.015446192 1.766 17.0969110672
2943 1 12.362 3.532 19.426 12 11.015446192 1.766 17.8420146136
2944 1 10.596 5.298 19.426 12 11.015446192 1.766 17.5148993474
2945 1 14.128 3.532 17.66 12 11.015446192 1.766 17.6098741155
2946 1 15.894 5.298 17.66 12 11.015446192 1.766 15.4658556278
2947 1 15.894 3.532 19.426 12 11.015446192 1.766 16.2857547486
2948 1 14.128 5.298 19.426 12 11.015446192 1.766 15.5301319185
2949 1 17.66 3.532 17.66 12 11.015446192 1.766 16.3704799971
2950 1 19.426 5.298 17.66 12 11.015446192 1.766 14.3401042471
2951 1 19.426 3.532 19.426 12 11.015446192 1.766 15.3010215763
2952 1 17.66 5.298 19.426 12 11.015446192 1.766 14.160579636
2953 1 21.192 3.532 17.66 12 11.015446192 1.766 15.6161658179
2954 1 22.958 5.298 17.66 12 11.015446192 1.766 13.9262052019
2955 1 22.958 3.532 19.426 12 11.015446192 1.766 14.9138144949
2956 1 21.192 5.298 19.426 12 11.015446192 1.766 13.3401014146
2957 1 24.724 3.532 17.66 12 11.015446192 1.766 15.6409801599
2958 1 26.49 5.298 17.66 12 11.015446192 1.766 14.3372266432
2959 1 26.49 3.532 19.426 12 11.015446192 1.766 15.2358060644
2960 1 24.724 5.298 19.426 12 11.015446192 1.766 13.3672249696
2961 1 28.256 3.532 17.66 12 11.015446192 1.766 16.2062425668
2962 1 30.022 5.298 17.66 12 11.015446192 1.766 15.2001517979
2963 1 30.022 3.532 19.426 12 11.015446192 1.766 16.0349413066
2964 1 28.256 5.298 19.426 12 11.015446192 1.766 13.9394017871
2965 1 31.788 3.532 17.66 12 11.015446192 1.766 17.3232372033
2966 1 33.554 5.298 17.66 12 11.015446192 1.766 16.762216075
2967 1 33.554 3.532 19.426 12 11.015446192 1.766 17.5227456687
2968 1 31.788 5.298 19.426 12 11.015446192 1.766 15.223638568
2969 1 35.32 3.532 17.66 12 11.015446192 1.766 19.0393498909
2970 1 37.086 5.298 17.66 12 11.015446192 1.766 18.8639658824
2971 1 37.086 3.532 19.426 12 11.015446192 1.766 19.5425265627
2972 1 35.32 5.298 19.426 12 11.015446192 1.766 17.1511360649
2973 1 38.852 3.532 17.66 12 11.015446192 1.766 21.2096484963
2974 1 40.618 5.298 17.66 12 11.015446192 1.766 21.2159379121
2975 1 40.618 3.532 19.426 12 11.015446192 1.766 21.8806254195
2976 1 38.852 5.298 19.426 12 11.015446192 1.766 19.4862540088
2977 1 0.0 7.064 17.66 12 11.015446192 1.766 21.3246082734
2978 1 1.766 8.83 17.66 12 11.015446192 1.766 21.6434600058
2979 1 1.766 7.064 19.426 12 11.015446192 1.766 22.0191808123
2980 1 0.0 8.83 19.426 12 11.015446192 1.766 19.6775289977
2981 1 3.532 7.064 17.66 12 11.015446192 1.766 22.2035952314
2982 1 5.298 8.83 17.66 12 11.015446192 1.766 19.928236679
2983 1 5.298 7.064 19.426 12 11.015446192 1.766 20.2655547806
2984 1 3.532 8.83 19.426 12 11.015446192 1.766 20.8938267496
2985 1 7.064 7.064 17.66 12 11.015446192 1.766 19.4296897417
2986 1 8.83 8.83 17.66 12 11.015446192 1.766 17.1500100114
2987 1 8.83 7.064 19.426 12 11.015446192 1.766 17.5408362635
2988 1 7.064 8.83 19.426 12 11.015446192 1.766 17.9182922875
2989 1 10.596 7.064 17.66 12 11.015446192 1.766 16.9403687597
2990 1 12.362 8.83 17.66 12 11.015446192 1.766 14.6990175743
2991 1 12.362 7.064 19.426 12 11.015446192 1.766 15.1531914488
2992 1 10.596 8.83 19.426 12 11.015446192 1.766 15.1831633318
2993 1 14.128 7.064 17.66 12 11.015446192 1.766 14.8791596528
2994 1 15.894 8.83 17.66 12 11.015446192 1.766 12.7651650953
2995 1 15.894 7.064 19.426 12 11.015446192 1.766 13.2856137736
2996 1 14.128 8.83 19.426 12 11.015446192 1.766 12.8429648842
2997 1 17.66 7.064 17.66 12 11.015446192 1.766 13.4058418953
2998 1 19.426 8.83 17.66 12 11.015446192 1.766 11.4000932124
2999 1 19.426 7.064 19.426 12 11.015446192 1.766 12.0817950949
3000 1 17.66 8.83 19.426 12 11.015446192 1.766 11.1492194021
3001 1 21.192 7.064 17.66 12 11.015446192 1.766 12.4785073742
3002 1 22.958 8.83 17.66 12 11.015446192 1.766 10.8748667468
3003 1 22.958 7.064 19.426 12 11.015446192 1.766 11.5875094056
3004 1 21.192 8.83 19.426 12 11.015446192 1.766 10.1134485309
3005 1 24.724 7.064 17.66 12 11.015446192 1.766 12.5095472259
3006 1 26.49 8.83 17.66 12 11.015446192 1.766 11.3958783126
3007 1 26.49 7.064 19.426 12 11.015446192 1.766 11.9982641293
3008 1 24.724 8.83 19.426 12 11.015446192 1.766 10.14907949
3009 1 28.256 7.064 17.66 12 11.015446192 1.766 13.2086981249
3010 1 30.022 8.83 17.66 12 11.015446192 1.766 12.4638295359
3011 1 30.022 7.064 19.426 12 11.015446192 1.766 12.9979517896
3012 1 28.256 8.83 19.426 12 11.015446192 1.766 10.8907921752
3013 1 31.788 7.064 17.66 12 11.015446192 1.766 14.5575394632
3014 1 33.554 8.83 17.66 12 11.015446192 1.766 14.3273975224
3015 1 33.554 7.064 19.426 12 11.015446192 1.766 14.7943916331
3016 1 31.788 8.83 19.426 12 11.015446192 1.766 12.4924618578
3017 1 35.32 7.064 17.66 12 11.015446192 1.766 16.5627368598
3018 1 37.086 8.83 17.66 12 11.015446192 1.766 16.6023609415
3019 1 37.086 7.064 19.426 12 11.015446192 1.766 17.0973066056
3020 1 35.32 8.83 19.426 12 11.015446192 1.766 14.740981422
3021 1 38.852 7.064 17.66 12 11.015446192 1.766 18.8852678102
3022 1 40.618 8.83 17.66 12 11.015446192 1.766 19.0104576092
3023 1 40.618 7.064 19.426 12 11.015446192 1.766 19.4980726161
3024 1 38.852 8.83 19.426 12 11.015446192 1.766 17.1202505331
3025 1 0.0 10.596 17.66 12 11.015446192 1.766 19.3710645808
3026 1 1.766 12.362 17.66 12 11.015446192 1.766 19.8633251114
3027 1 1.766 10.596 19.426 12 11.015446192 1.766 20.0650617887
3028 1 0.0 12.362 19.426 12 11.015446192 1.766 17.7973246807
3029 1 3.532 10.596 17.66 12 11.015446192 1.766 20.7179008302
3030 1 5.298 12.362 17.66 12 11.015446192 1.766 18.5968119511
3031 1 5.298 10.596 19.426 12 11.015446192 1.766 18.625908949
3032 1 3.532 12.362 19.426 12 11.015446192 1.766 19.6280104405
3033 1 7.064 10.596 17.66 12 11.015446192 1.766 17.7128376346
3034 1 8.83 12.362 17.66 12 11.015446192 1.766 15.5829920427
3035 1 8.83 10.596 19.426 12 11.015446192 1.766 15.617705031
3036 1 7.064 12.362 19.426 12 11.015446192 1.766 16.4247373224
3037 1 10.596 10.596 17.66 12 11.015446192 1.766 14.9401428148
3038 1 12.362 12.362 17.66 12 11.015446192 1.766 12.8361955136
3039 1 12.362 10.596 19.426 12 11.015446192 1.766 12.8783145129
3040 1 10.596 12.362 19.426 12 11.015446192 1.766 13.3878768433
3041 1 14.128 10.596 17.66 12 11.015446192 1.766 12.5547268224
3042 1 15.894 12.362 17.66 12 11.015446192 1.766 10.5667515122
3043 1 15.894 10.596 19.426 12 11.015446192 1.766 10.6178767629
3044 1 14.128 12.362 19.426 12 11.015446192 1.766 10.6606071417
3045 1 17.66 10.596 17.66 12 11.015446192 1.766 10.7848148662
3046 1 19.426 12.362 17.66 12 11.015446192 1.766 8.9014441911
3047 1 19.426 10.596 19.426 12 11.015446192 1.766 9.0973254347
3048 1 17.66 12.362 19.426 12 11.015446192 1.766 8.5446995786
3049 1 21.192 10.596 17.66 12 11.015446192 1.766 9.6183005632
3050 1 22.958 12.362 17.66 12 11.015446192 1.766 8.2180478337
3051 1 22.958 10.596 19.426 12 11.015446192 1.766 8.4302392409
3052 1 21.192 12.362 19.426 12 11.015446192 1.766 7.1802106252
3053 1 24.724 10.596 17.66 12 11.015446192 1.766 9.6585367025
3054 1 26.49 12.362 17.66 12 11.015446192 1.766 8.8952801625
3055 1 26.49 10.596 19.426 12 11.015446192 1.766 8.9853708746
3056 1 24.724 12.362 19.426 12 11.015446192 1.766 7.2301395252
3057 1 28.256 10.596 17.66 12 11.015446192 1.766 10.5473770282
3058 1 30.022 12.362 17.66 12 11.015446192 1.766 10.2273910026
3059 1 30.022 10.596 19.426 12 11.015446192 1.766 10.2822277132
3060 1 28.256 12.362 19.426 12 11.015446192 1.766 8.2378294607
3061 1 31.788 10.596 17.66 12 11.015446192 1.766 12.1942368044
3062 1 33.554 12.362 17.66 12 11.015446192 1.766 12.286239268
3063 1 33.554 10.596 19.426 12 11.015446192 1.766 12.4387661446
3064 1 31.788 12.362 19.426 12 11.015446192 1.766 10.2272676169
3065 1 35.32 10.596 17.66 12 11.015446192 1.766 14.3899675883
3066 1 37.086 12.362 17.66 12 11.015446192 1.766 14.5648858156
3067 1 37.086 10.596 19.426 12 11.015446192 1.766 14.7808043919
3068 1 35.32 12.362 19.426 12 11.015446192 1.766 12.5026558229
3069 1 38.852 10.596 17.66 12 11.015446192 1.766 16.7490055426
3070 1 40.618 12.362 17.66 12 11.015446192 1.766 17.1381243939
3071 1 40.618 10.596 19.426 12 11.015446192 1.766 17.367647286
3072 1 38.852 12.362 19.426 12 11.015446192 1.766 15.0915898609
3073 1 0.0 14.128 17.66 12 11.015446192 1.766 17.6900859053
3074 1 1.766 15.894 17.66 12 11.015446192 1.766 18.5637154998
3075 1 1.766 14.128 19.426 12 11.015446192 1.766 18.5035969603
3076 1 0.0 15.894 19.426 12 11.015446192 1.766 16.3403814926
3077 1 3.532 14.128 17.66 12 11.015446192 1.766 19.7588774079
3078 1 5.298 15.894 17.66 12 11.015446192 1.766 17.8371425906
3079 1 5.298 14.128 19.426 12 11.015446192 1.766 17.5529571807
3080 1 3.532 15.894 19.426 12 11.015446192 1.766 18.9450690013
3081 1 7.064 14.128 17.66 12 11.015446192 1.766 16.5809058462
3082 1 8.83 15.894 17.66 12 11.015446192 1.766 14.6427247869
3083 1 8.83 14.128 19.426 12 11.015446192 1.766 14.321121885
3084 1 7.064 15.894 19.426 12 11.015446192 1.766 15.5999347299
3085 1 10.596 14.128 17.66 12 11.015446192 1.766 13.5780941841
3086 1 12.362 15.894 17.66 12 11.015446192 1.766 11.6379964479
3087 1 12.362 14.128 19.426 12 11.015446192 1.766 11.27088312
3088 1 10.596 15.894 19.426 12 11.015446192 1.766 12.3526181605
3089 1 14.128 14.128 17.66 12 11.015446192 1.766 10.8906221219
3090 1 15.894 15.894 17.66 12 11.015446192 1.766 9.0202220323
3091 1 15.894 14.128 19.426 12 11.015446192 1.766 8.5977397358
3092 1 14.128 15.894 19.426 12 11.015446192 1.766 9.3060671377
3093 1 17.66 14.128 17.66 12 11.015446192 1.766 8.8019641306
3094 1 19.426 15.894 17.66 12 11.015446192 1.766 7.205280902
3095 1 19.426 14.128 19.426 12 11.015446192 1.766 6.6661537794
3096 1 17.66 15.894 19.426 12 11.015446192 1.766 6.7383302115
3097 1 21.192 14.128 17.66 12 11.015446192 1.766 7.366160001
3098 1 22.958 15.894 17.66 12 11.015446192 1.766 6.4106568672
3099 1 22.958 14.128 19.426 12 11.015446192 1.766 5.7286596246
3100 1 21.192 15.894 19.426 12 11.015446192 1.766 5.0773079538
3101 1 24.724 14.128 17.66 12 11.015446192 1.766 7.3983377584
3102 1 26.49 15.894 17.66 12 11.015446192 1.766 6.8445805668
3103 1 26.49 14.128 19.426 12 11.015446192 1.766 6.514377171
3104 1 24.724 15.894 19.426 12 11.015446192 1.766 5.0026864096
3105 1 28.256 14.128 17.66 12 11.015446192 1.766 8.4799529155
3106 1 30.022 15.894 17.66 12 11.015446192 1.766 8.5431578144
3107 1 30.022 14.128 19.426 12 11.015446192 1.766 8.1803931698
3108 1 28.256 15.894 19.426 12 11.015446192 1.766 6.359511001
3109 1 31.788 14.128 17.66 12 11.015446192 1.766 10.3576017158
3110 1 33.554 15.894 17.66 12 11.015446192 1.766 10.5935164068
3111 1 33.554 14.128 19.426 12 11.015446192 1.766 10.3264539305
3112 1 31.788 15.894 19.426 12 11.015446192 1.766 8.3324539194
3113 1 35.32 14.128 17.66 12 11.015446192 1.766 12.498705332
3114 1 37.086 15.894 17.66 12 11.015446192 1.766 12.9592342071
3115 1 37.086 14.128 19.426 12 11.015446192 1.766 12.8515397414
3116 1 35.32 15.894 19.426 12 11.015446192 1.766 10.7224022719
3117 1 38.852 14.128 17.66 12 11.015446192 1.766 14.9868024734
3118 1 40.618 15.894 17.66 12 11.015446192 1.766 15.6141480137
3119 1 40.618 14.128 19.426 12 11.015446192 1.766 15.5426247946
3120 1 38.852 15.894 19.426 12 11.015446192 1.766 13.3668686072
3121 1 0.0 17.66 17.66 12 11.015446192 1.766 16.5974097983
3122 1 1.766 19.426 17.66 12 11.015446192 1.766 17.8779593307
3123 1 1.766 17.66 19.426 12 11.015446192 1.766 17.4619006166
3124 1 0.0 19.426 19.426 12 11.015446192 1.766 15.5569265602
3125 1 3.532 17.66 17.66 12 11.015446192 1.766 19.2203625041
3126 1 5.298 19.426 17.66 12 11.015446192 1.766 17.3714756007
3127 1 5.298 17.66 19.426 12 11.015446192 1.766 17.0153590786
3128 1 3.532 19.426 19.426 12 11.015446192 1.766 18.4038137876
3129 1 7.064 17.66 17.66 12 11.015446192 1.766 15.9558486098
3130 1 8.83 19.426 17.66 12 11.015446192 1.766 14.1942648314
3131 1 8.83 17.66 19.426 12 11.015446192 1.766 13.6958103375
3132 1 7.064 19.426 19.426 12 11.015446192 1.766 15.0884209362
3133 1 10.596 17.66 17.66 12 11.015446192 1.766 12.7750513286
3134 1 12.362 19.426 17.66 12 11.015446192 1.766 11.14578304
3135 1 12.362 17.66 19.426 12 11.015446192 1.766 10.4331658903
3136 1 10.596 19.426 19.426 12 11.015446192 1.766 11.8429490443
3137 1 14.128 17.66 17.66 12 11.015446192 1.766 9.8309896064
3138 1 15.894 19.426 17.66 12 11.015446192 1.766 8.3785180798
3139 1 15.894 17.66 19.426 12 11.015446192 1.766 7.4008374314
3140 1 14.128 19.426 19.426 12 11.015446192 1.766 8.711645866
3141 1 17.66 17.66 17.66 12 11.015446192 1.766 7.4192199612
3142 1 19.426 19.426 17.66 12 11.015446192 1.766 6.2869871206
3143 1 19.426 17.66 19.426 12 11.015446192 1.766 5.0639793521
3144 1 17.66 19.426 19.426 12 11.015446192 1.766 5.8814426636
3145 1 21.192 17.66 17.66 12 11.015446192 1.766 6.1596081691
3146 1 22.958 19.426 17.66 12 11.015446192 1.766 5.3927525468
3147 1 22.958 17.66 19.426 12 11.015446192 1.766 4.1544159659
3148 1 21.192 19.426 19.426 12 11.015446192 1.766 4.0591760456
3149 1 24.724 17.66 17.66 12 11.015446192 1.766 5.6763024756
3150 1 26.49 19.426 17.66 12 11.015446192 1.766 5.6670702366
3151 1 26.49 17.66 19.426 12 11.015446192 1.766 4.5948507925
3152 1 24.724 19.426 19.426 12 11.015446192 1.766 3.5668322731
3153 1 28.256 17.66 17.66 12 11.015446192 1.766 6.8150373591
3154 1 30.022 19.426 17.66 12 11.015446192 1.766 7.0508981419
3155 1 30.022 17.66 19.426 12 11.015446192 1.766 6.4754253343
3156 1 28.256 19.426 19.426 12 11.015446192 1.766 4.7249794228
3157 1 31.788 17.66 17.66 12 11.015446192 1.766 8.7218373235
3158 1 33.554 19.426 17.66 12 11.015446192 1.766 9.4899938549
3159 1 33.554 17.66 19.426 12 11.015446192 1.766 8.7857431635
3160 1 31.788 19.426 19.426 12 11.015446192 1.766 7.0840808812
3161 1 35.32 17.66 17.66 12 11.015446192 1.766 11.1244900149
3162 1 37.086 19.426 17.66 12 11.015446192 1.766 11.9562388697
3163 1 37.086 17.66 19.426 12 11.015446192 1.766 11.324671793
3164 1 35.32 19.426 19.426 12 11.015446192 1.766 9.502538086
3165 1 38.852 17.66 17.66 12 11.015446192 1.766 13.6798801549
3166 1 40.618 19.426 17.66 12 11.015446192 1.766 14.7922788937
3167 1 40.618 17.66 19.426 12 11.015446192 1.766 14.2866391493
3168 1 38.852 19.426 19.426 12 11.015446192 1.766 12.3968977183
3169 1 0.0 21.192 17.66 12 11.015446192 1.766 16.2160085313
3170 1 1.766 22.958 17.66 12 11.015446192 1.766 17.8768390524
3171 1 1.766 21.192 19.426 12 11.015446192 1.766 17.0997922156
3172 1 0.0 22.958 19.426 12 11.015446192 1.766 15.5556391278
3173 1 3.532 21.192 17.66 12 11.015446192 1.766 18.8615230906
3174 1 5.298 22.958 17.66 12 11.015446192 1.766 17.2138205502
3175 1 5.298 21.192 19.426 12 11.015446192 1.766 16.5915792866
3176 1 3.532 22.958 19.426 12 11.015446192 1.766 18.3120941021
3177 1 7.064 21.192 17.66 12 11.015446192 1.766 15.6302159077
3178 1 8.83 22.958 17.66 12 11.015446192 1.766 13.9419826052
3179 1 8.83 21.192 19.426 12 11.015446192 1.766 13.2950519117
3180 1 7.064 22.958 19.426 12 11.015446192 1.766 14.9557365495
3181 1 10.596 21.192 17.66 12 11.015446192 1.766 12.4998700638
3182 1 12.362 22.958 17.66 12 11.015446192 1.766 10.8170907879
3183 1 12.362 21.192 19.426 12 11.015446192 1.766 10.1198136848
3184 1 10.596 22.958 19.426 12 11.015446192 1.766 11.6348755349
3185 1 14.128 21.192 17.66 12 11.015446192 1.766 9.5737286086
3186 1 15.894 22.958 17.66 12 11.015446192 1.766 8.0367950868
3187 1 15.894 21.192 19.426 12 11.015446192 1.766 7.1701755821
3188 1 14.128 22.958 19.426 12 11.015446192 1.766 8.405166106
3189 1 17.66 21.192 17.66 12 11.015446192 1.766 7.0874048513
3190 1 19.426 22.958 17.66 12 11.015446192 1.766 6.0439479841
3191 1 19.426 21.192 19.426 12 11.015446192 1.766 4.6145670365
3192 1 17.66 22.958 19.426 12 11.015446192 1.766 5.5409803665
3193 1 21.192 21.192 17.66 12 11.015446192 1.766 5.3613820218
3194 1 22.958 22.958 17.66 12 11.015446192 1.766 5.2994599188
3195 1 22.958 21.192 19.426 12 11.015446192 1.766 3.4291827015
3196 1 21.192 22.958 19.426 12 11.015446192 1.766 3.7822782955
3197 1 24.724 21.192 17.66 12 11.015446192 1.766 5.3333350137
3198 1 26.49 22.958 17.66 12 11.015446192 1.766 5.6379554792
3199 1 26.49 21.192 19.426 12 11.015446192 1.766 3.8278616233
3200 1 24.724 22.958 19.426 12 11.015446192 1.766 3.6091959921
3201 1 28.256 21.192 17.66 12 11.015446192 1.766 5.9862264339
3202 1 30.022 22.958 17.66 12 11.015446192 1.766 7.0586432114
3203 1 30.022 21.192 19.426 12 11.015446192 1.766 5.4842917148
3204 1 28.256 22.958 19.426 12 11.015446192 1.766 4.7274314749
3205 1 31.788 21.192 17.66 12 11.015446192 1.766 7.9815225161
3206 1 33.554 22.958 17.66 12 11.015446192 1.766 9.4957497199
3207 1 33.554 21.192 19.426 12 11.015446192 1.766 8.0512913829
3208 1 31.788 22.958 19.426 12 11.015446192 1.766 7.0898472843
3209 1 35.32 21.192 17.66 12 11.015446192 1.766 10.5469995148
3210 1 37.086 22.958 17.66 12 11.015446192 1.766 11.9545636718
3211 1 37.086 21.192 19.426 12 11.015446192 1.766 10.7579325102
3212 1 35.32 22.958 19.426 12 11.015446192 1.766 9.5004302403
3213 1 38.852 21.192 17.66 12 11.015446192 1.766 13.2145390282
3214 1 40.618 22.958 17.66 12 11.015446192 1.766 14.790924905
3215 1 40.618 21.192 19.426 12 11.015446192 1.766 13.841711558
3216 1 38.852 22.958 19.426 12 11.015446192 1.766 12.3952820748
3217 1 0.0 24.724 17.66 12 11.015446192 1.766 16.5949962749
3218 1 1.766 26.49 17.66 12 11.015446192 1.766 18.5604786356
3219 1 1.766 24.724 19.426 12 11.015446192 1.766 17.4596065962
3220 1 0.0 26.49 19.426 12 11.015446192 1.766 16.3367041152
3221 1 3.532 24.724 17.66 12 11.015446192 1.766 18.9598681022
3222 1 5.298 26.49 17.66 12 11.015446192 1.766 17.5345472211
3223 1 5.298 24.724 19.426 12 11.015446192 1.766 16.7837804288
3224 1 3.532 26.49 19.426 12 11.015446192 1.766 18.7334503029
3225 1 7.064 24.724 17.66 12 11.015446192 1.766 15.6423176226
3226 1 8.83 26.49 17.66 12 11.015446192 1.766 14.3227396961
3227 1 8.83 24.724 19.426 12 11.015446192 1.766 13.4017509588
3228 1 7.064 26.49 19.426 12 11.015446192 1.766 15.3670967461
3229 1 10.596 24.724 17.66 12 11.015446192 1.766 12.4433777873
3230 1 12.362 26.49 17.66 12 11.015446192 1.766 11.3036032554
3231 1 12.362 24.724 19.426 12 11.015446192 1.766 10.111256248
3232 1 10.596 26.49 19.426 12 11.015446192 1.766 12.0955864908
3233 1 14.128 24.724 17.66 12 11.015446192 1.766 9.4838414638
3234 1 15.894 26.49 17.66 12 11.015446192 1.766 8.6805569353
3235 1 15.894 24.724 19.426 12 11.015446192 1.766 7.0581955956
3236 1 14.128 26.49 19.426 12 11.015446192 1.766 9.0226831214
3237 1 17.66 24.724 17.66 12 11.015446192 1.766 7.0709896806
3238 1 19.426 26.49 17.66 12 11.015446192 1.766 6.9197354616
3239 1 19.426 24.724 19.426 12 11.015446192 1.766 4.7274512391
3240 1 17.66 26.49 19.426 12 11.015446192 1.766 6.4392900899
3241 1 21.192 24.724 17.66 12 11.015446192 1.766 5.9077372552
3242 1 22.958 26.49 17.66 12 11.015446192 1.766 6.398899755
3243 1 22.958 24.724 19.426 12 11.015446192 1.766 4.1406404547
3244 1 21.192 26.49 19.426 12 11.015446192 1.766 5.0403135388
3245 1 24.724 24.724 17.66 12 11.015446192 1.766 5.7464522739
3246 1 26.49 26.49 17.66 12 11.015446192 1.766 6.8065582649
3247 1 26.49 24.724 19.426 12 11.015446192 1.766 4.4895038812
3248 1 24.724 26.49 19.426 12 11.015446192 1.766 5.0535350074
3249 1 28.256 24.724 17.66 12 11.015446192 1.766 6.7228590813
3250 1 30.022 26.49 17.66 12 11.015446192 1.766 8.4244431075
3251 1 30.022 24.724 19.426 12 11.015446192 1.766 6.4783100207
3252 1 28.256 26.49 19.426 12 11.015446192 1.766 6.2973209961
3253 1 31.788 24.724 17.66 12 11.015446192 1.766 8.7341072689
3254 1 33.554 26.49 17.66 12 11.015446192 1.766 10.5937326905
3255 1 33.554 24.724 19.426 12 11.015446192 1.766 8.7818502817
3256 1 31.788 26.49 19.426 12 11.015446192 1.766 8.3311214103
3257 1 35.32 24.724 17.66 12 11.015446192 1.766 11.1208887882
3258 1 37.086 26.49 17.66 12 11.015446192 1.766 12.9545970705
3259 1 37.086 24.724 19.426 12 11.015446192 1.766 11.3211342439
3260 1 35.32 26.49 19.426 12 11.015446192 1.766 10.714740705
3261 1 38.852 24.724 17.66 12 11.015446192 1.766 13.676951795
3262 1 40.618 26.49 17.66 12 11.015446192 1.766 15.6102995557
3263 1 40.618 24.724 19.426 12 11.015446192 1.766 14.2838351829
3264 1 38.852 26.49 19.426 12 11.015446192 1.766 13.3623729325
3265 1 0.0 28.256 17.66 12 11.015446192 1.766 17.6855567636
3266 1 1.766 30.022 17.66 12 11.015446192 1.766 19.8582831045
3267 1 1.766 28.256 19.426 12 11.015446192 1.766 18.49926699
3268 1 0.0 30.022 19.426 12 11.015446192 1.766 17.7959016135
3269 1 3.532 28.256 17.66 12 11.015446192 1.766 19.5630676504
3270 1 5.298 30.022 17.66 12 11.015446192 1.766 18.524912623
3271 1 5.298 28.256 19.426 12 11.015446192 1.766 17.4618606935
3272 1 3.532 30.022 19.426 12 11.015446192 1.766 19.604412782
3273 1 7.064 28.256 17.66 12 11.015446192 1.766 16.3682350315
3274 1 8.83 30.022 17.66 12 11.015446192 1.766 15.5194366471
3275 1 8.83 28.256 19.426 12 11.015446192 1.766 14.2409874135
3276 1 7.064 30.022 19.426 12 11.015446192 1.766 16.442681927
3277 1 10.596 28.256 17.66 12 11.015446192 1.766 13.3444620798
3278 1 12.362 30.022 17.66 12 11.015446192 1.766 12.7860661657
3279 1 12.362 28.256 19.426 12 11.015446192 1.766 11.2015409812
3280 1 10.596 30.022 19.426 12 11.015446192 1.766 13.4597220157
3281 1 14.128 28.256 17.66 12 11.015446192 1.766 10.6386214497
3282 1 15.894 30.022 17.66 12 11.015446192 1.766 10.5386958466
3283 1 15.894 28.256 19.426 12 11.015446192 1.766 8.5472301072
3284 1 14.128 30.022 19.426 12 11.015446192 1.766 10.8043927286
3285 1 17.66 28.256 17.66 12 11.015446192 1.766 8.5577983444
3286 1 19.426 30.022 17.66 12 11.015446192 1.766 9.0354009112
3287 1 19.426 28.256 19.426 12 11.015446192 1.766 6.721412257
3288 1 17.66 30.022 19.426 12 11.015446192 1.766 8.7780129443
3289 1 21.192 28.256 17.66 12 11.015446192 1.766 7.4213520967
3290 1 22.958 30.022 17.66 12 11.015446192 1.766 8.3792047893
3291 1 22.958 28.256 19.426 12 11.015446192 1.766 5.8822412428
3292 1 21.192 30.022 19.426 12 11.015446192 1.766 7.4133482321
3293 1 24.724 28.256 17.66 12 11.015446192 1.766 7.4744319207
3294 1 26.49 30.022 17.66 12 11.015446192 1.766 9.0884997291
3295 1 26.49 28.256 19.426 12 11.015446192 1.766 6.7015618785
3296 1 24.724 30.022 19.426 12 11.015446192 1.766 7.4650924088
3297 1 28.256 28.256 17.66 12 11.015446192 1.766 8.4893436658
3298 1 30.022 30.022 17.66 12 11.015446192 1.766 10.4003449782
3299 1 30.022 28.256 19.426 12 11.015446192 1.766 8.2958389236
3300 1 28.256 30.022 19.426 12 11.015446192 1.766 8.4693690465
3301 1 31.788 28.256 17.66 12 11.015446192 1.766 10.3371743637
3302 1 33.554 30.022 17.66 12 11.015446192 1.766 12.3175845521
3303 1 33.554 28.256 19.426 12 11.015446192 1.766 10.3144563335
3304 1 31.788 30.022 19.426 12 11.015446192 1.766 10.3204691672
3305 1 35.32 28.256 17.66 12 11.015446192 1.766 12.4886408326
3306 1 37.086 30.022 17.66 12 11.015446192 1.766 14.5480458349
3307 1 37.086 28.256 19.426 12 11.015446192 1.766 12.8397168956
3308 1 35.32 30.022 19.426 12 11.015446192 1.766 12.4831881034
3309 1 38.852 28.256 17.66 12 11.015446192 1.766 14.9813463115
3310 1 40.618 30.022 17.66 12 11.015446192 1.766 17.1306183425
3311 1 40.618 28.256 19.426 12 11.015446192 1.766 15.5374696848
3312 1 38.852 30.022 19.426 12 11.015446192 1.766 15.0757712612
3313 1 0.0 31.788 17.66 12 11.015446192 1.766 19.3608708446
3314 1 1.766 33.554 17.66 12 11.015446192 1.766 21.6405996517
3315 1 1.766 31.788 19.426 12 11.015446192 1.766 20.0753617155
3316 1 0.0 33.554 19.426 12 11.015446192 1.766 19.6779110454
3317 1 3.532 31.788 17.66 12 11.015446192 1.766 20.7395738603
3318 1 5.298 33.554 17.66 12 11.015446192 1.766 20.0320069643
3319 1 5.298 31.788 19.426 12 11.015446192 1.766 18.6792689714
3320 1 3.532 33.554 19.426 12 11.015446192 1.766 20.9735666212
3321 1 7.064 31.788 17.66 12 11.015446192 1.766 17.7700227766
3322 1 8.83 33.554 17.66 12 11.015446192 1.766 17.3151798596
3323 1 8.83 31.788 19.426 12 11.015446192 1.766 15.7312370325
3324 1 7.064 33.554 19.426 12 11.015446192 1.766 18.0547002767
3325 1 10.596 31.788 17.66 12 11.015446192 1.766 15.0394798037
3326 1 12.362 33.554 17.66 12 11.015446192 1.766 14.9379008234
3327 1 12.362 31.788 19.426 12 11.015446192 1.766 13.0758783965
3328 1 10.596 33.554 19.426 12 11.015446192 1.766 15.3949327816
3329 1 14.128 31.788 17.66 12 11.015446192 1.766 12.7030441938
3330 1 15.894 33.554 17.66 12 11.015446192 1.766 13.0797634944
3331 1 15.894 31.788 19.426 12 11.015446192 1.766 10.9281410003
3332 1 14.128 33.554 19.426 12 11.015446192 1.766 13.1524049747
3333 1 17.66 31.788 17.66 12 11.015446192 1.766 10.9732295962
3334 1 19.426 33.554 17.66 12 11.015446192 1.766 11.6565458367
3335 1 19.426 31.788 19.426 12 11.015446192 1.766 9.3696171737
3336 1 17.66 33.554 19.426 12 11.015446192 1.766 11.5195001673
3337 1 21.192 31.788 17.66 12 11.015446192 1.766 9.838981394
3338 1 22.958 33.554 17.66 12 11.015446192 1.766 11.154155496
3339 1 22.958 31.788 19.426 12 11.015446192 1.766 8.7366955977
3340 1 21.192 33.554 19.426 12 11.015446192 1.766 10.4480545528
3341 1 24.724 31.788 17.66 12 11.015446192 1.766 9.8904349175
3342 1 26.49 33.554 17.66 12 11.015446192 1.766 11.6196836518
3343 1 26.49 31.788 19.426 12 11.015446192 1.766 9.1948361187
3344 1 24.724 33.554 19.426 12 11.015446192 1.766 10.4143833197
3345 1 28.256 31.788 17.66 12 11.015446192 1.766 10.7974931824
3346 1 30.022 33.554 17.66 12 11.015446192 1.766 12.6527825719
3347 1 30.022 31.788 19.426 12 11.015446192 1.766 10.4403635667
3348 1 28.256 33.554 19.426 12 11.015446192 1.766 11.0384463576
3349 1 31.788 31.788 17.66 12 11.015446192 1.766 12.3860375431
3350 1 33.554 33.554 17.66 12 11.015446192 1.766 14.4689581036
3351 1 33.554 31.788 19.426 12 11.015446192 1.766 12.4936193431
3352 1 31.788 33.554 19.426 12 11.015446192 1.766 12.5988105569
3353 1 35.32 31.788 17.66 12 11.015446192 1.766 14.4016020476
3354 1 37.086 33.554 17.66 12 11.015446192 1.766 16.6000237817
3355 1 37.086 31.788 19.426 12 11.015446192 1.766 14.7562524034
3356 1 35.32 33.554 19.426 12 11.015446192 1.766 14.7398904887
3357 1 38.852 31.788 17.66 12 11.015446192 1.766 16.7272277854
3358 1 40.618 33.554 17.66 12 11.015446192 1.766 18.9849857823
3359 1 40.618 31.788 19.426 12 11.015446192 1.766 17.3613864038
3360 1 38.852 33.554 19.426 12 11.015446192 1.766 17.087152342
3361 1 0.0 35.32 17.66 12 11.015446192 1.766 21.2963434637
3362 1 1.766 37.086 17.66 12 11.015446192 1.766 23.6452662235
3363 1 1.766 35.32 19.426 12 11.015446192 1.766 22.0263940247
3364 1 0.0 37.086 19.426 12 11.015446192 1.766 21.7980247784
3365 1 3.532 35.32 17.66 12 11.015446192 1.766 22.3269841789
3366 1 5.298 37.086 17.66 12 11.015446192 1.766 21.9496890024
3367 1 5.298 35.32 19.426 12 11.015446192 1.766 20.4192950317
3368 1 3.532 37.086 19.426 12 11.015446192 1.766 22.812234461
3369 1 7.064 35.32 17.66 12 11.015446192 1.766 19.6106075325
3370 1 8.83 37.086 17.66 12 11.015446192 1.766 19.5024505274
3371 1 8.83 35.32 19.426 12 11.015446192 1.766 17.7624418046
3372 1 7.064 37.086 19.426 12 11.015446192 1.766 20.1613428712
3373 1 10.596 35.32 17.66 12 11.015446192 1.766 17.1932452161
3374 1 12.362 37.086 17.66 12 11.015446192 1.766 17.4313612159
3375 1 12.362 35.32 19.426 12 11.015446192 1.766 15.4599843509
3376 1 10.596 37.086 19.426 12 11.015446192 1.766 17.8188523659
3377 1 14.128 35.32 17.66 12 11.015446192 1.766 15.2180643424
3378 1 15.894 37.086 17.66 12 11.015446192 1.766 15.8448402845
3379 1 15.894 35.32 19.426 12 11.015446192 1.766 13.6918932729
3380 1 14.128 37.086 19.426 12 11.015446192 1.766 15.9214729503
3381 1 17.66 35.32 17.66 12 11.015446192 1.766 13.6901274945
3382 1 19.426 37.086 17.66 12 11.015446192 1.766 14.6638746848
3383 1 19.426 35.32 19.426 12 11.015446192 1.766 12.4285502738
3384 1 17.66 37.086 19.426 12 11.015446192 1.766 14.5668452323
3385 1 21.192 35.32 17.66 12 11.015446192 1.766 12.7861132014
3386 1 22.958 37.086 17.66 12 11.015446192 1.766 14.2677729431
3387 1 22.958 35.32 19.426 12 11.015446192 1.766 11.9542352719
3388 1 21.192 37.086 19.426 12 11.015446192 1.766 13.7228278378
3389 1 24.724 35.32 17.66 12 11.015446192 1.766 12.8058964704
3390 1 26.49 37.086 17.66 12 11.015446192 1.766 14.5167201408
3391 1 26.49 35.32 19.426 12 11.015446192 1.766 12.1312995419
3392 1 24.724 37.086 19.426 12 11.015446192 1.766 13.5945465589
3393 1 28.256 35.32 17.66 12 11.015446192 1.766 13.3856835985
3394 1 30.022 37.086 17.66 12 11.015446192 1.766 15.3343690265
3395 1 30.022 35.32 19.426 12 11.015446192 1.766 13.0987073421
3396 1 28.256 37.086 19.426 12 11.015446192 1.766 14.0320085739
3397 1 31.788 35.32 17.66 12 11.015446192 1.766 14.6989542096
3398 1 33.554 37.086 17.66 12 11.015446192 1.766 16.8671463769
3399 1 33.554 35.32 19.426 12 11.015446192 1.766 14.8608551674
3400 1 31.788 37.086 19.426 12 11.015446192 1.766 15.2898657312
3401 1 35.32 35.32 17.66 12 11.015446192 1.766 16.6660564364
3402 1 37.086 37.086 17.66 12 11.015446192 1.766 18.913380607
3403 1 37.086 35.32 19.426 12 11.015446192 1.766 17.0013339992
3404 1 35.32 37.086 19.426 12 11.015446192 1.766 17.1474350891
3405 1 38.852 35.32 17.66 12 11.015446192 1.766 18.8636992091
3406 1 40.618 37.086 17.66 12 11.015446192 1.766 21.1578249607
3407 1 40.618 35.32 19.426 12 11.015446192 1.766 19.4370498368
3408 1 38.852 37.086 19.426 12 11.015446192 1.766 19.3019485154
3409 1 0.0 38.852 17.66 12 11.015446192 1.766 23.4732787008
3410 1 1.766 40.618 17.66 12 11.015446192 1.766 25.8050733264
3411 1 1.766 38.852 19.426 12 11.015446192 1.766 24.1668352735
3412 1 0.0 40.618 19.426 12 11.015446192 1.766 24.0197077268
3413 1 3.532 38.852 17.66 12 11.015446192 1.766 24.320295862
3414 1 5.298 40.618 17.66 12 11.015446192 1.766 24.2331681708
3415 1 5.298 38.852 19.426 12 11.015446192 1.766 22.5816336407
3416 1 3.532 40.618 19.426 12 11.015446192 1.766 25.017106815
3417 1 7.064 38.852 17.66 12 11.015446192 1.766 21.8531118169
3418 1 8.83 40.618 17.66 12 11.015446192 1.766 22.040943012
3419 1 8.83 38.852 19.426 12 11.015446192 1.766 20.2110590309
3420 1 7.064 40.618 19.426 12 11.015446192 1.766 22.6260323225
3421 1 10.596 38.852 17.66 12 11.015446192 1.766 19.7126925951
3422 1 12.362 40.618 17.66 12 11.015446192 1.766 20.2314098898
3423 1 12.362 38.852 19.426 12 11.015446192 1.766 18.2206938511
3424 1 10.596 40.618 19.426 12 11.015446192 1.766 20.5662123865
3425 1 14.128 38.852 17.66 12 11.015446192 1.766 18.0158832872
3426 1 15.894 40.618 17.66 12 11.015446192 1.766 18.8544968145
3427 1 15.894 38.852 19.426 12 11.015446192 1.766 16.744409512
3428 1 14.128 40.618 19.426 12 11.015446192 1.766 18.9459993981
3429 1 17.66 38.852 17.66 12 11.015446192 1.766 16.7047530584
3430 1 19.426 40.618 17.66 12 11.015446192 1.766 17.8643059955
3431 1 19.426 38.852 19.426 12 11.015446192 1.766 15.6875124171
3432 1 17.66 40.618 19.426 12 11.015446192 1.766 17.78637433
3433 1 21.192 38.852 17.66 12 11.015446192 1.766 15.9722845807
3434 1 22.958 40.618 17.66 12 11.015446192 1.766 17.5322344251
3435 1 22.958 38.852 19.426 12 11.015446192 1.766 15.2754431978
3436 1 21.192 40.618 19.426 12 11.015446192 1.766 17.0996089417
3437 1 24.724 38.852 17.66 12 11.015446192 1.766 15.9308570903
3438 1 26.49 40.618 17.66 12 11.015446192 1.766 17.6276822813
3439 1 26.49 38.852 19.426 12 11.015446192 1.766 15.3197068903
3440 1 24.724 40.618 19.426 12 11.015446192 1.766 16.8808944606
3441 1 28.256 38.852 17.66 12 11.015446192 1.766 16.3309986231
3442 1 30.022 40.618 17.66 12 11.015446192 1.766 18.3069082062
3443 1 30.022 38.852 19.426 12 11.015446192 1.766 16.0966184232
3444 1 28.256 40.618 19.426 12 11.015446192 1.766 17.2307074506
3445 1 31.788 38.852 17.66 12 11.015446192 1.766 17.4236691166
3446 1 33.554 40.618 17.66 12 11.015446192 1.766 19.6086879094
3447 1 33.554 38.852 19.426 12 11.015446192 1.766 17.5629974127
3448 1 31.788 40.618 19.426 12 11.015446192 1.766 18.2696471971
3449 1 35.32 38.852 17.66 12 11.015446192 1.766 19.1158840481
3450 1 37.086 40.618 17.66 12 11.015446192 1.766 21.4084935301
3451 1 37.086 38.852 19.426 12 11.015446192 1.766 19.4409534909
3452 1 35.32 40.618 19.426 12 11.015446192 1.766 19.8693091157
3453 1 38.852 38.852 17.66 12 11.015446192 1.766 21.1705830515
3454 1 40.618 40.618 17.66 12 11.015446192 1.766 23.4602676484
3455 1 40.618 38.852 19.426 12 11.015446192 1.766 21.6452829939
3456 1 38.852 40.618 19.426 12 11.015446192 1.766 21.7693300777
3457 1 0.0 0.0 21.192 12 11.015446192 1.766 24.8018452654
3458 1 1.766 1.766 21.192 12 11.015446192 1.766 25.1106719744
3459 1 1.766 0.0 22.958 12 11.015446192 1.766 25.6983708767
3460 1 0.0 1.766 22.958 12 11.015446192 1.766 23.5079544043
3461 1 3.532 0.0 21.192 12 11.015446192 1.766 25.6658177047
3462 1 5.298 1.766 21.192 12 11.015446192 1.766 23.1930835894
3463 1 5.298 0.0 22.958 12 11.015446192 1.766 24.2673091178
3464 1 3.532 1.766 22.958 12 11.015446192 1.766 24.2860356891
3465 1 7.064 0.0 21.192 12 11.015446192 1.766 23.3076682813
3466 1 8.83 1.766 21.192 12 11.015446192 1.766 20.854432446
3467 1 8.83 0.0 22.958 12 11.015446192 1.766 22.0429244447
3468 1 7.064 1.766 22.958 12 11.015446192 1.766 21.7789974919
3469 1 10.596 0.0 21.192 12 11.015446192 1.766 21.2769981663
3470 1 12.362 1.766 21.192 12 11.015446192 1.766 18.8903580406
3471 1 12.362 0.0 22.958 12 11.015446192 1.766 20.1947714108
3472 1 10.596 1.766 22.958 12 11.015446192 1.766 19.5905074465
3473 1 14.128 0.0 21.192 12 11.015446192 1.766 19.6754656674
3474 1 15.894 1.766 21.192 12 11.015446192 1.766 17.4279645731
3475 1 15.894 0.0 22.958 12 11.015446192 1.766 18.8339351861
3476 1 14.128 1.766 22.958 12 11.015446192 1.766 17.8381972259
3477 1 17.66 0.0 21.192 12 11.015446192 1.766 18.6141692129
3478 1 19.426 1.766 21.192 12 11.015446192 1.766 16.5766013871
3479 1 19.426 0.0 22.958 12 11.015446192 1.766 18.0708172518
3480 1 17.66 1.766 22.958 12 11.015446192 1.766 16.660270902
3481 1 21.192 0.0 21.192 12 11.015446192 1.766 18.0493774347
3482 1 22.958 1.766 21.192 12 11.015446192 1.766 16.2289728033
3483 1 22.958 0.0 22.958 12 11.015446192 1.766 17.7871471184
3484 1 21.192 1.766 22.958 12 11.015446192 1.766 16.1187827322
3485 1 24.724 0.0 21.192 12 11.015446192 1.766 18.0520060119
3486 1 26.49 1.766 21.192 12 11.015446192 1.766 16.452716179
3487 1 26.49 0.0 22.958 12 11.015446192 1.766 17.8895218954
3488 1 24.724 1.766 22.958 12 11.015446192 1.766 16.0805150231
3489 1 28.256 0.0 21.192 12 11.015446192 1.766 18.42737275
3490 1 30.022 1.766 21.192 12 11.015446192 1.766 17.1950311059
3491 1 30.022 0.0 22.958 12 11.015446192 1.766 18.5591539345
3492 1 28.256 1.766 22.958 12 11.015446192 1.766 16.4744122367
3493 1 31.788 0.0 21.192 12 11.015446192 1.766 19.4023399601
3494 1 33.554 1.766 21.192 12 11.015446192 1.766 18.5857313785
3495 1 33.554 0.0 22.958 12 11.015446192 1.766 19.7155638005
3496 1 31.788 1.766 22.958 12 11.015446192 1.766 17.5213303245
3497 1 35.32 0.0 21.192 12 11.015446192 1.766 20.8325783827
3498 1 37.086 1.766 21.192 12 11.015446192 1.766 20.4297774324
3499 1 37.086 0.0 22.958 12 11.015446192 1.766 21.3148073231
3500 1 35.32 1.766 22.958 12 11.015446192 1.766 19.0859868488
3501 1 38.852 0.0 21.192 12 11.015446192 1.766 22.6293813729
3502 1 40.618 1.766 21.192 12 11.015446192 1.766 22.619904222
3503 1 40.618 0.0 22.958 12 11.015446192 1.766 23.342849322
3504 1 38.852 1.766 22.958 12 11.015446192 1.766 21.1181055764
3505 1 0.0 3.532 21.192 12 11.015446192 1.766 22.6696225401
3506 1 1.766 5.298 21.192 12 11.015446192 1.766 22.6587955245
3507 1 1.766 3.532 22.958 12 11.015446192 1.766 23.5472446286
3508 1 0.0 5.298 22.958 12 11.015446192 1.766 21.0828771552
3509 1 3.532 3.532 21.192 12 11.015446192 1.766 23.3466459275
3510 1 5.298 5.298 21.192 12 11.015446192 1.766 20.8979862187
3511 1 5.298 3.532 22.958 12 11.015446192 1.766 21.7998616837
3512 1 3.532 5.298 22.958 12 11.015446192 1.766 22.104710609
3513 1 7.064 3.532 21.192 12 11.015446192 1.766 20.7262895454
3514 1 8.83 5.298 21.192 12 11.015446192 1.766 18.2678420799
3515 1 8.83 3.532 22.958 12 11.015446192 1.766 19.293060817
3516 1 7.064 5.298 22.958 12 11.015446192 1.766 19.316610297
3517 1 10.596 3.532 21.192 12 11.015446192 1.766 18.4131020901
3518 1 12.362 5.298 21.192 12 11.015446192 1.766 15.9891315748
3519 1 12.362 3.532 22.958 12 11.015446192 1.766 17.1511069598
3520 1 10.596 5.298 22.958 12 11.015446192 1.766 16.8105527459
3521 1 14.128 3.532 21.192 12 11.015446192 1.766 16.5364937892
3522 1 15.894 5.298 21.192 12 11.015446192 1.766 14.2316777217
3523 1 15.894 3.532 22.958 12 11.015446192 1.766 15.5257461079
3524 1 14.128 5.298 22.958 12 11.015446192 1.766 14.7311907829
3525 1 17.66 3.532 21.192 12 11.015446192 1.766 15.2584066369
3526 1 19.426 5.298 21.192 12 11.015446192 1.766 13.1872229819
3527 1 19.426 3.532 22.958 12 11.015446192 1.766 14.5906532569
3528 1 17.66 5.298 22.958 12 11.015446192 1.766 13.2804867434
3529 1 21.192 3.532 21.192 12 11.015446192 1.766 14.5835005816
3530 1 22.958 5.298 21.192 12 11.015446192 1.766 12.7574701915
3531 1 22.958 3.532 22.958 12 11.015446192 1.766 14.2682935701
3532 1 21.192 5.298 22.958 12 11.015446192 1.766 12.6175108024
3533 1 24.724 3.532 21.192 12 11.015446192 1.766 14.5864533453
3534 1 26.49 5.298 21.192 12 11.015446192 1.766 13.0401017514
3535 1 26.49 3.532 22.958 12 11.015446192 1.766 14.442783863
3536 1 24.724 5.298 22.958 12 11.015446192 1.766 12.567822071
3537 1 28.256 3.532 21.192 12 11.015446192 1.766 15.0538753219
3538 1 30.022 5.298 21.192 12 11.015446192 1.766 13.9650090853
3539 1 30.022 3.532 22.958 12 11.015446192 1.766 15.2680461635
3540 1 28.256 5.298 22.958 12 11.015446192 1.766 13.0674714561
3541 1 31.788 3.532 21.192 12 11.015446192 1.766 16.2502741908
3542 1 33.554 5.298 21.192 12 11.015446192 1.766 15.6461090626
3543 1 33.554 3.532 22.958 12 11.015446192 1.766 16.7148072207
3544 1 31.788 5.298 22.958 12 11.015446192 1.766 14.3671137547
3545 1 35.32 3.532 21.192 12 11.015446192 1.766 18.0367305049
3546 1 37.086 5.298 21.192 12 11.015446192 1.766 17.7992031458
3547 1 37.086 3.532 22.958 12 11.015446192 1.766 18.6711871902
3548 1 35.32 5.298 22.958 12 11.015446192 1.766 16.2396768148
3549 1 38.852 3.532 21.192 12 11.015446192 1.766 20.2005297695
3550 1 40.618 5.298 21.192 12 11.015446192 1.766 20.2342336199
3551 1 40.618 3.532 22.958 12 11.015446192 1.766 21.0425222878
3552 1 38.852 5.298 22.958 12 11.015446192 1.766 18.5856555491
3553 1 0.0 7.064 21.192 12 11.015446192 1.766 20.240392935
3554 1 1.766 8.83 21.192 12 11.015446192 1.766 20.4623647597
3555 1 1.766 7.064 22.958 12 11.015446192 1.766 21.1491149351
3556 1 0.0 8.83 22.958 12 11.015446192 1.766 18.7022743557
3557 1 3.532 7.064 21.192 12 11.015446192 1.766 21.3622939235
3558 1 5.298 8.83 21.192 12 11.015446192 1.766 18.9863787387
3559 1 5.298 7.064 22.958 12 11.015446192 1.766 19.6600024171
3560 1 3.532 8.83 22.958 12 11.015446192 1.766 20.3070180164
3561 1 7.064 7.064 21.192 12 11.015446192 1.766 18.4624159831
3562 1 8.83 8.83 21.192 12 11.015446192 1.766 16.0458967922
3563 1 8.83 7.064 22.958 12 11.015446192 1.766 16.8375746858
3564 1 7.064 8.83 22.958 12 11.015446192 1.766 17.2304434933
3565 1 10.596 7.064 21.192 12 11.015446192 1.766 15.8216324755
3566 1 12.362 8.83 21.192 12 11.015446192 1.766 13.394367403
3567 1 12.362 7.064 22.958 12 11.015446192 1.766 14.3332548836
3568 1 10.596 8.83 22.958 12 11.015446192 1.766 14.3649376342
3569 1 14.128 7.064 21.192 12 11.015446192 1.766 13.5918119635
3570 1 15.894 8.83 21.192 12 11.015446192 1.766 11.2382116186
3571 1 15.894 7.064 22.958 12 11.015446192 1.766 12.3422249946
3572 1 14.128 8.83 22.958 12 11.015446192 1.766 11.8644313599
3573 1 17.66 7.064 21.192 12 11.015446192 1.766 12.0041950463
3574 1 19.426 8.83 21.192 12 11.015446192 1.766 9.8941214663
3575 1 19.426 7.064 22.958 12 11.015446192 1.766 11.1431094438
3576 1 17.66 8.83 22.958 12 11.015446192 1.766 10.0064018384
3577 1 21.192 7.064 21.192 12 11.015446192 1.766 11.1591666647
3578 1 22.958 8.83 21.192 12 11.015446192 1.766 9.3314833291
3579 1 22.958 7.064 22.958 12 11.015446192 1.766 10.7497033405
3580 1 21.192 8.83 22.958 12 11.015446192 1.766 9.1324343223
3581 1 24.724 7.064 21.192 12 11.015446192 1.766 11.1626302136
3582 1 26.49 8.83 21.192 12 11.015446192 1.766 9.7132222103
3583 1 26.49 7.064 22.958 12 11.015446192 1.766 10.9736691099
3584 1 24.724 8.83 22.958 12 11.015446192 1.766 9.0696425861
3585 1 28.256 7.064 21.192 12 11.015446192 1.766 11.7663320635
3586 1 30.022 8.83 21.192 12 11.015446192 1.766 10.9235484515
3587 1 30.022 7.064 22.958 12 11.015446192 1.766 12.0404474578
3588 1 28.256 8.83 22.958 12 11.015446192 1.766 9.7499355011
3589 1 31.788 7.064 21.192 12 11.015446192 1.766 13.2626852219
3590 1 33.554 8.83 21.192 12 11.015446192 1.766 13.0046513044
3591 1 33.554 7.064 22.958 12 11.015446192 1.766 13.8314290845
3592 1 31.788 8.83 22.958 12 11.015446192 1.766 11.4358999545
3593 1 35.32 7.064 21.192 12 11.015446192 1.766 15.4013529933
3594 1 37.086 8.83 21.192 12 11.015446192 1.766 15.3911829708
3595 1 37.086 7.064 22.958 12 11.015446192 1.766 16.1412658781
3596 1 35.32 8.83 22.958 12 11.015446192 1.766 13.7125590216
3597 1 38.852 7.064 21.192 12 11.015446192 1.766 17.8068278823
3598 1 40.618 8.83 21.192 12 11.015446192 1.766 17.842452409
3599 1 40.618 7.064 22.958 12 11.015446192 1.766 18.6273377776
3600 1 38.852 8.83 22.958 12 11.015446192 1.766 16.1844554628
3601 1 0.0 10.596 21.192 12 11.015446192 1.766 18.0951896122
3602 1 1.766 12.362 21.192 12 11.015446192 1.766 18.6800903771
3603 1 1.766 10.596 22.958 12 11.015446192 1.766 19.1062147867
3604 1 0.0 12.362 22.958 12 11.015446192 1.766 16.7335731694
3605 1 3.532 10.596 21.192 12 11.015446192 1.766 19.8136159064
3606 1 5.298 12.362 21.192 12 11.015446192 1.766 17.5837815961
3607 1 5.298 10.596 22.958 12 11.015446192 1.766 17.9651737718
3608 1 3.532 12.362 22.958 12 11.015446192 1.766 19.0021519394
3609 1 7.064 10.596 21.192 12 11.015446192 1.766 16.6460979675
3610 1 8.83 12.362 21.192 12 11.015446192 1.766 14.3588858021
3611 1 8.83 10.596 22.958 12 11.015446192 1.766 14.8234845738
3612 1 7.064 12.362 22.958 12 11.015446192 1.766 15.6714702752
3613 1 10.596 10.596 21.192 12 11.015446192 1.766 13.6585441319
3614 1 12.362 12.362 21.192 12 11.015446192 1.766 11.318828373
3615 1 12.362 10.596 22.958 12 11.015446192 1.766 11.9026874767
3616 1 10.596 12.362 22.958 12 11.015446192 1.766 12.4522379854
3617 1 14.128 10.596 21.192 12 11.015446192 1.766 10.9985965496
3618 1 15.894 12.362 21.192 12 11.015446192 1.766 8.6604964059
3619 1 15.894 10.596 22.958 12 11.015446192 1.766 9.4107540308
3620 1 14.128 12.362 22.958 12 11.015446192 1.766 9.4589391109
3621 1 17.66 10.596 21.192 12 11.015446192 1.766 8.9628384075
3622 1 19.426 12.362 21.192 12 11.015446192 1.766 6.8378419397
3623 1 19.426 10.596 22.958 12 11.015446192 1.766 7.771786261
3624 1 17.66 12.362 22.958 12 11.015446192 1.766 6.9881954296
3625 1 21.192 10.596 21.192 12 11.015446192 1.766 7.8310637901
3626 1 22.958 12.362 21.192 12 11.015446192 1.766 6.0291097649
3627 1 22.958 10.596 22.958 12 11.015446192 1.766 7.2358698178
3628 1 21.192 12.362 22.958 12 11.015446192 1.766 5.6984899435
3629 1 24.724 10.596 21.192 12 11.015446192 1.766 7.8354321726
3630 1 26.49 12.362 21.192 12 11.015446192 1.766 6.6029664339
3631 1 26.49 10.596 22.958 12 11.015446192 1.766 7.5629934387
3632 1 24.724 12.362 22.958 12 11.015446192 1.766 5.6139712882
3633 1 28.256 10.596 21.192 12 11.015446192 1.766 8.6731785552
3634 1 30.022 12.362 21.192 12 11.015446192 1.766 8.2810863293
3635 1 30.022 10.596 22.958 12 11.015446192 1.766 9.0432530177
3636 1 28.256 12.362 22.958 12 11.015446192 1.766 6.6568552859
3637 1 31.788 10.596 21.192 12 11.015446192 1.766 10.6149081634
3638 1 33.554 12.362 21.192 12 11.015446192 1.766 10.6204799738
3639 1 33.554 10.596 22.958 12 11.015446192 1.766 11.2997331202
3640 1 31.788 12.362 22.958 12 11.015446192 1.766 8.904421453
3641 1 35.32 10.596 21.192 12 11.015446192 1.766 12.9922109231
3642 1 37.086 12.362 21.192 12 11.015446192 1.766 13.1150374051
3643 1 37.086 10.596 22.958 12 11.015446192 1.766 13.7512804623
3644 1 35.32 12.362 22.958 12 11.015446192 1.766 11.3277882981
3645 1 38.852 10.596 21.192 12 11.015446192 1.766 15.4644326836
3646 1 40.618 12.362 21.192 12 11.015446192 1.766 15.7682727856
3647 1 40.618 10.596 22.958 12 11.015446192 1.766 16.2708356767
3648 1 38.852 12.362 22.958 12 11.015446192 1.766 13.862905365
3649 1 0.0 14.128 21.192 12 11.015446192 1.766 16.4322265683
3650 1 1.766 15.894 21.192 12 11.015446192 1.766 17.3973318273
3651 1 1.766 14.128 22.958 12 11.015446192 1.766 17.5430861712
3652 1 0.0 15.894 22.958 12 11.015446192 1.766 15.3362291308
3653 1 3.532 14.128 21.192 12 11.015446192 1.766 18.8085405307
3654 1 5.298 15.894 21.192 12 11.015446192 1.766 16.8180326088
3655 1 5.298 14.128 22.958 12 11.015446192 1.766 16.8502014903
3656 1 3.532 15.894 22.958 12 11.015446192 1.766 18.2884513562
3657 1 7.064 14.128 21.192 12 11.015446192 1.766 15.4361393863
3658 1 8.83 15.894 21.192 12 11.015446192 1.766 13.410236653
3659 1 8.83 14.128 22.958 12 11.015446192 1.766 13.4505582234
3660 1 7.064 15.894 22.958 12 11.015446192 1.766 14.8071545611
3661 1 10.596 14.128 21.192 12 11.015446192 1.766 12.1547377353
3662 1 12.362 15.894 21.192 12 11.015446192 1.766 10.0882466935
3663 1 12.362 14.128 22.958 12 11.015446192 1.766 10.1417843982
3664 1 10.596 15.894 22.958 12 11.015446192 1.766 11.3452666983
3665 1 14.128 14.128 21.192 12 11.015446192 1.766 9.0637159969
3666 1 15.894 15.894 21.192 12 11.015446192 1.766 6.9757468136
3667 1 15.894 14.128 22.958 12 11.015446192 1.766 7.0529506619
3668 1 14.128 15.894 22.958 12 11.015446192 1.766 7.9453366647
3669 1 17.66 14.128 21.192 12 11.015446192 1.766 6.4431586921
3670 1 19.426 15.894 21.192 12 11.015446192 1.766 4.521486011
3671 1 19.426 14.128 22.958 12 11.015446192 1.766 4.6456951361
3672 1 17.66 15.894 22.958 12 11.015446192 1.766 4.742543724
3673 1 21.192 14.128 21.192 12 11.015446192 1.766 4.8035577982
3674 1 22.958 15.894 21.192 12 11.015446192 1.766 3.2517373807
3675 1 22.958 14.128 22.958 12 11.015446192 1.766 3.7558513623
3676 1 21.192 15.894 22.958 12 11.015446192 1.766 2.5329571273
3677 1 24.724 14.128 21.192 12 11.015446192 1.766 4.8097477408
3678 1 26.49 15.894 21.192 12 11.015446192 1.766 4.1994930156
3679 1 26.49 14.128 22.958 12 11.015446192 1.766 4.3504452386
3680 1 24.724 15.894 22.958 12 11.015446192 1.766 2.3926810406
3681 1 28.256 14.128 21.192 12 11.015446192 1.766 6.0787770374
3682 1 30.022 15.894 21.192 12 11.015446192 1.766 6.1750928782
3683 1 30.022 14.128 22.958 12 11.015446192 1.766 6.5100500422
3684 1 28.256 15.894 22.958 12 11.015446192 1.766 4.1569587707
3685 1 31.788 14.128 21.192 12 11.015446192 1.766 8.3210166787
3686 1 33.554 15.894 21.192 12 11.015446192 1.766 8.5651388658
3687 1 33.554 14.128 22.958 12 11.015446192 1.766 8.9218730518
3688 1 31.788 15.894 22.958 12 11.015446192 1.766 6.5529235785
3689 1 35.32 14.128 21.192 12 11.015446192 1.766 10.8128009938
3690 1 37.086 15.894 21.192 12 11.015446192 1.766 11.2258522407
3691 1 37.086 14.128 22.958 12 11.015446192 1.766 11.493268495
3692 1 35.32 15.894 22.958 12 11.015446192 1.766 9.1897909587
3693 1 38.852 14.128 21.192 12 11.015446192 1.766 13.4914160384
3694 1 40.618 15.894 21.192 12 11.015446192 1.766 14.2084350121
3695 1 40.618 14.128 22.958 12 11.015446192 1.766 14.4032122304
3696 1 38.852 15.894 22.958 12 11.015446192 1.766 12.1395056775
3697 1 0.0 17.66 21.192 12 11.015446192 1.766 15.282408819
3698 1 1.766 19.426 21.192 12 11.015446192 1.766 16.6643162814
3699 1 1.766 17.66 22.958 12 11.015446192 1.766 16.582631326
3700 1 0.0 19.426 22.958 12 11.015446192 1.766 14.5798146523
3701 1 3.532 17.66 21.192 12 11.015446192 1.766 18.2787125458
3702 1 5.298 19.426 21.192 12 11.015446192 1.766 16.2622668731
3703 1 5.298 17.66 22.958 12 11.015446192 1.766 16.279729401
3704 1 3.532 19.426 22.958 12 11.015446192 1.766 17.7114209387
3705 1 7.064 17.66 21.192 12 11.015446192 1.766 14.8999677739
3706 1 8.83 19.426 21.192 12 11.015446192 1.766 12.8817400209
3707 1 8.83 17.66 22.958 12 11.015446192 1.766 12.8654269631
3708 1 7.064 19.426 22.958 12 11.015446192 1.766 14.2371805418
3709 1 10.596 17.66 21.192 12 11.015446192 1.766 11.5303001717
3710 1 12.362 19.426 21.192 12 11.015446192 1.766 9.5613919141
3711 1 12.362 17.66 22.958 12 11.015446192 1.766 9.4303741884
3712 1 10.596 19.426 22.958 12 11.015446192 1.766 10.8003001361
3713 1 14.128 17.66 21.192 12 11.015446192 1.766 8.1709720637
3714 1 15.894 19.426 21.192 12 11.015446192 1.766 6.3200912274
3715 1 15.894 17.66 22.958 12 11.015446192 1.766 5.9798235902
3716 1 14.128 19.426 22.958 12 11.015446192 1.766 7.4142750091
3717 1 17.66 17.66 21.192 12 11.015446192 1.766 5.0340534918
3718 1 19.426 19.426 21.192 12 11.015446192 1.766 3.3844003127
3719 1 19.426 17.66 22.958 12 11.015446192 1.766 2.7053056602
3720 1 17.66 19.426 22.958 12 11.015446192 1.766 4.047322307
3721 1 21.192 17.66 21.192 12 11.015446192 1.766 2.8884656512
3722 1 22.958 19.426 21.192 12 11.015446192 1.766 2.0172877035
3723 1 22.958 17.66 22.958 11 11.9334000413 2.4975011512 0.8514779442
3724 1 21.192 19.426 22.958 11 11.9334000413 2.4975011512 0.8876701115
3725 1 24.724 17.66 21.192 12 11.015446192 1.766 2.6165839828
3726 1 26.49 19.426 21.192 12 11.015446192 1.766 2.500612471
3727 1 26.49 17.66 22.958 12 11.015446192 1.766 2.1206564989
3728 1 24.724 19.426 22.958 10 13.76930774 2.9285796899 0.3228387714
3729 1 28.256 17.66 21.192 12 11.015446192 1.766 4.3167088235
3730 1 30.022 19.426 21.192 12 11.015446192 1.766 4.7017249588
3731 1 30.022 17.66 22.958 12 11.015446192 1.766 4.2794740252
3732 1 28.256 19.426 22.958 12 11.015446192 1.766 2.3310624404
3733 1 31.788 17.66 21.192 12 11.015446192 1.766 6.4875709519
3734 1 33.554 19.426 21.192 12 11.015446192 1.766 7.0795364427
3735 1 33.554 17.66 22.958 12 11.015446192 1.766 6.9188636558
3736 1 31.788 19.426 22.958 12 11.015446192 1.766 4.7346030891
3737 1 35.32 17.66 21.192 12 11.015446192 1.766 9.0461199078
3738 1 37.086 19.426 21.192 12 11.015446192 1.766 10.0513509144
3739 1 37.086 17.66 22.958 12 11.015446192 1.766 9.9344445848
3740 1 35.32 19.426 22.958 12 11.015446192 1.766 7.8007218495
3741 1 38.852 17.66 21.192 12 11.015446192 1.766 12.0506069701
3742 1 40.618 19.426 21.192 12 11.015446192 1.766 13.2999820363
3743 1 40.618 17.66 22.958 12 11.015446192 1.766 13.205965256
3744 1 38.852 19.426 22.958 12 11.015446192 1.766 11.1461250816
3745 1 0.0 21.192 21.192 12 11.015446192 1.766 14.8673111215
3746 1 1.766 22.958 21.192 12 11.015446192 1.766 16.6631144089
3747 1 1.766 21.192 22.958 12 11.015446192 1.766 16.2159157963
3748 1 0.0 22.958 22.958 12 11.015446192 1.766 14.5784409307
3749 1 3.532 21.192 21.192 12 11.015446192 1.766 17.8402942531
3750 1 5.298 22.958 21.192 12 11.015446192 1.766 16.1583957227
3751 1 5.298 21.192 22.958 12 11.015446192 1.766 15.8200686775
3752 1 3.532 22.958 22.958 12 11.015446192 1.766 17.6160966205
3753 1 7.064 21.192 21.192 12 11.015446192 1.766 14.3971864317
3754 1 8.83 22.958 21.192 12 11.015446192 1.766 12.7497582968
3755 1 8.83 21.192 22.958 12 11.015446192 1.766 12.3187854545
3756 1 7.064 22.958 22.958 12 11.015446192 1.766 14.1184184049
3757 1 10.596 21.192 21.192 12 11.015446192 1.766 11.0105360115
3758 1 12.362 22.958 21.192 12 11.015446192 1.766 9.3788022182
3759 1 12.362 21.192 22.958 12 11.015446192 1.766 8.8419695309
3760 1 10.596 22.958 22.958 12 11.015446192 1.766 10.6434329221
3761 1 14.128 21.192 21.192 12 11.015446192 1.766 7.7523125259
3762 1 15.894 22.958 21.192 12 11.015446192 1.766 6.0593638771
3763 1 15.894 21.192 22.958 12 11.015446192 1.766 5.4367658858
3764 1 14.128 22.958 22.958 12 11.015446192 1.766 7.216465649
3765 1 17.66 21.192 21.192 12 11.015446192 1.766 4.7758203284
3766 1 19.426 22.958 21.192 12 11.015446192 1.766 3.0479297197
3767 1 19.426 21.192 22.958 12 11.015446192 1.766 2.3265802247
3768 1 17.66 22.958 22.958 12 11.015446192 1.766 3.8132214016
3769 1 21.192 21.192 21.192 12 11.015446192 1.766 2.1406261481
3770 1 22.958 22.958 21.192 12 11.015446192 1.766 1.9040041723
3771 1 22.958 21.192 22.958 9 16.2171846716 3.1700670165 0.080740013
3772 1 21.192 22.958 22.958 11 11.9334000413 2.4975011512 0.5806953144
3773 1 24.724 21.192 21.192 12 11.015446192 1.766 1.8157638281
3774 1 26.49 22.958 21.192 12 11.015446192 1.766 2.4300097796
3775 1 26.49 21.192 22.958 11 11.9334000413 2.4975011512 0.498031614
3776 1 24.724 22.958 22.958 10 13.76930774 2.9285796899 0.2227226374
3777 1 28.256 21.192 21.192 12 11.015446192 1.766 2.9875129373
3778 1 30.022 22.958 21.192 12 11.015446192 1.766 4.7012168736
3779 1 30.022 21.192 22.958 12 11.015446192 1.766 3.0686402963
3780 1 28.256 22.958 22.958 12 11.015446192 1.766 2.3273664775
3781 1 31.788 21.192 21.192 12 11.015446192 1.766 5.5571945351
3782 1 33.554 22.958 21.192 12 11.015446192 1.766 7.0767069262
3783 1 33.554 21.192 22.958 12 11.015446192 1.766 5.9477999487
3784 1 31.788 22.958 22.958 12 11.015446192 1.766 4.7303711362
3785 1 35.32 21.192 21.192 12 11.015446192 1.766 8.3256955302
3786 1 37.086 22.958 21.192 12 11.015446192 1.766 10.0493581825
3787 1 37.086 21.192 22.958 12 11.015446192 1.766 9.2890334907
3788 1 35.32 22.958 22.958 12 11.015446192 1.766 7.7981540154
3789 1 38.852 21.192 21.192 12 11.015446192 1.766 11.5196375387
3790 1 40.618 22.958 21.192 12 11.015446192 1.766 13.2984761098
3791 1 40.618 21.192 22.958 12 11.015446192 1.766 12.73365659
3792 1 38.852 22.958 22.958 12 11.015446192 1.766 11.1443281094
3793 1 0.0 24.724 21.192 12 11.015446192 1.766 15.2797875856
3794 1 1.766 26.49 21.192 12 11.015446192 1.766 17.3945213926
3795 1 1.766 24.724 22.958 12 11.015446192 1.766 16.5878347065
3796 1 0.0 26.49 22.958 12 11.015446192 1.766 15.3499020405
3797 1 3.532 24.724 21.192 12 11.015446192 1.766 18.0936555093
3798 1 5.298 26.49 21.192 12 11.015446192 1.766 16.6826700869
3799 1 5.298 24.724 22.958 12 11.015446192 1.766 16.1033158224
3800 1 3.532 26.49 22.958 12 11.015446192 1.766 18.1414762697
3801 1 7.064 24.724 21.192 12 11.015446192 1.766 14.6792863662
3802 1 8.83 26.49 21.192 12 11.015446192 1.766 13.2890818548
3803 1 8.83 24.724 22.958 12 11.015446192 1.766 12.6516547637
3804 1 7.064 26.49 22.958 12 11.015446192 1.766 14.6827236701
3805 1 10.596 24.724 21.192 12 11.015446192 1.766 11.2663610753
3806 1 12.362 26.49 21.192 12 11.015446192 1.766 9.9823535495
3807 1 12.362 24.724 22.958 12 11.015446192 1.766 9.2169253629
3808 1 10.596 26.49 22.958 12 11.015446192 1.766 11.2522943278
3809 1 14.128 24.724 21.192 12 11.015446192 1.766 7.8811407213
3810 1 15.894 26.49 21.192 12 11.015446192 1.766 6.8893777612
3811 1 15.894 24.724 22.958 12 11.015446192 1.766 5.8029932039
3812 1 14.128 26.49 22.958 12 11.015446192 1.766 7.911758901
3813 1 17.66 24.724 21.192 12 11.015446192 1.766 4.7082932386
3814 1 19.426 26.49 21.192 12 11.015446192 1.766 4.4779313323
3815 1 19.426 24.724 22.958 12 11.015446192 1.766 2.578646134
3816 1 17.66 26.49 22.958 12 11.015446192 1.766 4.8505441113
3817 1 21.192 24.724 21.192 12 11.015446192 1.766 2.6644734894
3818 1 22.958 26.49 21.192 12 11.015446192 1.766 3.3860707577
3819 1 22.958 24.724 22.958 11 11.9334000413 2.4975011512 0.8973362325
3820 1 21.192 26.49 22.958 12 11.015446192 1.766 2.8727575219
3821 1 24.724 24.724 21.192 12 11.015446192 1.766 2.6331307894
3822 1 26.49 26.49 21.192 12 11.015446192 1.766 4.3391728825
3823 1 26.49 24.724 22.958 12 11.015446192 1.766 2.1827940844
3824 1 24.724 26.49 22.958 12 11.015446192 1.766 2.6167024767
3825 1 28.256 24.724 21.192 12 11.015446192 1.766 4.2421061441
3826 1 30.022 26.49 21.192 12 11.015446192 1.766 6.2043297275
3827 1 30.022 24.724 22.958 12 11.015446192 1.766 4.2607160513
3828 1 28.256 26.49 22.958 12 11.015446192 1.766 4.2195827926
3829 1 31.788 24.724 21.192 12 11.015446192 1.766 6.4809124698
3830 1 33.554 26.49 21.192 12 11.015446192 1.766 8.5492807954
3831 1 33.554 24.724 22.958 12 11.015446192 1.766 6.9143456615
3832 1 31.788 26.49 22.958 12 11.015446192 1.766 6.5287043668
3833 1 35.32 24.724 21.192 12 11.015446192 1.766 9.0416909224
3834 1 37.086 26.49 21.192 12 11.015446192 1.766 11.2204987659
3835 1 37.086 24.724 22.958 12 11.015446192 1.766 9.9338631379
3836 1 35.32 26.49 22.958 12 11.015446192 1.766 9.197244914
3837 1 38.852 24.724 21.192 12 11.015446192 1.766 12.0472825856
3838 1 40.618 26.49 21.192 12 11.015446192 1.766 14.2042056982
3839 1 40.618 24.724 22.958 12 11.015446192 1.766 13.2084946764
3840 1 38.852 26.49 22.958 12 11.015446192 1.766 12.1511228453
3841 1 0.0 28.256 21.192 12 11.015446192 1.766 16.4387210096
3842 1 1.766 30.022 21.192 12 11.015446192 1.766 18.6919548439
3843 1 1.766 28.256 22.958 12 11.015446192 1.766 17.5561863953
3844 1 0.0 30.022 22.958 12 11.015446192 1.766 16.7450726913
3845 1 3.532 28.256 21.192 12 11.015446192 1.766 18.7264337987
3846 1 5.298 30.022 21.192 12 11.015446192 1.766 17.5790756183
3847 1 5.298 28.256 22.958 12 11.015446192 1.766 16.7811720056
3848 1 3.532 30.022 22.958 12 11.015446192 1.766 18.9765148906
3849 1 7.064 28.256 21.192 12 11.015446192 1.766 15.3870409138
3850 1 8.83 30.022 21.192 12 11.015446192 1.766 14.4076586877
3851 1 8.83 28.256 22.958 12 11.015446192 1.766 13.4225356453
3852 1 7.064 30.022 22.958 12 11.015446192 1.766 15.6904372998
3853 1 10.596 28.256 21.192 12 11.015446192 1.766 12.1570054434
3854 1 12.362 30.022 21.192 12 11.015446192 1.766 11.44934086
3855 1 12.362 28.256 22.958 12 11.015446192 1.766 10.1819075039
3856 1 10.596 30.022 22.958 12 11.015446192 1.766 12.5388028108
3857 1 14.128 28.256 21.192 12 11.015446192 1.766 9.1509678101
3858 1 15.894 30.022 21.192 12 11.015446192 1.766 8.9187572787
3859 1 15.894 28.256 22.958 12 11.015446192 1.766 7.219976848
3860 1 14.128 30.022 22.958 12 11.015446192 1.766 9.6541896188
3861 1 17.66 28.256 21.192 12 11.015446192 1.766 6.6685485351
3862 1 19.426 30.022 21.192 12 11.015446192 1.766 7.1946837885
3863 1 19.426 28.256 22.958 12 11.015446192 1.766 5.0532107569
3864 1 17.66 30.022 22.958 12 11.015446192 1.766 7.3576644707
3865 1 21.192 28.256 21.192 12 11.015446192 1.766 5.058155113
3866 1 22.958 30.022 21.192 12 11.015446192 1.766 6.3803004328
3867 1 22.958 28.256 22.958 12 11.015446192 1.766 4.133914609
3868 1 21.192 30.022 22.958 12 11.015446192 1.766 6.122347451
3869 1 24.724 28.256 21.192 12 11.015446192 1.766 5.04049084
3870 1 26.49 30.022 21.192 12 11.015446192 1.766 6.7806190381
3871 1 26.49 28.256 22.958 12 11.015446192 1.766 4.4536644612
3872 1 24.724 30.022 22.958 12 11.015446192 1.766 5.7167379766
3873 1 28.256 28.256 21.192 12 11.015446192 1.766 6.2728212079
3874 1 30.022 30.022 21.192 12 11.015446192 1.766 8.3882268378
3875 1 30.022 28.256 22.958 12 11.015446192 1.766 6.459943093
3876 1 28.256 30.022 22.958 12 11.015446192 1.766 6.6784427148
3877 1 31.788 28.256 21.192 12 11.015446192 1.766 8.3218313561
3878 1 33.554 30.022 21.192 12 11.015446192 1.766 10.5831741065
3879 1 33.554 28.256 22.958 12 11.015446192 1.766 8.9034025541
3880 1 31.788 30.022 22.958 12 11.015446192 1.766 8.7206646649
3881 1 35.32 28.256 21.192 12 11.015446192 1.766 10.7945003926
3882 1 37.086 30.022 21.192 12 11.015446192 1.766 13.1031985231
3883 1 37.086 28.256 22.958 12 11.015446192 1.766 11.5032605875
3884 1 35.32 30.022 22.958 12 11.015446192 1.766 11.2969096705
3885 1 38.852 28.256 21.192 12 11.015446192 1.766 13.4945244239
3886 1 40.618 30.022 21.192 12 11.015446192 1.766 15.7786822512
3887 1 40.618 28.256 22.958 12 11.015446192 1.766 14.4151766706
3888 1 38.852 30.022 22.958 12 11.015446192 1.766 13.8726392995
3889 1 0.0 31.788 21.192 12 11.015446192 1.766 18.1053712079
3890 1 1.766 33.554 21.192 12 11.015446192 1.766 20.4723507093
3891 1 1.766 31.788 22.958 12 11.015446192 1.766 19.1173383196
3892 1 0.0 33.554 22.958 12 11.015446192 1.766 18.7116388143
3893 1 3.532 31.788 21.192 12 11.015446192 1.766 19.8434320394
3894 1 5.298 33.554 21.192 12 11.015446192 1.766 19.0940146612
3895 1 5.298 31.788 22.958 12 11.015446192 1.766 18.0191621939
3896 1 3.532 33.554 22.958 12 11.015446192 1.766 20.3878790873
3897 1 7.064 31.788 21.192 12 11.015446192 1.766 16.7285235562
3898 1 8.83 33.554 21.192 12 11.015446192 1.766 16.221532762
3899 1 8.83 31.788 22.958 12 11.015446192 1.766 14.9414502455
3900 1 7.064 33.554 22.958 12 11.015446192 1.766 17.3708755953
3901 1 10.596 31.788 21.192 12 11.015446192 1.766 13.815761059
3902 1 12.362 33.554 21.192 12 11.015446192 1.766 13.6618045081
3903 1 12.362 31.788 22.958 12 11.015446192 1.766 12.1141946784
3904 1 10.596 33.554 22.958 12 11.015446192 1.766 14.5869486945
3905 1 14.128 31.788 21.192 12 11.015446192 1.766 11.263083721
3906 1 15.894 33.554 21.192 12 11.015446192 1.766 11.6233268768
3907 1 15.894 31.788 22.958 12 11.015446192 1.766 9.7575887377
3908 1 14.128 33.554 22.958 12 11.015446192 1.766 12.1967566789
3909 1 17.66 31.788 21.192 12 11.015446192 1.766 9.3695733187
3910 1 19.426 33.554 21.192 12 11.015446192 1.766 10.3110901543
3911 1 19.426 31.788 22.958 12 11.015446192 1.766 8.2744726628
3912 1 17.66 33.554 22.958 12 11.015446192 1.766 10.4734293692
3913 1 21.192 31.788 21.192 12 11.015446192 1.766 8.2045122387
3914 1 22.958 33.554 21.192 12 11.015446192 1.766 9.6991860278
3915 1 22.958 31.788 22.958 12 11.015446192 1.766 7.5483593665
3916 1 21.192 33.554 22.958 12 11.015446192 1.766 9.4896594172
3917 1 24.724 31.788 21.192 12 11.015446192 1.766 8.042973092
3918 1 26.49 33.554 21.192 12 11.015446192 1.766 9.8018729419
3919 1 26.49 31.788 22.958 12 11.015446192 1.766 7.5802388987
3920 1 24.724 33.554 22.958 12 11.015446192 1.766 9.098414826
3921 1 28.256 31.788 21.192 12 11.015446192 1.766 8.7745709059
3922 1 30.022 33.554 21.192 12 11.015446192 1.766 10.976539465
3923 1 30.022 31.788 22.958 12 11.015446192 1.766 8.984688919
3924 1 28.256 33.554 22.958 12 11.015446192 1.766 9.732103257
3925 1 31.788 31.788 21.192 12 11.015446192 1.766 10.6367061132
3926 1 33.554 33.554 21.192 12 11.015446192 1.766 12.9051696119
3927 1 33.554 31.788 22.958 12 11.015446192 1.766 11.0504742594
3928 1 31.788 33.554 22.958 12 11.015446192 1.766 11.2915206018
3929 1 35.32 31.788 21.192 12 11.015446192 1.766 12.893764896
3930 1 37.086 33.554 21.192 12 11.015446192 1.766 15.2322558705
3931 1 37.086 31.788 22.958 12 11.015446192 1.766 13.6896433773
3932 1 35.32 33.554 22.958 12 11.015446192 1.766 13.4402741323
3933 1 38.852 31.788 21.192 12 11.015446192 1.766 15.4592378535
3934 1 40.618 33.554 21.192 12 11.015446192 1.766 17.8443734508
3935 1 40.618 31.788 22.958 12 11.015446192 1.766 16.2803643118
3936 1 38.852 33.554 22.958 12 11.015446192 1.766 16.0851965484
3937 1 0.0 35.32 21.192 12 11.015446192 1.766 20.2483258089
3938 1 1.766 37.086 21.192 12 11.015446192 1.766 22.6670500781
3939 1 1.766 35.32 22.958 12 11.015446192 1.766 21.1583462517
3940 1 0.0 37.086 22.958 12 11.015446192 1.766 20.9323826352
3941 1 3.532 35.32 21.192 12 11.015446192 1.766 21.4894000705
3942 1 5.298 37.086 21.192 12 11.015446192 1.766 21.0971310886
3943 1 5.298 35.32 22.958 12 11.015446192 1.766 19.8172330677
3944 1 3.532 37.086 22.958 12 11.015446192 1.766 22.2749446232
3945 1 7.064 35.32 21.192 12 11.015446192 1.766 18.651434815
3946 1 8.83 37.086 21.192 12 11.015446192 1.766 18.5376824182
3947 1 8.83 35.32 22.958 12 11.015446192 1.766 17.066911136
3948 1 7.064 37.086 22.958 12 11.015446192 1.766 19.5513391673
3949 1 10.596 35.32 21.192 12 11.015446192 1.766 16.0906113596
3950 1 12.362 37.086 21.192 12 11.015446192 1.766 16.3447987661
3951 1 12.362 35.32 22.958 12 11.015446192 1.766 14.6555870914
3952 1 10.596 37.086 22.958 12 11.015446192 1.766 17.1256128796
3953 1 14.128 35.32 21.192 12 11.015446192 1.766 13.9602856416
3954 1 15.894 37.086 21.192 12 11.015446192 1.766 14.6836396024
3955 1 15.894 35.32 22.958 12 11.015446192 1.766 12.7766606851
3956 1 14.128 37.086 22.958 12 11.015446192 1.766 15.1416121259
3957 1 17.66 35.32 21.192 12 11.015446192 1.766 12.4801338182
3958 1 19.426 37.086 21.192 12 11.015446192 1.766 13.6116293258
3959 1 19.426 35.32 22.958 12 11.015446192 1.766 11.5768796769
3960 1 17.66 37.086 22.958 12 11.015446192 1.766 13.7515103699
3961 1 21.192 35.32 21.192 12 11.015446192 1.766 11.5750420057
3962 1 22.958 37.086 21.192 12 11.015446192 1.766 13.0790185621
3963 1 22.958 35.32 22.958 12 11.015446192 1.766 10.9671140057
3964 1 21.192 37.086 22.958 12 11.015446192 1.766 12.8991902559
3965 1 24.724 35.32 21.192 12 11.015446192 1.766 11.2975818543
3966 1 26.49 37.086 21.192 12 11.015446192 1.766 13.081539657
3967 1 26.49 35.32 22.958 12 11.015446192 1.766 10.9560469326
3968 1 24.724 37.086 22.958 12 11.015446192 1.766 12.5630855674
3969 1 28.256 35.32 21.192 12 11.015446192 1.766 11.8138917047
3970 1 30.022 37.086 21.192 12 11.015446192 1.766 13.9833610142
3971 1 30.022 35.32 22.958 12 11.015446192 1.766 11.9968288088
3972 1 28.256 37.086 22.958 12 11.015446192 1.766 13.029343822
3973 1 31.788 35.32 21.192 12 11.015446192 1.766 13.2737145546
3974 1 33.554 37.086 21.192 12 11.015446192 1.766 15.5800839503
3975 1 33.554 35.32 22.958 12 11.015446192 1.766 13.6391504462
3976 1 31.788 37.086 22.958 12 11.015446192 1.766 14.2768842288
3977 1 35.32 35.32 21.192 12 11.015446192 1.766 15.2091844291
3978 1 37.086 37.086 21.192 12 11.015446192 1.766 17.5658707268
3979 1 37.086 35.32 22.958 12 11.015446192 1.766 15.8632903316
3980 1 35.32 37.086 22.958 12 11.015446192 1.766 16.0321376082
3981 1 38.852 35.32 21.192 12 11.015446192 1.766 17.5901071698
3982 1 40.618 37.086 21.192 12 11.015446192 1.766 19.9781735311
3983 1 40.618 35.32 22.958 12 11.015446192 1.766 18.4989616842
3984 1 38.852 37.086 22.958 12 11.015446192 1.766 18.3063381248
3985 1 0.0 38.852 21.192 12 11.015446192 1.766 22.39013151
3986 1 1.766 40.618 21.192 12 11.015446192 1.766 24.8190165886
3987 1 1.766 38.852 22.958 12 11.015446192 1.766 23.3793226202
3988 1 0.0 40.618 22.958 12 11.015446192 1.766 23.2272072864
3989 1 3.532 38.852 21.192 12 11.015446192 1.766 23.5537021226
3990 1 5.298 40.618 21.192 12 11.015446192 1.766 23.463728017
3991 1 5.298 38.852 22.958 12 11.015446192 1.766 22.0387226206
3992 1 3.532 40.618 22.958 12 11.015446192 1.766 24.5281623905
3993 1 7.064 38.852 21.192 12 11.015446192 1.766 20.9966328002
3994 1 8.83 40.618 21.192 12 11.015446192 1.766 21.1920565714
3995 1 8.83 38.852 22.958 12 11.015446192 1.766 19.6026024806
3996 1 7.064 40.618 22.958 12 11.015446192 1.766 22.084212812
3997 1 10.596 38.852 21.192 12 11.015446192 1.766 18.7587404219
3998 1 12.362 40.618 21.192 12 11.015446192 1.766 19.303109568
3999 1 12.362 38.852 22.958 12 11.015446192 1.766 17.5433406534
4000 1 10.596 40.618 22.958 12 11.015446192 1.766 19.9685805402
4001 1 14.128 38.852 21.192 12 11.015446192 1.766 16.9667953215
4002 1 15.894 40.618 21.192 12 11.015446192 1.766 17.9183387696
4003 1 15.894 38.852 22.958 12 11.015446192 1.766 15.9985702131
4004 1 14.128 40.618 22.958 12 11.015446192 1.766 18.2955188519
4005 1 17.66 38.852 21.192 12 11.015446192 1.766 15.7557112381
4006 1 19.426 40.618 21.192 12 11.015446192 1.766 16.9706233091
4007 1 19.426 38.852 22.958 12 11.015446192 1.766 14.9075308953
4008 1 17.66 40.618 22.958 12 11.015446192 1.766 17.0432378027
4009 1 21.192 38.852 21.192 12 11.015446192 1.766 14.9924348796
4010 1 22.958 40.618 21.192 12 11.015446192 1.766 16.4823856576
4011 1 22.958 38.852 22.958 12 11.015446192 1.766 14.41738902
4012 1 21.192 40.618 22.958 12 11.015446192 1.766 16.33038084
4013 1 24.724 38.852 21.192 12 11.015446192 1.766 14.6683450458
4014 1 26.49 40.618 21.192 12 11.015446192 1.766 16.4659252526
4015 1 26.49 38.852 22.958 12 11.015446192 1.766 14.4069412096
4016 1 24.724 40.618 22.958 12 11.015446192 1.766 16.0571209625
4017 1 28.256 38.852 21.192 12 11.015446192 1.766 15.0696060944
4018 1 30.022 40.618 21.192 12 11.015446192 1.766 17.1911139803
4019 1 30.022 38.852 22.958 12 11.015446192 1.766 15.2259566114
4020 1 28.256 40.618 22.958 12 11.015446192 1.766 16.4244882739
4021 1 31.788 38.852 21.192 12 11.015446192 1.766 16.2465401236
4022 1 33.554 40.618 21.192 12 11.015446192 1.766 18.5375622954
4023 1 33.554 38.852 22.958 12 11.015446192 1.766 16.5798044751
4024 1 31.788 40.618 22.958 12 11.015446192 1.766 17.4607820156
4025 1 35.32 38.852 21.192 12 11.015446192 1.766 17.8936520178
4026 1 37.086 40.618 21.192 12 11.015446192 1.766 20.2459460122
4027 1 37.086 38.852 22.958 12 11.015446192 1.766 18.4528445417
4028 1 35.32 40.618 22.958 12 11.015446192 1.766 18.9306088604
4029 1 38.852 38.852 21.192 12 11.015446192 1.766 19.9568374695
4030 1 40.618 40.618 21.192 12 11.015446192 1.766 22.3710959315
4031 1 40.618 38.852 22.958 12 11.015446192 1.766 20.7623475294
4032 1 38.852 40.618 22.958 12 11.015446192 1.766 20.8916378265
4033 1 0.0 0.0 24.724 12 11.015446192 1.766 24.2932779101
4034 1 1.766 1.766 24.724 12 11.015446192 1.766 24.618342705
4035 1 1.766 0.0 26.49 12 11.015446192 1.766 25.454137439
4036 1 0.0 1.766 26.49 12 11.015446192 1.766 23.2460128552
4037 1 3.532 0.0 24.724 12 11.015446192 1.766 25.4368277685
4038 1 5.298 1.766 24.724 12 11.015446192 1.766 22.9394231589
4039 1 5.298 0.0 26.49 12 11.015446192 1.766 24.2832313396
4040 1 3.532 1.766 26.49 12 11.015446192 1.766 24.3019456416
4041 1 7.064 0.0 24.724 12 11.015446192 1.766 23.0552685776
4042 1 8.83 1.766 24.724 12 11.015446192 1.766 20.5719556951
4043 1 8.83 0.0 26.49 12 11.015446192 1.766 22.0604521838
4044 1 7.064 1.766 26.49 12 11.015446192 1.766 21.7967374675
4045 1 10.596 0.0 24.724 12 11.015446192 1.766 21.0002061762
4046 1 12.362 1.766 24.724 12 11.015446192 1.766 18.5780417531
4047 1 12.362 0.0 26.49 12 11.015446192 1.766 20.2139017711
4048 1 10.596 1.766 26.49 12 11.015446192 1.766 19.6102272931
4049 1 14.128 0.0 24.724 12 11.015446192 1.766 19.375808569
4050 1 15.894 1.766 24.724 12 11.015446192 1.766 17.0889425547
4051 1 15.894 0.0 26.49 12 11.015446192 1.766 18.8544463475
4052 1 14.128 1.766 26.49 12 11.015446192 1.766 17.85985198
4053 1 17.66 0.0 24.724 12 11.015446192 1.766 18.2971392289
4054 1 19.426 1.766 24.724 12 11.015446192 1.766 16.235527366
4055 1 19.426 0.0 26.49 12 11.015446192 1.766 17.9860008616
4056 1 17.66 1.766 26.49 12 11.015446192 1.766 16.6770670571
4057 1 21.192 0.0 24.724 12 11.015446192 1.766 17.7482394225
4058 1 22.958 1.766 24.724 12 11.015446192 1.766 15.8777127474
4059 1 22.958 0.0 26.49 12 11.015446192 1.766 17.5908518449
4060 1 21.192 1.766 26.49 12 11.015446192 1.766 15.9491517999
4061 1 24.724 0.0 24.724 12 11.015446192 1.766 17.6911544232
4062 1 26.49 1.766 24.724 12 11.015446192 1.766 16.0835401063
4063 1 26.49 0.0 26.49 12 11.015446192 1.766 17.7874759259
4064 1 24.724 1.766 26.49 12 11.015446192 1.766 15.8940963509
4065 1 28.256 0.0 24.724 12 11.015446192 1.766 18.0237368624
4066 1 30.022 1.766 24.724 12 11.015446192 1.766 16.7112190153
4067 1 30.022 0.0 26.49 12 11.015446192 1.766 18.3178272665
4068 1 28.256 1.766 26.49 12 11.015446192 1.766 16.232044021
4069 1 31.788 0.0 24.724 12 11.015446192 1.766 18.8649307941
4070 1 33.554 1.766 24.724 12 11.015446192 1.766 17.9871970612
4071 1 33.554 0.0 26.49 12 11.015446192 1.766 19.3961414465
4072 1 31.788 1.766 26.49 12 11.015446192 1.766 17.1836738284
4073 1 35.32 0.0 24.724 12 11.015446192 1.766 20.2244442474
4074 1 37.086 1.766 24.724 12 11.015446192 1.766 19.8182674131
4075 1 37.086 0.0 26.49 12 11.015446192 1.766 21.0197016692
4076 1 35.32 1.766 26.49 12 11.015446192 1.766 18.7624115556
4077 1 38.852 0.0 24.724 12 11.015446192 1.766 22.0708115928
4078 1 40.618 1.766 24.724 12 11.015446192 1.766 22.0666770584
4079 1 40.618 0.0 26.49 12 11.015446192 1.766 23.0736963123
4080 1 38.852 1.766 26.49 12 11.015446192 1.766 20.826127257
4081 1 0.0 3.532 24.724 12 11.015446192 1.766 22.1356976285
4082 1 1.766 5.298 24.724 12 11.015446192 1.766 22.0983433206
4083 1 1.766 3.532 26.49 12 11.015446192 1.766 23.2779620347
4084 1 0.0 5.298 26.49 12 11.015446192 1.766 20.781686554
4085 1 3.532 3.532 24.724 12 11.015446192 1.766 23.0946722111
4086 1 5.298 5.298 24.724 12 11.015446192 1.766 20.6161062394
4087 1 5.298 3.532 26.49 12 11.015446192 1.766 21.8175846946
4088 1 3.532 5.298 26.49 12 11.015446192 1.766 22.1221893939
4089 1 7.064 3.532 24.724 12 11.015446192 1.766 20.4420421386
4090 1 8.83 5.298 24.724 12 11.015446192 1.766 17.9446945566
4091 1 8.83 3.532 26.49 12 11.015446192 1.766 19.3130843773
4092 1 7.064 5.298 26.49 12 11.015446192 1.766 19.3366094711
4093 1 10.596 3.532 24.724 12 11.015446192 1.766 18.0925492138
4094 1 12.362 5.298 24.724 12 11.015446192 1.766 15.6189095967
4095 1 12.362 3.532 26.49 12 11.015446192 1.766 17.1736281089
4096 1 10.596 5.298 26.49 12 11.015446192 1.766 16.8335295199
4097 1 14.128 3.532 24.724 12 11.015446192 1.766 16.1788020358
4098 1 15.894 5.298 24.724 12 11.015446192 1.766 13.8144366244
4099 1 15.894 3.532 26.49 12 11.015446192 1.766 15.55062136
4100 1 14.128 5.298 26.49 12 11.015446192 1.766 14.7574054074
4101 1 17.66 3.532 24.724 12 11.015446192 1.766 14.8700027429
4102 1 19.426 5.298 24.724 12 11.015446192 1.766 12.7542574369
4103 1 19.426 3.532 26.49 12 11.015446192 1.766 14.5391758346
4104 1 17.66 5.298 26.49 12 11.015446192 1.766 13.3095540273
4105 1 21.192 3.532 24.724 12 11.015446192 1.766 14.2462512409
4106 1 22.958 5.298 24.724 12 11.015446192 1.766 12.3584620922
4107 1 22.958 3.532 26.49 12 11.015446192 1.766 14.0604543984
4108 1 21.192 5.298 26.49 12 11.015446192 1.766 12.454267397
4109 1 24.724 3.532 24.724 12 11.015446192 1.766 14.1793777228
4110 1 26.49 5.298 24.724 12 11.015446192 1.766 12.5729200374
4111 1 26.49 3.532 26.49 12 11.015446192 1.766 14.2662706438
4112 1 24.724 5.298 26.49 12 11.015446192 1.766 12.3726697202
4113 1 28.256 3.532 24.724 12 11.015446192 1.766 14.5904340274
4114 1 30.022 5.298 24.724 12 11.015446192 1.766 13.3685096414
4115 1 30.022 3.532 26.49 12 11.015446192 1.766 14.9287488491
4116 1 28.256 5.298 26.49 12 11.015446192 1.766 12.7644609035
4117 1 31.788 3.532 24.724 12 11.015446192 1.766 15.6489821418
4118 1 33.554 5.298 24.724 12 11.015446192 1.766 14.9328988202
4119 1 33.554 3.532 26.49 12 11.015446192 1.766 16.3444779464
4120 1 31.788 5.298 26.49 12 11.015446192 1.766 13.9545997899
4121 1 35.32 3.532 24.724 12 11.015446192 1.766 17.367788668
4122 1 37.086 5.298 24.724 12 11.015446192 1.766 17.0943245645
4123 1 37.086 3.532 26.49 12 11.015446192 1.766 18.3402951034
4124 1 35.32 5.298 26.49 12 11.015446192 1.766 15.8581302945
4125 1 38.852 3.532 24.724 12 11.015446192 1.766 19.5790595371
4126 1 40.618 5.298 24.724 12 11.015446192 1.766 19.6568167681
4127 1 40.618 3.532 26.49 12 11.015446192 1.766 20.7494804181
4128 1 38.852 5.298 26.49 12 11.015446192 1.766 18.2532130207
4129 1 0.0 7.064 24.724 12 11.015446192 1.766 19.6109476837
4130 1 1.766 8.83 24.724 12 11.015446192 1.766 19.8399630658
4131 1 1.766 7.064 26.49 12 11.015446192 1.766 20.8488812512
4132 1 0.0 8.83 26.49 12 11.015446192 1.766 18.3620764885
4133 1 3.532 7.064 24.724 12 11.015446192 1.766 21.0866215916
4134 1 5.298 8.83 24.724 12 11.015446192 1.766 18.6756682901
4135 1 5.298 7.064 26.49 12 11.015446192 1.766 19.6796526269
4136 1 3.532 8.83 26.49 12 11.015446192 1.766 20.3260427332
4137 1 7.064 7.064 24.724 12 11.015446192 1.766 18.1427344248
4138 1 8.83 8.83 24.724 12 11.015446192 1.766 15.6770154156
4139 1 8.83 7.064 26.49 12 11.015446192 1.766 16.8605146355
4140 1 7.064 8.83 26.49 12 11.015446192 1.766 17.2528610801
4141 1 10.596 7.064 24.724 12 11.015446192 1.766 15.4473966307
4142 1 12.362 8.83 24.724 12 11.015446192 1.766 12.9501770876
4143 1 12.362 7.064 26.49 12 11.015446192 1.766 14.3601959608
4144 1 10.596 8.83 26.49 12 11.015446192 1.766 14.3918194023
4145 1 14.128 7.064 24.724 12 11.015446192 1.766 13.15429059
4146 1 15.894 8.83 24.724 12 11.015446192 1.766 10.7049245144
4147 1 15.894 7.064 26.49 12 11.015446192 1.766 12.3735019413
4148 1 14.128 8.83 26.49 12 11.015446192 1.766 11.8969644855
4149 1 17.66 7.064 24.724 12 11.015446192 1.766 11.5064637132
4150 1 19.426 8.83 24.724 12 11.015446192 1.766 9.2969768806
4151 1 19.426 7.064 26.49 12 11.015446192 1.766 11.1276174065
4152 1 17.66 8.83 26.49 12 11.015446192 1.766 10.0449544661
4153 1 21.192 7.064 24.724 12 11.015446192 1.766 10.7448118063
4154 1 22.958 8.83 24.724 12 11.015446192 1.766 8.839215474
4155 1 22.958 7.064 26.49 12 11.015446192 1.766 10.5311317127
4156 1 21.192 8.83 26.49 12 11.015446192 1.766 8.9883702057
4157 1 24.724 7.064 24.724 12 11.015446192 1.766 10.6617289962
4158 1 26.49 8.83 24.724 12 11.015446192 1.766 9.0788370956
4159 1 26.49 7.064 26.49 12 11.015446192 1.766 10.7457157097
4160 1 24.724 8.83 26.49 12 11.015446192 1.766 8.8514270584
4161 1 28.256 7.064 24.724 12 11.015446192 1.766 11.1707443717
4162 1 30.022 8.83 24.724 12 11.015446192 1.766 10.1547677023
4163 1 30.022 7.064 26.49 12 11.015446192 1.766 11.6101152128
4164 1 28.256 8.83 26.49 12 11.015446192 1.766 9.3452511583
4165 1 31.788 7.064 24.724 12 11.015446192 1.766 12.5226944038
4166 1 33.554 8.83 24.724 12 11.015446192 1.766 12.1405817089
4167 1 33.554 7.064 26.49 12 11.015446192 1.766 13.3816737517
4168 1 31.788 8.83 26.49 12 11.015446192 1.766 10.9148116041
4169 1 35.32 7.064 24.724 12 11.015446192 1.766 14.6139425301
4170 1 37.086 8.83 24.724 12 11.015446192 1.766 14.7173858769
4171 1 37.086 7.064 26.49 12 11.015446192 1.766 15.7573366258
4172 1 35.32 8.83 26.49 12 11.015446192 1.766 13.262071991
4173 1 38.852 7.064 24.724 12 11.015446192 1.766 17.1833292878
4174 1 40.618 8.83 24.724 12 11.015446192 1.766 17.1264936456
4175 1 40.618 7.064 26.49 12 11.015446192 1.766 18.285745803
4176 1 38.852 8.83 26.49 12 11.015446192 1.766 15.7902985124
4177 1 0.0 10.596 24.724 12 11.015446192 1.766 17.388261845
4178 1 1.766 12.362 24.724 12 11.015446192 1.766 17.9961534609
4179 1 1.766 10.596 26.49 12 11.015446192 1.766 18.773338285
4180 1 0.0 12.362 26.49 12 11.015446192 1.766 16.3524694742
4181 1 3.532 10.596 24.724 12 11.015446192 1.766 19.5160801331
4182 1 5.298 12.362 24.724 12 11.015446192 1.766 17.2478225784
4183 1 5.298 10.596 26.49 12 11.015446192 1.766 17.9866756552
4184 1 3.532 12.362 26.49 12 11.015446192 1.766 19.0107031816
4185 1 7.064 10.596 24.724 12 11.015446192 1.766 16.290812933
4186 1 8.83 12.362 24.724 12 11.015446192 1.766 13.945451228
4187 1 8.83 10.596 26.49 12 11.015446192 1.766 14.8495362684
4188 1 7.064 12.362 26.49 12 11.015446192 1.766 15.695924476
4189 1 10.596 10.596 24.724 12 11.015446192 1.766 13.2232309319
4190 1 12.362 12.362 24.724 12 11.015446192 1.766 10.7895265982
4191 1 12.362 10.596 26.49 12 11.015446192 1.766 11.935116323
4192 1 10.596 12.362 26.49 12 11.015446192 1.766 12.483239296
4193 1 14.128 10.596 24.724 12 11.015446192 1.766 10.4530921041
4194 1 15.894 12.362 24.724 12 11.015446192 1.766 7.956268376
4195 1 15.894 10.596 26.49 12 11.015446192 1.766 9.4517365549
4196 1 14.128 12.362 26.49 12 11.015446192 1.766 9.499713763
4197 1 17.66 10.596 24.724 12 11.015446192 1.766 8.2843515615
4198 1 19.426 12.362 24.724 12 11.015446192 1.766 5.9279487793
4199 1 19.426 10.596 26.49 12 11.015446192 1.766 7.7977517644
4200 1 17.66 12.362 26.49 12 11.015446192 1.766 7.0432881411
4201 1 21.192 10.596 24.724 12 11.015446192 1.766 7.2450752465
4202 1 22.958 12.362 24.724 12 11.015446192 1.766 5.3199809043
4203 1 22.958 10.596 26.49 12 11.015446192 1.766 7.0045085775
4204 1 21.192 12.362 26.49 12 11.015446192 1.766 5.5846606708
4205 1 24.724 10.596 24.724 12 11.015446192 1.766 7.144312365
4206 1 26.49 12.362 24.724 12 11.015446192 1.766 5.6321538133
4207 1 26.49 10.596 26.49 12 11.015446192 1.766 7.2351701549
4208 1 24.724 12.362 26.49 12 11.015446192 1.766 5.3307329428
4209 1 28.256 10.596 24.724 12 11.015446192 1.766 7.8510638358
4210 1 30.022 12.362 24.724 12 11.015446192 1.766 7.2437291601
4211 1 30.022 10.596 26.49 12 11.015446192 1.766 8.4659350524
4212 1 28.256 12.362 26.49 12 11.015446192 1.766 6.0568988987
4213 1 31.788 10.596 24.724 12 11.015446192 1.766 9.6796258289
4214 1 33.554 12.362 24.724 12 11.015446192 1.766 9.7909364962
4215 1 33.554 10.596 26.49 12 11.015446192 1.766 10.76784442
4216 1 31.788 12.362 26.49 12 11.015446192 1.766 8.2755916653
4217 1 35.32 10.596 24.724 12 11.015446192 1.766 12.2539258924
4218 1 37.086 12.362 24.724 12 11.015446192 1.766 12.1736144047
4219 1 37.086 10.596 26.49 12 11.015446192 1.766 13.2956225372
4220 1 35.32 12.362 26.49 12 11.015446192 1.766 10.8022522741
4221 1 38.852 10.596 24.724 12 11.015446192 1.766 14.6464782161
4222 1 40.618 12.362 24.724 12 11.015446192 1.766 14.9517286469
4223 1 40.618 10.596 26.49 12 11.015446192 1.766 15.8786296798
4224 1 38.852 12.362 26.49 12 11.015446192 1.766 13.4004079061
4225 1 0.0 14.128 24.724 12 11.015446192 1.766 15.654522635
4226 1 1.766 15.894 24.724 12 11.015446192 1.766 16.704759571
4227 1 1.766 14.128 26.49 12 11.015446192 1.766 17.1799493393
4228 1 0.0 15.894 26.49 12 11.015446192 1.766 14.9194742147
4229 1 3.532 14.128 24.724 12 11.015446192 1.766 18.48526847
4230 1 5.298 15.894 24.724 12 11.015446192 1.766 16.3986903534
4231 1 5.298 14.128 26.49 12 11.015446192 1.766 16.8002351199
4232 1 3.532 15.894 26.49 12 11.015446192 1.766 18.0983730876
4233 1 7.064 14.128 24.724 12 11.015446192 1.766 15.0523220409
4234 1 8.83 15.894 24.724 12 11.015446192 1.766 12.9352960241
4235 1 8.83 14.128 26.49 12 11.015446192 1.766 13.4439837582
4236 1 7.064 15.894 26.49 12 11.015446192 1.766 14.6387338862
4237 1 10.596 14.128 24.724 12 11.015446192 1.766 11.6634325088
4238 1 12.362 15.894 24.724 12 11.015446192 1.766 9.4855524495
4239 1 12.362 14.128 26.49 12 11.015446192 1.766 10.1726340058
4240 1 10.596 15.894 26.49 12 11.015446192 1.766 11.2242551195
4241 1 14.128 14.128 24.724 12 11.015446192 1.766 8.3933876443
4242 1 15.894 15.894 24.724 12 11.015446192 1.766 6.0793957004
4243 1 15.894 14.128 26.49 12 11.015446192 1.766 7.1075414536
4244 1 14.128 15.894 26.49 12 11.015446192 1.766 7.8907081953
4245 1 17.66 14.128 24.724 12 11.015446192 1.766 5.4600643225
4246 1 19.426 15.894 24.724 12 11.015446192 1.766 2.9660448987
4247 1 19.426 14.128 26.49 12 11.015446192 1.766 4.7255501535
4248 1 17.66 15.894 26.49 12 11.015446192 1.766 4.7740583129
4249 1 21.192 14.128 24.724 12 11.015446192 1.766 3.7518099822
4250 1 22.958 15.894 24.724 12 11.015446192 1.766 1.8008290216
4251 1 22.958 14.128 26.49 12 11.015446192 1.766 3.4887811156
4252 1 21.192 15.894 26.49 12 11.015446192 1.766 2.4760652052
4253 1 24.724 14.128 24.724 12 11.015446192 1.766 3.6276562359
4254 1 26.49 15.894 24.724 12 11.015446192 1.766 2.4425271687
4255 1 26.49 14.128 26.49 12 11.015446192 1.766 3.7649722743
4256 1 24.724 15.894 26.49 12 11.015446192 1.766 1.8137845011
4257 1 28.256 14.128 24.724 12 11.015446192 1.766 4.8416717893
4258 1 30.022 15.894 24.724 12 11.015446192 1.766 4.8692266091
4259 1 30.022 14.128 26.49 12 11.015446192 1.766 5.787865355
4260 1 28.256 15.894 26.49 12 11.015446192 1.766 3.3148721431
4261 1 31.788 14.128 24.724 12 11.015446192 1.766 7.3288921494
4262 1 33.554 15.894 24.724 12 11.015446192 1.766 7.2785360311
4263 1 33.554 14.128 26.49 12 11.015446192 1.766 8.3113629287
4264 1 31.788 15.894 26.49 12 11.015446192 1.766 5.8261374231
4265 1 35.32 14.128 24.724 12 11.015446192 1.766 9.7133658026
4266 1 37.086 15.894 24.724 12 11.015446192 1.766 10.167809037
4267 1 37.086 14.128 26.49 12 11.015446192 1.766 10.9309655378
4268 1 35.32 15.894 26.49 12 11.015446192 1.766 8.4779777736
4269 1 38.852 14.128 24.724 12 11.015446192 1.766 12.5392086302
4270 1 40.618 15.894 24.724 12 11.015446192 1.766 13.3694293995
4271 1 40.618 14.128 26.49 12 11.015446192 1.766 13.9586284944
4272 1 38.852 15.894 26.49 12 11.015446192 1.766 11.6085479276
4273 1 0.0 17.66 24.724 12 11.015446192 1.766 14.5851484691
4274 1 1.766 19.426 24.724 12 11.015446192 1.766 16.0988673659
4275 1 1.766 17.66 26.49 12 11.015446192 1.766 16.21151246
4276 1 0.0 19.426 26.49 12 11.015446192 1.766 14.2382657575
4277 1 3.532 17.66 24.724 12 11.015446192 1.766 17.8604102334
4278 1 5.298 19.426 24.724 12 11.015446192 1.766 15.8706361805
4279 1 5.298 17.66 26.49 12 11.015446192 1.766 16.1067020143
4280 1 3.532 19.426 26.49 12 11.015446192 1.766 17.6918329379
4281 1 7.064 17.66 24.724 12 11.015446192 1.766 14.3720965615
4282 1 8.83 19.426 24.724 12 11.015446192 1.766 12.3698377386
4283 1 8.83 17.66 26.49 12 11.015446192 1.766 12.5981306419
4284 1 7.064 19.426 26.49 12 11.015446192 1.766 14.1848521285
4285 1 10.596 17.66 24.724 12 11.015446192 1.766 10.8974053194
4286 1 12.362 19.426 24.724 12 11.015446192 1.766 8.875925633
4287 1 12.362 17.66 26.49 12 11.015446192 1.766 9.1038117865
4288 1 10.596 19.426 26.49 12 11.015446192 1.766 10.6795357747
4289 1 14.128 17.66 24.724 12 11.015446192 1.766 7.4247780272
4290 1 15.894 19.426 24.724 12 11.015446192 1.766 5.402277599
4291 1 15.894 17.66 26.49 12 11.015446192 1.766 5.6564945343
4292 1 14.128 19.426 26.49 12 11.015446192 1.766 7.177763121
4293 1 17.66 17.66 24.724 12 11.015446192 1.766 3.9455955723
4294 1 19.426 19.426 24.724 12 11.015446192 1.766 2.000448549
4295 1 19.426 17.66 26.49 12 11.015446192 1.766 2.4442923423
4296 1 17.66 19.426 26.49 12 11.015446192 1.766 3.6772026856
4297 1 21.192 17.66 24.724 11 11.9334000413 2.4975011512 0.5070544383
4298 1 38.852 40.618 40.618 12 11.015446192 1.766 24.9698867899
4299 1 22.958 17.66 26.49 10 13.76930774 2.9285796899 0.2983818349
4300 1 21.192 19.426 26.49 10 13.76930774 2.9285796899 0.2950057433
4301 1 24.724 17.66 24.724 10 13.76930774 2.9285796899 0.1113808219
4302 1 26.49 19.426 24.724 9 17.5941154456 3.1700670165 0.0819032078
4303 1 26.49 17.66 26.49 11 11.9334000413 2.4975011512 0.8958324114
4304 1 40.618 38.852 40.618 12 11.015446192 1.766 24.8299469841
4305 1 28.256 17.66 24.724 12 11.015446192 1.766 2.4192065585
4306 1 30.022 19.426 24.724 12 11.015446192 1.766 2.629168089
4307 1 30.022 17.66 26.49 12 11.015446192 1.766 3.3591702568
4308 1 28.256 19.426 26.49 11 11.9334000413 2.4975011512 0.9612421825
4309 1 31.788 17.66 24.724 12 11.015446192 1.766 4.9070119501
4310 1 33.554 19.426 24.724 12 11.015446192 1.766 5.7156272068
4311 1 33.554 17.66 26.49 12 11.015446192 1.766 6.0614545012
4312 1 31.788 19.426 26.49 12 11.015446192 1.766 3.7525162506
4313 1 35.32 17.66 24.724 12 11.015446192 1.766 7.8747667999
4314 1 37.086 19.426 24.724 12 11.015446192 1.766 9.126241953
4315 1 37.086 17.66 26.49 12 11.015446192 1.766 9.3353352659
4316 1 35.32 19.426 26.49 12 11.015446192 1.766 7.2120460389
4317 1 38.852 17.66 24.724 12 11.015446192 1.766 11.1756087087
4318 1 40.618 19.426 24.724 12 11.015446192 1.766 12.6011905873
4319 1 40.618 17.66 26.49 12 11.015446192 1.766 12.7477757426
4320 1 38.852 19.426 26.49 12 11.015446192 1.766 10.7189498517
4321 1 0.0 21.192 24.724 12 11.015446192 1.766 14.2835594732
4322 1 1.766 22.958 24.724 12 11.015446192 1.766 16.112082201
4323 1 1.766 21.192 26.49 12 11.015446192 1.766 15.9729058105
4324 1 0.0 22.958 26.49 12 11.015446192 1.766 14.2541448526
4325 1 3.532 21.192 24.724 12 11.015446192 1.766 17.485570988
4326 1 5.298 22.958 24.724 12 11.015446192 1.766 15.7658760007
4327 1 5.298 21.192 26.49 12 11.015446192 1.766 15.8183023963
4328 1 3.532 22.958 26.49 12 11.015446192 1.766 17.6145104355
4329 1 7.064 21.192 24.724 12 11.015446192 1.766 13.9552166191
4330 1 8.83 22.958 24.724 12 11.015446192 1.766 12.2491121385
4331 1 8.83 21.192 26.49 12 11.015446192 1.766 12.3129968143
4332 1 7.064 22.958 26.49 12 11.015446192 1.766 14.1159524157
4333 1 10.596 21.192 24.724 12 11.015446192 1.766 10.4259770285
4334 1 12.362 22.958 24.724 12 11.015446192 1.766 8.7446382597
4335 1 12.362 21.192 26.49 12 11.015446192 1.766 8.8085516449
4336 1 10.596 22.958 26.49 12 11.015446192 1.766 10.6220244851
4337 1 14.128 21.192 24.724 12 11.015446192 1.766 6.8995631101
4338 1 15.894 22.958 24.724 12 11.015446192 1.766 5.2657157841
4339 1 15.894 21.192 26.49 12 11.015446192 1.766 5.3047763398
4340 1 14.128 22.958 26.49 12 11.015446192 1.766 7.1284533395
4341 1 17.66 21.192 24.724 12 11.015446192 1.766 3.3845170518
4342 1 19.426 22.958 24.724 12 11.015446192 1.766 1.7921048324
4343 1 19.426 21.192 26.49 12 11.015446192 1.766 1.8034788282
4344 1 17.66 22.958 26.49 12 11.015446192 1.766 3.6361138724
4345 1 21.192 21.192 24.724 9 16.2171846716 3.1700670165 0.0693008978
4346 1 40.618 40.618 38.852 12 11.015446192 1.766 25.002510442
4347 1 38.852 38.852 38.852 12 11.015446192 1.766 22.8677711421
4348 1 21.192 22.958 26.49 10 13.76930774 2.9285796899 0.1445376858
4349 1 35.32 40.618 40.618 12 11.015446192 1.766 23.3392958728
4350 1 26.49 22.958 24.724 9 17.5941154456 3.1700670165 0.0912848884
4351 1 37.086 38.852 40.618 12 11.015446192 1.766 22.9544270943
4352 1 37.086 40.618 38.852 12 11.015446192 1.766 23.1205087563
4353 1 28.256 21.192 24.724 11 11.9334000413 2.4975011512 0.6500854721
4354 1 30.022 22.958 24.724 12 11.015446192 1.766 2.6269307827
4355 1 30.022 21.192 26.49 12 11.015446192 1.766 1.8458897647
4356 1 28.256 22.958 26.49 11 11.9334000413 2.4975011512 0.9567380271
4357 1 31.788 21.192 24.724 12 11.015446192 1.766 3.7296737655
4358 1 33.554 22.958 24.724 12 11.015446192 1.766 5.721019734
4359 1 33.554 21.192 26.49 12 11.015446192 1.766 5.3776006186
4360 1 31.788 22.958 26.49 12 11.015446192 1.766 3.7667989827
4361 1 35.32 21.192 24.724 12 11.015446192 1.766 7.2350025127
4362 1 37.086 22.958 24.724 12 11.015446192 1.766 9.1347618993
4363 1 37.086 21.192 26.49 12 11.015446192 1.766 8.9093630549
4364 1 35.32 22.958 26.49 12 11.015446192 1.766 7.2274488498
4365 1 38.852 21.192 24.724 12 11.015446192 1.766 10.7577582242
4366 1 40.618 22.958 24.724 12 11.015446192 1.766 12.6121733645
4367 1 40.618 21.192 26.49 12 11.015446192 1.766 12.4411331444
4368 1 38.852 22.958 26.49 12 11.015446192 1.766 10.7346777864
4369 1 0.0 24.724 24.724 12 11.015446192 1.766 14.600088377
4370 1 1.766 26.49 24.724 12 11.015446192 1.766 16.7190074349
4371 1 1.766 24.724 26.49 12 11.015446192 1.766 16.2266990627
4372 1 0.0 26.49 26.49 12 11.015446192 1.766 14.9334696959
4373 1 3.532 24.724 24.724 12 11.015446192 1.766 17.744087614
4374 1 5.298 26.49 24.724 12 11.015446192 1.766 16.3252873475
4375 1 5.298 24.724 26.49 12 11.015446192 1.766 16.0722859369
4376 1 3.532 26.49 26.49 12 11.015446192 1.766 18.1139070255
4377 1 7.064 24.724 24.724 12 11.015446192 1.766 14.2694358837
4378 1 8.83 26.49 24.724 12 11.015446192 1.766 12.8539224145
4379 1 8.83 24.724 26.49 12 11.015446192 1.766 12.5895939427
4380 1 7.064 26.49 26.49 12 11.015446192 1.766 14.6480730528
4381 1 10.596 24.724 24.724 12 11.015446192 1.766 10.795489444
4382 1 12.362 26.49 24.724 12 11.015446192 1.766 9.4196655305
4383 1 12.362 24.724 26.49 12 11.015446192 1.766 9.1151464064
4384 1 10.596 26.49 26.49 12 11.015446192 1.766 11.2195617841
4385 1 14.128 24.724 24.724 12 11.015446192 1.766 7.3217580768
4386 1 15.894 26.49 24.724 12 11.015446192 1.766 6.0981082291
4387 1 15.894 24.724 26.49 12 11.015446192 1.766 5.6564475605
4388 1 14.128 26.49 26.49 12 11.015446192 1.766 7.8814003763
4389 1 17.66 24.724 24.724 12 11.015446192 1.766 3.8502140803
4390 1 19.426 26.49 24.724 12 11.015446192 1.766 3.2548113989
4391 1 19.426 24.724 26.49 12 11.015446192 1.766 2.3992931708
4392 1 17.66 26.49 26.49 12 11.015446192 1.766 4.8249103566
4393 1 21.192 24.724 24.724 11 11.9334000413 2.4975011512 0.8163075683
4394 1 22.958 26.49 24.724 12 11.015446192 1.766 2.0366094332
4395 1 22.958 24.724 26.49 10 13.76930774 2.9285796899 0.2463225847
4396 1 21.192 26.49 26.49 12 11.015446192 1.766 2.4672698301
4397 1 24.724 24.724 24.724 10 13.76930774 2.9285796899 0.20669053
4398 1 26.49 26.49 24.724 12 11.015446192 1.766 2.3912966604
4399 1 26.49 24.724 26.49 11 11.9334000413 2.4975011512 0.508053962
4400 1 24.724 26.49 26.49 12 11.015446192 1.766 1.8102594625
4401 1 28.256 24.724 24.724 12 11.015446192 1.766 2.3176441941
4402 1 30.022 26.49 24.724 12 11.015446192 1.766 4.6955578418
4403 1 30.022 24.724 26.49 12 11.015446192 1.766 3.3640156458
4404 1 28.256 26.49 26.49 12 11.015446192 1.766 2.9809411638
4405 1 31.788 24.724 24.724 12 11.015446192 1.766 4.9153106301
4406 1 33.554 26.49 24.724 12 11.015446192 1.766 7.2875418836
4407 1 33.554 24.724 26.49 12 11.015446192 1.766 6.0736166793
4408 1 31.788 26.49 26.49 12 11.015446192 1.766 5.8323791249
4409 1 35.32 24.724 24.724 12 11.015446192 1.766 7.8878356991
4410 1 37.086 26.49 24.724 12 11.015446192 1.766 10.1799083005
4411 1 37.086 24.724 26.49 12 11.015446192 1.766 9.3493895987
4412 1 35.32 26.49 26.49 12 11.015446192 1.766 8.4890452088
4413 1 38.852 24.724 24.724 12 11.015446192 1.766 11.1899616763
4414 1 40.618 26.49 24.724 12 11.015446192 1.766 13.3829311926
4415 1 40.618 24.724 26.49 12 11.015446192 1.766 12.7625781161
4416 1 38.852 26.49 26.49 12 11.015446192 1.766 11.6215824593
4417 1 0.0 28.256 24.724 12 11.015446192 1.766 15.6673378816
4418 1 1.766 30.022 24.724 12 11.015446192 1.766 18.0084182895
4419 1 1.766 28.256 26.49 12 11.015446192 1.766 17.193273631
4420 1 0.0 30.022 26.49 12 11.015446192 1.766 16.3641815206
4421 1 3.532 28.256 24.724 12 11.015446192 1.766 18.4100370364
4422 1 5.298 30.022 24.724 12 11.015446192 1.766 17.2416368266
4423 1 5.298 28.256 26.49 12 11.015446192 1.766 16.7852804101
4424 1 3.532 30.022 26.49 12 11.015446192 1.766 18.9944179384
4425 1 7.064 28.256 24.724 12 11.015446192 1.766 15.0003722937
4426 1 8.83 30.022 24.724 12 11.015446192 1.766 13.9939547565
4427 1 8.83 28.256 26.49 12 11.015446192 1.766 13.4335490566
4428 1 7.064 30.022 26.49 12 11.015446192 1.766 15.7131980822
4429 1 10.596 28.256 24.724 12 11.015446192 1.766 11.6637439194
4430 1 12.362 30.022 24.724 12 11.015446192 1.766 10.9241726
4431 1 12.362 28.256 26.49 12 11.015446192 1.766 10.2029517721
4432 1 10.596 30.022 26.49 12 11.015446192 1.766 12.5676863739
4433 1 14.128 28.256 24.724 12 11.015446192 1.766 8.4867380945
4434 1 15.894 30.022 24.724 12 11.015446192 1.766 8.2337337984
4435 1 15.894 28.256 26.49 12 11.015446192 1.766 7.2571063285
4436 1 14.128 30.022 26.49 12 11.015446192 1.766 9.6916738524
4437 1 17.66 28.256 24.724 12 11.015446192 1.766 5.7407815454
4438 1 19.426 30.022 24.724 12 11.015446192 1.766 6.3538921723
4439 1 19.426 28.256 26.49 12 11.015446192 1.766 4.9043503543
4440 1 17.66 30.022 26.49 12 11.015446192 1.766 7.3443452965
4441 1 21.192 28.256 24.724 12 11.015446192 1.766 4.0956411016
4442 1 22.958 30.022 24.724 12 11.015446192 1.766 5.4620744908
4443 1 22.958 28.256 26.49 12 11.015446192 1.766 3.6058584522
4444 1 21.192 30.022 26.49 12 11.015446192 1.766 5.6124302729
4445 1 24.724 28.256 24.724 12 11.015446192 1.766 3.5745039251
4446 1 26.49 30.022 24.724 12 11.015446192 1.766 5.5870057054
4447 1 26.49 28.256 26.49 12 11.015446192 1.766 3.7769545201
4448 1 24.724 30.022 26.49 12 11.015446192 1.766 5.3419159771
4449 1 28.256 28.256 24.724 12 11.015446192 1.766 4.6963506617
4450 1 30.022 30.022 24.724 12 11.015446192 1.766 7.0341799708
4451 1 30.022 28.256 26.49 12 11.015446192 1.766 5.4762145333
4452 1 28.256 30.022 26.49 12 11.015446192 1.766 5.9476366533
4453 1 31.788 28.256 24.724 12 11.015446192 1.766 7.0888573809
4454 1 33.554 30.022 24.724 12 11.015446192 1.766 9.4945876746
4455 1 33.554 28.256 26.49 12 11.015446192 1.766 8.3181557599
4456 1 31.788 30.022 26.49 12 11.015446192 1.766 7.9728831052
4457 1 35.32 28.256 24.724 12 11.015446192 1.766 9.7221832782
4458 1 37.086 30.022 24.724 12 11.015446192 1.766 12.1823007961
4459 1 37.086 28.256 26.49 12 11.015446192 1.766 10.9413884653
4460 1 35.32 30.022 26.49 12 11.015446192 1.766 10.803212312
4461 1 38.852 28.256 24.724 12 11.015446192 1.766 12.5506230123
4462 1 40.618 30.022 24.724 12 11.015446192 1.766 14.9626457215
4463 1 40.618 28.256 26.49 12 11.015446192 1.766 13.9709089128
4464 1 38.852 30.022 26.49 12 11.015446192 1.766 13.4104100809
4465 1 0.0 31.788 24.724 12 11.015446192 1.766 17.3988051307
4466 1 1.766 33.554 24.724 12 11.015446192 1.766 19.8502165471
4467 1 1.766 31.788 26.49 12 11.015446192 1.766 18.7846107713
4468 1 0.0 33.554 26.49 12 11.015446192 1.766 18.3715651081
4469 1 3.532 31.788 24.724 12 11.015446192 1.766 19.5451256319
4470 1 5.298 33.554 24.724 12 11.015446192 1.766 18.7838104959
4471 1 5.298 31.788 26.49 12 11.015446192 1.766 18.0392730185
4472 1 3.532 33.554 26.49 12 11.015446192 1.766 20.4056555529
4473 1 7.064 31.788 24.724 12 11.015446192 1.766 16.3735653184
4474 1 8.83 33.554 24.724 12 11.015446192 1.766 15.8552283495
4475 1 8.83 31.788 26.49 12 11.015446192 1.766 14.9656974546
4476 1 7.064 33.554 26.49 12 11.015446192 1.766 17.3917360782
4477 1 10.596 31.788 24.724 12 11.015446192 1.766 13.3837735525
4478 1 12.362 33.554 24.724 12 11.015446192 1.766 13.2247889693
4479 1 12.362 31.788 26.49 12 11.015446192 1.766 12.1440881737
4480 1 10.596 33.554 26.49 12 11.015446192 1.766 14.6117841854
4481 1 14.128 31.788 24.724 12 11.015446192 1.766 10.7288021592
4482 1 15.894 33.554 24.724 12 11.015446192 1.766 11.1063886367
4483 1 15.894 31.788 26.49 12 11.015446192 1.766 9.7850746917
4484 1 14.128 33.554 26.49 12 11.015446192 1.766 12.2264483129
4485 1 17.66 31.788 24.724 12 11.015446192 1.766 8.7115519174
4486 1 19.426 33.554 24.724 12 11.015446192 1.766 9.5992807158
4487 1 19.426 31.788 26.49 12 11.015446192 1.766 7.8937810315
4488 1 17.66 33.554 26.49 12 11.015446192 1.766 10.2761475455
4489 1 21.192 31.788 24.724 12 11.015446192 1.766 7.4226863639
4490 1 22.958 33.554 24.724 12 11.015446192 1.766 8.9493820169
4491 1 22.958 31.788 26.49 12 11.015446192 1.766 7.1320440866
4492 1 21.192 33.554 26.49 12 11.015446192 1.766 9.0472732584
4493 1 24.724 31.788 24.724 12 11.015446192 1.766 7.0994346915
4494 1 26.49 33.554 24.724 12 11.015446192 1.766 9.0232074664
4495 1 26.49 31.788 26.49 12 11.015446192 1.766 7.2764543122
4496 1 24.724 33.554 26.49 12 11.015446192 1.766 8.8736775242
4497 1 28.256 31.788 24.724 12 11.015446192 1.766 7.7907428799
4498 1 30.022 33.554 24.724 12 11.015446192 1.766 10.0458004857
4499 1 30.022 31.788 26.49 12 11.015446192 1.766 8.3037534376
4500 1 28.256 33.554 26.49 12 11.015446192 1.766 9.3173387454
4501 1 31.788 31.788 24.724 12 11.015446192 1.766 9.4496105346
4502 1 33.554 33.554 24.724 12 11.015446192 1.766 11.8989753613
4503 1 33.554 31.788 26.49 12 11.015446192 1.766 10.4699488252
4504 1 31.788 33.554 26.49 12 11.015446192 1.766 10.7240516852
4505 1 35.32 31.788 24.724 12 11.015446192 1.766 11.9347254055
4506 1 37.086 33.554 24.724 12 11.015446192 1.766 14.3945534803
4507 1 37.086 31.788 26.49 12 11.015446192 1.766 13.2377257734
4508 1 35.32 33.554 26.49 12 11.015446192 1.766 12.9671822612
4509 1 38.852 31.788 24.724 12 11.015446192 1.766 14.6550701696
4510 1 40.618 33.554 24.724 12 11.015446192 1.766 17.1350148721
4511 1 40.618 31.788 26.49 12 11.015446192 1.766 15.8883365879
4512 1 38.852 33.554 26.49 12 11.015446192 1.766 15.6920487842
4513 1 0.0 35.32 24.724 12 11.015446192 1.766 19.6194141518
4514 1 1.766 37.086 24.724 12 11.015446192 1.766 22.1067662187
4515 1 1.766 35.32 26.49 12 11.015446192 1.766 20.858202068
4516 1 0.0 37.086 26.49 12 11.015446192 1.766 20.6318077209
4517 1 3.532 35.32 24.724 12 11.015446192 1.766 21.2142512537
4518 1 5.298 37.086 24.724 12 11.015446192 1.766 20.8167980495
4519 1 5.298 35.32 26.49 12 11.015446192 1.766 19.8355209491
4520 1 3.532 37.086 26.49 12 11.015446192 1.766 22.2912162708
4521 1 7.064 35.32 24.724 12 11.015446192 1.766 18.3337437946
4522 1 8.83 37.086 24.724 12 11.015446192 1.766 18.2180078577
4523 1 8.83 35.32 26.49 12 11.015446192 1.766 17.0881426899
4524 1 7.064 37.086 26.49 12 11.015446192 1.766 19.5698755259
4525 1 10.596 35.32 24.724 12 11.015446192 1.766 15.7212567816
4526 1 12.362 37.086 24.724 12 11.015446192 1.766 15.9813199571
4527 1 12.362 35.32 26.49 12 11.015446192 1.766 14.6803064634
4528 1 10.596 37.086 26.49 12 11.015446192 1.766 17.1467717477
4529 1 14.128 35.32 24.724 12 11.015446192 1.766 13.5329123274
4530 1 15.894 37.086 24.724 12 11.015446192 1.766 14.2358045698
4531 1 15.894 35.32 26.49 12 11.015446192 1.766 12.6954944986
4532 1 14.128 37.086 26.49 12 11.015446192 1.766 15.12224997
4533 1 17.66 35.32 24.724 12 11.015446192 1.766 11.8928699638
4534 1 19.426 37.086 24.724 12 11.015446192 1.766 12.9402479925
4535 1 19.426 35.32 26.49 12 11.015446192 1.766 11.1866251755
4536 1 17.66 37.086 26.49 12 11.015446192 1.766 13.4500199339
4537 1 21.192 35.32 24.724 12 11.015446192 1.766 10.8593313193
4538 1 22.958 37.086 24.724 12 11.015446192 1.766 12.4616337662
4539 1 22.958 35.32 26.49 12 11.015446192 1.766 10.6620482467
4540 1 21.192 37.086 26.49 12 11.015446192 1.766 12.5362267552
4541 1 24.724 35.32 24.724 12 11.015446192 1.766 10.6290599569
4542 1 26.49 37.086 24.724 12 11.015446192 1.766 12.5087265383
4543 1 26.49 35.32 26.49 12 11.015446192 1.766 10.7759543818
4544 1 24.724 37.086 26.49 12 11.015446192 1.766 12.4054558153
4545 1 28.256 35.32 24.724 12 11.015446192 1.766 11.1374245889
4546 1 30.022 37.086 24.724 12 11.015446192 1.766 13.3156206119
4547 1 30.022 35.32 26.49 12 11.015446192 1.766 11.5267412867
4548 1 28.256 37.086 26.49 12 11.015446192 1.766 12.775025199
4549 1 31.788 35.32 24.724 12 11.015446192 1.766 12.3777454648
4550 1 33.554 37.086 24.724 12 11.015446192 1.766 14.7639453462
4551 1 33.554 35.32 26.49 12 11.015446192 1.766 13.1732027973
4552 1 31.788 37.086 26.49 12 11.015446192 1.766 13.8345130772
4553 1 35.32 35.32 24.724 12 11.015446192 1.766 14.3649265241
4554 1 37.086 37.086 24.724 12 11.015446192 1.766 16.8401792578
4555 1 37.086 35.32 26.49 12 11.015446192 1.766 15.4645021643
4556 1 35.32 37.086 26.49 12 11.015446192 1.766 15.6376559411
4557 1 38.852 35.32 24.724 12 11.015446192 1.766 16.8654585853
4558 1 40.618 37.086 24.724 12 11.015446192 1.766 19.3431962376
4559 1 40.618 35.32 26.49 12 11.015446192 1.766 18.1581505236
4560 1 38.852 37.086 26.49 12 11.015446192 1.766 17.9618724687
4561 1 0.0 38.852 24.724 12 11.015446192 1.766 21.8254395621
4562 1 1.766 40.618 24.724 12 11.015446192 1.766 24.3108084496
4563 1 1.766 38.852 26.49 12 11.015446192 1.766 23.1105943936
4564 1 0.0 40.618 26.49 12 11.015446192 1.766 22.9566984858
4565 1 3.532 38.852 24.724 12 11.015446192 1.766 23.3029402553
4566 1 5.298 40.618 24.724 12 11.015446192 1.766 23.2119941694
4567 1 5.298 38.852 26.49 12 11.015446192 1.766 22.0551685464
4568 1 3.532 40.618 26.49 12 11.015446192 1.766 24.5429402297
4569 1 7.064 38.852 24.724 12 11.015446192 1.766 20.7149397733
4570 1 8.83 40.618 24.724 12 11.015446192 1.766 20.9129960214
4571 1 8.83 38.852 26.49 12 11.015446192 1.766 19.62109041
4572 1 7.064 40.618 26.49 12 11.015446192 1.766 22.1006248868
4573 1 10.596 38.852 24.724 12 11.015446192 1.766 18.4428979035
4574 1 12.362 40.618 24.724 12 11.015446192 1.766 18.9962694669
4575 1 12.362 38.852 26.49 12 11.015446192 1.766 17.5530860876
4576 1 10.596 40.618 26.49 12 11.015446192 1.766 19.9865139955
4577 1 14.128 38.852 24.724 12 11.015446192 1.766 16.6071499956
4578 1 15.894 40.618 24.724 12 11.015446192 1.766 17.4334440922
4579 1 15.894 38.852 26.49 12 11.015446192 1.766 15.7841855548
4580 1 14.128 40.618 26.49 12 11.015446192 1.766 18.1618560459
4581 1 17.66 38.852 24.724 12 11.015446192 1.766 15.1476065275
4582 1 19.426 40.618 24.724 12 11.015446192 1.766 16.3616592664
4583 1 19.426 38.852 26.49 12 11.015446192 1.766 14.5917591353
4584 1 17.66 40.618 26.49 12 11.015446192 1.766 16.7677342556
4585 1 21.192 38.852 24.724 12 11.015446192 1.766 14.342382248
4586 1 22.958 40.618 24.724 12 11.015446192 1.766 15.9823931456
4587 1 22.958 38.852 26.49 12 11.015446192 1.766 14.1930220554
4588 1 21.192 40.618 26.49 12 11.015446192 1.766 16.0440287055
4589 1 24.724 38.852 24.724 12 11.015446192 1.766 14.1598695684
4590 1 26.49 40.618 24.724 12 11.015446192 1.766 16.0146262597
4591 1 26.49 38.852 26.49 12 11.015446192 1.766 14.2767295748
4592 1 24.724 40.618 26.49 12 11.015446192 1.766 15.9372397186
4593 1 28.256 38.852 24.724 12 11.015446192 1.766 14.5634942611
4594 1 30.022 40.618 24.724 12 11.015446192 1.766 16.6883948584
4595 1 30.022 38.852 26.49 12 11.015446192 1.766 14.8905760878
4596 1 28.256 40.618 26.49 12 11.015446192 1.766 16.2638266997
4597 1 31.788 38.852 24.724 12 11.015446192 1.766 15.5586655703
4598 1 33.554 40.618 24.724 12 11.015446192 1.766 17.8693200129
4599 1 33.554 38.852 26.49 12 11.015446192 1.766 16.1986654844
4600 1 31.788 40.618 26.49 12 11.015446192 1.766 17.109420435
4601 1 35.32 38.852 24.724 12 11.015446192 1.766 17.1818103115
4602 1 37.086 40.618 24.724 12 11.015446192 1.766 19.6196369226
4603 1 37.086 38.852 26.49 12 11.015446192 1.766 18.1111655817
4604 1 35.32 40.618 26.49 12 11.015446192 1.766 18.597709506
4605 1 38.852 38.852 24.724 12 11.015446192 1.766 19.3211589929
4606 1 40.618 40.618 24.724 12 11.015446192 1.766 21.8059110386
4607 1 40.618 38.852 26.49 12 11.015446192 1.766 20.4592747177
4608 1 38.852 40.618 26.49 12 11.015446192 1.766 20.5904681375
4609 1 0.0 0.0 28.256 12 11.015446192 1.766 24.2929047802
4610 1 1.766 1.766 28.256 12 11.015446192 1.766 24.6229773774
4611 1 1.766 0.0 30.022 12 11.015446192 1.766 25.6976654155
4612 1 0.0 1.766 30.022 12 11.015446192 1.766 23.5176604928
4613 1 3.532 0.0 28.256 12 11.015446192 1.766 25.6959191974
4614 1 5.298 1.766 28.256 12 11.015446192 1.766 23.2263899764
4615 1 5.298 0.0 30.022 12 11.015446192 1.766 24.8072248502
4616 1 3.532 1.766 30.022 12 11.015446192 1.766 24.825544152
4617 1 7.064 0.0 28.256 12 11.015446192 1.766 23.3408111611
4618 1 8.83 1.766 28.256 12 11.015446192 1.766 20.8914675788
4619 1 8.83 0.0 30.022 12 11.015446192 1.766 22.6359588051
4620 1 7.064 1.766 30.022 12 11.015446192 1.766 22.3790268936
4621 1 10.596 0.0 28.256 12 11.015446192 1.766 21.3132990388
4622 1 12.362 1.766 28.256 12 11.015446192 1.766 18.9312358776
4623 1 12.362 0.0 30.022 12 11.015446192 1.766 20.8404631735
4624 1 10.596 1.766 30.022 12 11.015446192 1.766 20.2554707416
4625 1 14.128 0.0 28.256 12 11.015446192 1.766 19.7147156758
4626 1 15.894 1.766 28.256 12 11.015446192 1.766 17.467775911
4627 1 15.894 0.0 30.022 12 11.015446192 1.766 19.4294729404
4628 1 14.128 1.766 30.022 12 11.015446192 1.766 18.5630880458
4629 1 17.66 0.0 28.256 12 11.015446192 1.766 18.5594630994
4630 1 19.426 1.766 28.256 12 11.015446192 1.766 16.404987963
4631 1 19.426 0.0 30.022 12 11.015446192 1.766 18.4101722558
4632 1 17.66 1.766 30.022 12 11.015446192 1.766 17.2147274447
4633 1 21.192 0.0 28.256 12 11.015446192 1.766 17.831117283
4634 1 22.958 1.766 28.256 12 11.015446192 1.766 15.9697265573
4635 1 22.958 0.0 30.022 12 11.015446192 1.766 18.0150194116
4636 1 21.192 1.766 30.022 12 11.015446192 1.766 16.4249917273
4637 1 24.724 0.0 28.256 12 11.015446192 1.766 17.7409559287
4638 1 26.49 1.766 28.256 12 11.015446192 1.766 16.1297454792
4639 1 26.49 0.0 30.022 12 11.015446192 1.766 18.0144866824
4640 1 24.724 1.766 30.022 12 11.015446192 1.766 16.2963891551
4641 1 28.256 0.0 28.256 12 11.015446192 1.766 18.0649462016
4642 1 30.022 1.766 28.256 12 11.015446192 1.766 16.7180458895
4643 1 30.022 0.0 30.022 12 11.015446192 1.766 18.6526487957
4644 1 28.256 1.766 30.022 12 11.015446192 1.766 16.6187392569
4645 1 31.788 0.0 28.256 12 11.015446192 1.766 18.8644502945
4646 1 33.554 1.766 28.256 12 11.015446192 1.766 17.993539827
4647 1 33.554 0.0 30.022 12 11.015446192 1.766 19.7146442539
4648 1 31.788 1.766 30.022 12 11.015446192 1.766 17.5494127432
4649 1 35.32 0.0 28.256 12 11.015446192 1.766 20.2239960483
4650 1 37.086 1.766 28.256 12 11.015446192 1.766 19.8240243303
4651 1 37.086 0.0 30.022 12 11.015446192 1.766 21.3139567727
4652 1 35.32 1.766 30.022 12 11.015446192 1.766 19.0979404327
4653 1 38.852 0.0 28.256 12 11.015446192 1.766 22.0704008892
4654 1 40.618 1.766 28.256 12 11.015446192 1.766 22.0718475391
4655 1 40.618 0.0 30.022 12 11.015446192 1.766 23.3420726706
4656 1 38.852 1.766 30.022 12 11.015446192 1.766 21.1289095297
4657 1 0.0 3.532 28.256 12 11.015446192 1.766 22.140851991
4658 1 1.766 5.298 28.256 12 11.015446192 1.766 22.0953069317
4659 1 1.766 3.532 30.022 12 11.015446192 1.766 23.5415452208
4660 1 0.0 5.298 30.022 12 11.015446192 1.766 21.0765113556
4661 1 3.532 3.532 28.256 12 11.015446192 1.766 23.3797335531
4662 1 5.298 5.298 28.256 12 11.015446192 1.766 20.9349443025
4663 1 5.298 3.532 30.022 12 11.015446192 1.766 22.399332186
4664 1 3.532 5.298 30.022 12 11.015446192 1.766 22.6961305965
4665 1 7.064 3.532 28.256 12 11.015446192 1.766 20.7635532429
4666 1 8.83 5.298 28.256 12 11.015446192 1.766 18.3101097541
4667 1 8.83 3.532 30.022 12 11.015446192 1.766 19.9679320071
4668 1 7.064 5.298 30.022 12 11.015446192 1.766 19.9906864893
4669 1 10.596 3.532 28.256 12 11.015446192 1.766 18.4550370775
4670 1 12.362 5.298 28.256 12 11.015446192 1.766 16.0374060703
4671 1 12.362 3.532 30.022 12 11.015446192 1.766 17.9068864657
4672 1 10.596 5.298 30.022 12 11.015446192 1.766 17.5809782598
4673 1 14.128 3.532 28.256 12 11.015446192 1.766 16.5831749611
4674 1 15.894 5.298 28.256 12 11.015446192 1.766 14.2858921921
4675 1 15.894 3.532 30.022 12 11.015446192 1.766 16.2987972448
4676 1 14.128 5.298 30.022 12 11.015446192 1.766 15.6046177407
4677 1 17.66 3.532 28.256 12 11.015446192 1.766 15.2409319385
4678 1 19.426 5.298 28.256 12 11.015446192 1.766 13.0329184501
4679 1 19.426 3.532 30.022 12 11.015446192 1.766 15.0729145075
4680 1 17.66 5.298 30.022 12 11.015446192 1.766 14.0385246467
4681 1 21.192 3.532 28.256 12 11.015446192 1.766 14.3599113096
4682 1 22.958 5.298 28.256 12 11.015446192 1.766 12.4806049362
4683 1 22.958 3.532 30.022 12 11.015446192 1.766 14.5804911501
4684 1 21.192 5.298 30.022 12 11.015446192 1.766 13.05808893
4685 1 24.724 3.532 28.256 12 11.015446192 1.766 14.2817082212
4686 1 26.49 5.298 28.256 12 11.015446192 1.766 12.6341164424
4687 1 26.49 3.532 30.022 12 11.015446192 1.766 14.6654107217
4688 1 24.724 5.298 30.022 12 11.015446192 1.766 12.8204989713
4689 1 28.256 3.532 28.256 12 11.015446192 1.766 14.6054601544
4690 1 30.022 5.298 28.256 12 11.015446192 1.766 13.3770425514
4691 1 30.022 3.532 30.022 12 11.015446192 1.766 15.3483153339
4692 1 28.256 5.298 30.022 12 11.015446192 1.766 13.2483142046
4693 1 31.788 3.532 28.256 12 11.015446192 1.766 15.6562722084
4694 1 33.554 5.298 28.256 12 11.015446192 1.766 14.9405382956
4695 1 33.554 3.532 30.022 12 11.015446192 1.766 16.7285743783
4696 1 31.788 5.298 30.022 12 11.015446192 1.766 14.4025725718
4697 1 35.32 3.532 28.256 12 11.015446192 1.766 17.3743575595
4698 1 37.086 5.298 28.256 12 11.015446192 1.766 17.1009985002
4699 1 37.086 3.532 30.022 12 11.015446192 1.766 18.6834061635
4700 1 35.32 5.298 30.022 12 11.015446192 1.766 16.2537238142
4701 1 38.852 3.532 28.256 12 11.015446192 1.766 19.5848867688
4702 1 40.618 5.298 28.256 12 11.015446192 1.766 19.6626209556
4703 1 40.618 3.532 30.022 12 11.015446192 1.766 21.0533650282
4704 1 38.852 5.298 30.022 12 11.015446192 1.766 18.5979307174
4705 1 0.0 7.064 28.256 12 11.015446192 1.766 19.6075261047
4706 1 1.766 8.83 28.256 12 11.015446192 1.766 19.8365809892
4707 1 1.766 7.064 30.022 12 11.015446192 1.766 21.1427690788
4708 1 0.0 8.83 30.022 12 11.015446192 1.766 18.6950979633
4709 1 3.532 7.064 28.256 12 11.015446192 1.766 21.3984500986
4710 1 5.298 8.83 28.256 12 11.015446192 1.766 19.0270502853
4711 1 5.298 7.064 30.022 12 11.015446192 1.766 20.3226919474
4712 1 3.532 8.83 30.022 12 11.015446192 1.766 20.9332789717
4713 1 7.064 7.064 28.256 12 11.015446192 1.766 18.5042392138
4714 1 8.83 8.83 28.256 12 11.015446192 1.766 16.0940010196
4715 1 8.83 7.064 30.022 12 11.015446192 1.766 17.6068178343
4716 1 7.064 8.83 30.022 12 11.015446192 1.766 17.9814710402
4717 1 10.596 7.064 28.256 12 11.015446192 1.766 15.8704164766
4718 1 12.362 8.83 28.256 12 11.015446192 1.766 13.4519568493
4719 1 12.362 7.064 30.022 12 11.015446192 1.766 15.2295209547
4720 1 10.596 8.83 30.022 12 11.015446192 1.766 15.2593429146
4721 1 14.128 7.064 28.256 12 11.015446192 1.766 13.6485683279
4722 1 15.894 8.83 28.256 12 11.015446192 1.766 11.3067884625
4723 1 15.894 7.064 30.022 12 11.015446192 1.766 13.3404979121
4724 1 14.128 8.83 30.022 12 11.015446192 1.766 12.93293642
4725 1 17.66 7.064 28.256 12 11.015446192 1.766 12.0276003595
4726 1 19.426 8.83 28.256 12 11.015446192 1.766 9.7739369229
4727 1 19.426 7.064 30.022 12 11.015446192 1.766 11.8490973922
4728 1 17.66 8.83 30.022 12 11.015446192 1.766 11.0785964752
4729 1 21.192 7.064 28.256 12 11.015446192 1.766 10.9277358167
4730 1 22.958 8.83 28.256 12 11.015446192 1.766 9.0230598571
4731 1 22.958 7.064 30.022 12 11.015446192 1.766 11.1708547329
4732 1 21.192 8.83 30.022 12 11.015446192 1.766 9.8021763112
4733 1 24.724 7.064 28.256 12 11.015446192 1.766 10.7940213258
4734 1 26.49 8.83 28.256 12 11.015446192 1.766 9.1656375012
4735 1 26.49 7.064 30.022 12 11.015446192 1.766 11.2295775973
4736 1 24.724 8.83 30.022 12 11.015446192 1.766 9.3637631234
4737 1 28.256 7.064 28.256 12 11.015446192 1.766 11.1913671809
4738 1 30.022 8.83 28.256 12 11.015446192 1.766 10.1659984496
4739 1 30.022 7.064 30.022 12 11.015446192 1.766 12.1448761477
4740 1 28.256 8.83 30.022 12 11.015446192 1.766 9.9774593333
4741 1 31.788 7.064 28.256 12 11.015446192 1.766 12.5318032429
4742 1 33.554 8.83 28.256 12 11.015446192 1.766 12.1499770213
4743 1 33.554 7.064 30.022 12 11.015446192 1.766 13.8481924375
4744 1 31.788 8.83 30.022 12 11.015446192 1.766 11.4820012952
4745 1 35.32 7.064 28.256 12 11.015446192 1.766 14.6217486527
4746 1 37.086 8.83 28.256 12 11.015446192 1.766 14.7257056456
4747 1 37.086 7.064 30.022 12 11.015446192 1.766 16.1553984453
4748 1 35.32 8.83 30.022 12 11.015446192 1.766 13.7326543277
4749 1 38.852 7.064 28.256 12 11.015446192 1.766 17.1899686679
4750 1 40.618 8.83 28.256 12 11.015446192 1.766 17.122575609
4751 1 40.618 7.064 30.022 12 11.015446192 1.766 18.6201325039
4752 1 38.852 8.83 30.022 12 11.015446192 1.766 16.1763519374
4753 1 0.0 10.596 28.256 12 11.015446192 1.766 17.3844028049
4754 1 1.766 12.362 28.256 12 11.015446192 1.766 17.9924248027
4755 1 1.766 10.596 30.022 12 11.015446192 1.766 19.0991901728
4756 1 0.0 12.362 30.022 12 11.015446192 1.766 16.7255520924
4757 1 3.532 10.596 28.256 12 11.015446192 1.766 19.8386619548
4758 1 5.298 12.362 28.256 12 11.015446192 1.766 17.5511464728
4759 1 5.298 10.596 30.022 12 11.015446192 1.766 18.6091797934
4760 1 3.532 12.362 30.022 12 11.015446192 1.766 19.4694170847
4761 1 7.064 10.596 28.256 12 11.015446192 1.766 16.6917847799
4762 1 8.83 12.362 28.256 12 11.015446192 1.766 14.3744044399
4763 1 8.83 10.596 30.022 12 11.015446192 1.766 15.6515269018
4764 1 7.064 12.362 30.022 12 11.015446192 1.766 16.3033623216
4765 1 10.596 10.596 28.256 12 11.015446192 1.766 13.7150243439
4766 1 12.362 12.362 28.256 12 11.015446192 1.766 11.3777523092
4767 1 12.362 10.596 30.022 12 11.015446192 1.766 12.9571601924
4768 1 10.596 12.362 30.022 12 11.015446192 1.766 13.3225782926
4769 1 14.128 10.596 28.256 12 11.015446192 1.766 11.0686580492
4770 1 15.894 12.362 28.256 12 11.015446192 1.766 8.7493007118
4771 1 15.894 10.596 30.022 12 11.015446192 1.766 10.7159603254
4772 1 14.128 12.362 30.022 12 11.015446192 1.766 10.6736653925
4773 1 17.66 10.596 28.256 12 11.015446192 1.766 9.0324505369
4774 1 19.426 12.362 28.256 12 11.015446192 1.766 6.772621921
4775 1 19.426 10.596 30.022 12 11.015446192 1.766 8.8633805216
4776 1 17.66 12.362 30.022 12 11.015446192 1.766 8.5344050909
4777 1 21.192 10.596 28.256 12 11.015446192 1.766 7.5877411225
4778 1 22.958 12.362 28.256 12 11.015446192 1.766 5.620526923
4779 1 22.958 10.596 30.022 12 11.015446192 1.766 7.8355962216
4780 1 21.192 12.362 30.022 12 11.015446192 1.766 6.7893749363
4781 1 24.724 10.596 28.256 12 11.015446192 1.766 7.3065771947
4782 1 26.49 12.362 28.256 12 11.015446192 1.766 5.7575459572
4783 1 26.49 10.596 30.022 12 11.015446192 1.766 7.8662052018
4784 1 24.724 12.362 30.022 12 11.015446192 1.766 5.9925163113
4785 1 28.256 10.596 28.256 12 11.015446192 1.766 7.8818767077
4786 1 30.022 12.362 28.256 12 11.015446192 1.766 7.2594648242
4787 1 30.022 10.596 30.022 12 11.015446192 1.766 9.1856027402
4788 1 28.256 12.362 30.022 12 11.015446192 1.766 6.9482290013
4789 1 31.788 10.596 28.256 12 11.015446192 1.766 9.6914072031
4790 1 33.554 12.362 28.256 12 11.015446192 1.766 9.847550288
4791 1 33.554 10.596 30.022 12 11.015446192 1.766 11.342385765
4792 1 31.788 12.362 30.022 12 11.015446192 1.766 8.999628504
4793 1 35.32 10.596 28.256 12 11.015446192 1.766 12.2748855277
4794 1 37.086 12.362 28.256 12 11.015446192 1.766 12.1681016829
4795 1 37.086 10.596 30.022 12 11.015446192 1.766 13.7518876356
4796 1 35.32 12.362 30.022 12 11.015446192 1.766 11.3591148019
4797 1 38.852 10.596 28.256 12 11.015446192 1.766 14.6418965652
4798 1 40.618 12.362 28.256 12 11.015446192 1.766 14.9472405621
4799 1 40.618 10.596 30.022 12 11.015446192 1.766 16.2625863687
4800 1 38.852 12.362 30.022 12 11.015446192 1.766 13.8532222584
4801 1 0.0 14.128 28.256 12 11.015446192 1.766 15.6502360947
4802 1 1.766 15.894 28.256 12 11.015446192 1.766 16.7007425948
4803 1 1.766 14.128 30.022 12 11.015446192 1.766 17.5354353865
4804 1 0.0 15.894 30.022 12 11.015446192 1.766 15.3274768222
4805 1 3.532 14.128 28.256 12 11.015446192 1.766 18.6297381361
4806 1 5.298 15.894 28.256 12 11.015446192 1.766 16.5159006081
4807 1 5.298 14.128 30.022 12 11.015446192 1.766 17.2779778764
4808 1 3.532 15.894 30.022 12 11.015446192 1.766 18.5400226538
4809 1 7.064 14.128 28.256 12 11.015446192 1.766 15.2907999919
4810 1 8.83 15.894 28.256 12 11.015446192 1.766 13.1145498692
4811 1 8.83 14.128 30.022 12 11.015446192 1.766 14.0621820807
4812 1 7.064 15.894 30.022 12 11.015446192 1.766 15.1813655966
4813 1 10.596 14.128 28.256 12 11.015446192 1.766 12.0623394814
4814 1 12.362 15.894 28.256 12 11.015446192 1.766 9.8060140548
4815 1 12.362 14.128 30.022 12 11.015446192 1.766 11.0413521927
4816 1 10.596 15.894 30.022 12 11.015446192 1.766 11.9233103939
4817 1 14.128 14.128 28.256 12 11.015446192 1.766 9.0478290514
4818 1 15.894 15.894 28.256 12 11.015446192 1.766 6.7286293565
4819 1 15.894 14.128 30.022 12 11.015446192 1.766 8.4278110809
4820 1 14.128 15.894 30.022 12 11.015446192 1.766 8.8773221257
4821 1 17.66 14.128 28.256 12 11.015446192 1.766 6.5176321451
4822 1 19.426 15.894 28.256 12 11.015446192 1.766 4.3404085326
4823 1 19.426 14.128 30.022 12 11.015446192 1.766 6.3956116121
4824 1 17.66 15.894 30.022 12 11.015446192 1.766 6.3252506688
4825 1 21.192 14.128 28.256 12 11.015446192 1.766 4.5477762261
4826 1 22.958 15.894 28.256 12 11.015446192 1.766 2.485223531
4827 1 22.958 14.128 30.022 12 11.015446192 1.766 4.7346003245
4828 1 21.192 15.894 30.022 12 11.015446192 1.766 4.2977479198
4829 1 24.724 14.128 28.256 12 11.015446192 1.766 3.8196163345
4830 1 26.49 15.894 28.256 12 11.015446192 1.766 2.6431205272
4831 1 26.49 14.128 30.022 12 11.015446192 1.766 4.7520942948
4832 1 24.724 15.894 30.022 12 11.015446192 1.766 3.0150442204
4833 1 28.256 14.128 28.256 12 11.015446192 1.766 4.8940075083
4834 1 30.022 15.894 28.256 12 11.015446192 1.766 5.0494938106
4835 1 30.022 14.128 30.022 12 11.015446192 1.766 6.7012519529
4836 1 28.256 15.894 30.022 12 11.015446192 1.766 4.4635595527
4837 1 31.788 14.128 28.256 12 11.015446192 1.766 7.4477819935
4838 1 33.554 15.894 28.256 12 11.015446192 1.766 7.2693120477
4839 1 33.554 14.128 30.022 12 11.015446192 1.766 9.0100101668
4840 1 31.788 15.894 30.022 12 11.015446192 1.766 6.7025221868
4841 1 35.32 14.128 28.256 12 11.015446192 1.766 9.7064558984
4842 1 37.086 15.894 28.256 12 11.015446192 1.766 10.1612081715
4843 1 37.086 14.128 30.022 12 11.015446192 1.766 11.4815871063
4844 1 35.32 15.894 30.022 12 11.015446192 1.766 9.1769789158
4845 1 38.852 14.128 28.256 12 11.015446192 1.766 12.5338567075
4846 1 40.618 15.894 28.256 12 11.015446192 1.766 13.3644099518
4847 1 40.618 14.128 30.022 12 11.015446192 1.766 14.3938926054
4848 1 38.852 15.894 30.022 12 11.015446192 1.766 12.1284467216
4849 1 0.0 17.66 28.256 12 11.015446192 1.766 14.5805475466
4850 1 1.766 19.426 28.256 12 11.015446192 1.766 16.0951018684
4851 1 1.766 17.66 30.022 12 11.015446192 1.766 16.5877657064
4852 1 0.0 19.426 30.022 12 11.015446192 1.766 14.6601944134
4853 1 3.532 17.66 28.256 12 11.015446192 1.766 18.0060102578
4854 1 5.298 19.426 28.256 12 11.015446192 1.766 16.1292562567
4855 1 5.298 17.66 30.022 12 11.015446192 1.766 16.5772529925
4856 1 3.532 19.426 30.022 12 11.015446192 1.766 18.0988524277
4857 1 7.064 17.66 28.256 12 11.015446192 1.766 14.5243873116
4858 1 8.83 19.426 28.256 12 11.015446192 1.766 12.6289159319
4859 1 8.83 17.66 30.022 12 11.015446192 1.766 13.1908411116
4860 1 7.064 19.426 30.022 12 11.015446192 1.766 14.6372697651
4861 1 10.596 17.66 28.256 12 11.015446192 1.766 11.0747142695
4862 1 12.362 19.426 28.256 12 11.015446192 1.766 9.1443674013
4863 1 12.362 17.66 30.022 12 11.015446192 1.766 9.9066138568
4864 1 10.596 19.426 30.022 12 11.015446192 1.766 11.2196528275
4865 1 14.128 17.66 28.256 12 11.015446192 1.766 7.700052826
4866 1 15.894 19.426 28.256 12 11.015446192 1.766 5.7183152364
4867 1 15.894 17.66 30.022 12 11.015446192 1.766 6.8726591216
4868 1 14.128 19.426 30.022 12 11.015446192 1.766 7.9032454967
4869 1 17.66 17.66 28.256 12 11.015446192 1.766 4.5697102257
4870 1 19.426 19.426 28.256 12 11.015446192 1.766 2.5939428551
4871 1 19.426 17.66 30.022 12 11.015446192 1.766 4.314796938
4872 1 17.66 19.426 30.022 12 11.015446192 1.766 4.89813287
4873 1 21.192 17.66 28.256 12 11.015446192 1.766 2.219472714
4874 1 22.958 19.426 28.256 9 17.5941154456 3.1700670165 0.0986120683
4875 1 22.958 17.66 30.022 12 11.015446192 1.766 2.3250690337
4876 1 21.192 19.426 30.022 12 11.015446192 1.766 2.4405597844
4877 1 24.724 17.66 28.256 11 11.9334000413 2.4975011512 0.5334012687
4878 1 26.49 19.426 28.256 9 16.523169288 3.0588017262 0.2621021693
4879 1 26.49 17.66 30.022 12 11.015446192 1.766 2.5056936648
4880 1 24.724 19.426 30.022 11 11.9334000413 2.4975011512 0.6284652977
4881 1 28.256 17.66 28.256 12 11.015446192 1.766 2.6515029798
4882 1 30.022 19.426 28.256 12 11.015446192 1.766 2.6616476875
4883 1 30.022 17.66 30.022 12 11.015446192 1.766 4.478624534
4884 1 28.256 19.426 30.022 12 11.015446192 1.766 2.5349593047
4885 1 31.788 17.66 28.256 12 11.015446192 1.766 4.8934173323
4886 1 33.554 19.426 28.256 12 11.015446192 1.766 5.7406694809
4887 1 33.554 17.66 30.022 12 11.015446192 1.766 6.9683837228
4888 1 31.788 19.426 30.022 12 11.015446192 1.766 4.8053331098
4889 1 35.32 17.66 28.256 12 11.015446192 1.766 7.8662419899
4890 1 37.086 19.426 28.256 12 11.015446192 1.766 9.1316839872
4891 1 37.086 17.66 30.022 12 11.015446192 1.766 9.9720134477
4892 1 35.32 19.426 30.022 12 11.015446192 1.766 7.9003806582
4893 1 38.852 17.66 28.256 12 11.015446192 1.766 11.1696034353
4894 1 40.618 19.426 28.256 12 11.015446192 1.766 12.5994029342
4895 1 40.618 17.66 30.022 12 11.015446192 1.766 13.2229581136
4896 1 38.852 19.426 30.022 12 11.015446192 1.766 11.2448904207
4897 1 0.0 21.192 28.256 12 11.015446192 1.766 14.3140038907
4898 1 1.766 22.958 28.256 12 11.015446192 1.766 16.1109074646
4899 1 1.766 21.192 30.022 12 11.015446192 1.766 16.3296549398
4900 1 0.0 22.958 30.022 12 11.015446192 1.766 14.6703720695
4901 1 3.532 21.192 28.256 12 11.015446192 1.766 17.7846242108
4902 1 5.298 22.958 28.256 12 11.015446192 1.766 16.0965803615
4903 1 5.298 21.192 30.022 12 11.015446192 1.766 16.2650739919
4904 1 3.532 22.958 30.022 12 11.015446192 1.766 18.0872006359
4905 1 7.064 21.192 28.256 12 11.015446192 1.766 14.2797668037
4906 1 8.83 22.958 28.256 12 11.015446192 1.766 12.6050041748
4907 1 8.83 21.192 30.022 12 11.015446192 1.766 12.7947824272
4908 1 7.064 22.958 30.022 12 11.015446192 1.766 14.6217658802
4909 1 10.596 21.192 28.256 12 11.015446192 1.766 10.7749709987
4910 1 12.362 22.958 28.256 12 11.015446192 1.766 9.114378446
4911 1 12.362 21.192 30.022 12 11.015446192 1.766 9.3707166617
4912 1 10.596 22.958 30.022 12 11.015446192 1.766 11.1979013213
4913 1 14.128 21.192 28.256 12 11.015446192 1.766 7.2703380272
4914 1 15.894 22.958 28.256 12 11.015446192 1.766 5.6608564214
4915 1 15.894 21.192 30.022 12 11.015446192 1.766 6.0715938723
4916 1 14.128 22.958 30.022 12 11.015446192 1.766 7.8700506023
4917 1 17.66 21.192 28.256 12 11.015446192 1.766 3.792988324
4918 1 19.426 22.958 28.256 12 11.015446192 1.766 2.4426302065
4919 1 19.426 21.192 30.022 12 11.015446192 1.766 3.2966985828
4920 1 17.66 22.958 30.022 12 11.015446192 1.766 4.8404694915
4921 1 21.192 21.192 28.256 11 11.9334000413 2.4975011512 0.8528991879
4922 1 22.958 22.958 28.256 9 17.5941154456 3.1700670165 0.0465427782
4923 1 22.958 21.192 30.022 11 11.9334000413 2.4975011512 0.9377844942
4924 1 21.192 22.958 30.022 12 11.015446192 1.766 2.4204839687
4925 1 35.32 38.852 38.852 12 11.015446192 1.766 21.0912867734
4926 1 26.49 22.958 28.256 9 16.523169288 3.0588017262 0.2578713757
4927 1 26.49 21.192 30.022 11 11.9334000413 2.4975011512 0.975626402
4928 1 24.724 22.958 30.022 11 11.9334000413 2.4975011512 0.6318698196
4929 1 28.256 21.192 28.256 11 11.9334000413 2.4975011512 0.643487227
4930 1 30.022 22.958 28.256 12 11.015446192 1.766 2.6663434423
4931 1 30.022 21.192 30.022 12 11.015446192 1.766 3.1090577619
4932 1 28.256 22.958 30.022 12 11.015446192 1.766 2.5477636081
4933 1 31.788 21.192 28.256 12 11.015446192 1.766 3.8452913234
4934 1 33.554 22.958 28.256 12 11.015446192 1.766 5.7529891989
4935 1 33.554 21.192 30.022 12 11.015446192 1.766 6.0428473765
4936 1 31.788 22.958 30.022 12 11.015446192 1.766 4.8053114661
4937 1 35.32 21.192 28.256 12 11.015446192 1.766 7.3312279555
4938 1 37.086 22.958 28.256 12 11.015446192 1.766 9.1469482741
4939 1 37.086 21.192 30.022 12 11.015446192 1.766 9.3976495287
4940 1 35.32 22.958 30.022 12 11.015446192 1.766 7.9003674937
4941 1 38.852 21.192 28.256 12 11.015446192 1.766 10.8172122916
4942 1 40.618 22.958 28.256 12 11.015446192 1.766 12.615029807
4943 1 40.618 21.192 30.022 12 11.015446192 1.766 12.8477887947
4944 1 38.852 22.958 30.022 12 11.015446192 1.766 11.2495521952
4945 1 0.0 24.724 28.256 12 11.015446192 1.766 14.595430176
4946 1 1.766 26.49 28.256 12 11.015446192 1.766 16.714939755
4947 1 1.766 24.724 30.022 12 11.015446192 1.766 16.6025536552
4948 1 0.0 26.49 30.022 12 11.015446192 1.766 15.3410411173
4949 1 3.532 24.724 28.256 12 11.015446192 1.766 17.972178243
4950 1 5.298 26.49 28.256 12 11.015446192 1.766 16.4826317354
4951 1 5.298 24.724 30.022 12 11.015446192 1.766 16.5069436765
4952 1 3.532 26.49 30.022 12 11.015446192 1.766 18.4596368857
4953 1 7.064 24.724 28.256 12 11.015446192 1.766 14.4790332041
4954 1 8.83 26.49 28.256 12 11.015446192 1.766 13.0646403696
4955 1 8.83 24.724 30.022 12 11.015446192 1.766 13.0954683259
4956 1 7.064 26.49 30.022 12 11.015446192 1.766 15.076168247
4957 1 10.596 24.724 28.256 12 11.015446192 1.766 11.0056851485
4958 1 12.362 26.49 28.256 12 11.015446192 1.766 9.728440525
4959 1 12.362 24.724 30.022 12 11.015446192 1.766 9.7699098126
4960 1 10.596 26.49 30.022 12 11.015446192 1.766 11.7802186768
4961 1 14.128 24.724 28.256 12 11.015446192 1.766 7.5866894394
4962 1 15.894 26.49 28.256 12 11.015446192 1.766 6.599267392
4963 1 15.894 24.724 30.022 12 11.015446192 1.766 6.6602640141
4964 1 14.128 26.49 30.022 12 11.015446192 1.766 8.6721567753
4965 1 17.66 24.724 28.256 12 11.015446192 1.766 4.3520863632
4966 1 19.426 26.49 28.256 12 11.015446192 1.766 4.1389271092
4967 1 19.426 24.724 30.022 12 11.015446192 1.766 4.1403149033
4968 1 17.66 26.49 30.022 12 11.015446192 1.766 6.0488926423
4969 1 21.192 24.724 28.256 12 11.015446192 1.766 2.069747858
4970 1 22.958 26.49 28.256 12 11.015446192 1.766 2.5542326725
4971 1 22.958 24.724 30.022 12 11.015446192 1.766 2.3732753108
4972 1 21.192 26.49 30.022 12 11.015446192 1.766 4.2610901704
4973 1 24.724 24.724 28.256 11 11.9334000413 2.4975011512 0.884804523
4974 1 26.49 26.49 28.256 12 11.015446192 1.766 2.6005203779
4975 1 26.49 24.724 30.022 12 11.015446192 1.766 2.5589765441
4976 1 24.724 26.49 30.022 12 11.015446192 1.766 3.3134845694
4977 1 28.256 24.724 28.256 12 11.015446192 1.766 2.5127324186
4978 1 30.022 26.49 28.256 12 11.015446192 1.766 4.7835360927
4979 1 30.022 24.724 30.022 12 11.015446192 1.766 4.4795618953
4980 1 28.256 26.49 30.022 12 11.015446192 1.766 4.4393585491
4981 1 31.788 24.724 28.256 12 11.015446192 1.766 4.9025208942
4982 1 33.554 26.49 28.256 12 11.015446192 1.766 7.2782050059
4983 1 33.554 24.724 30.022 12 11.015446192 1.766 6.9731423496
4984 1 31.788 26.49 30.022 12 11.015446192 1.766 6.7061433952
4985 1 35.32 24.724 28.256 12 11.015446192 1.766 7.8792102027
4986 1 37.086 26.49 28.256 12 11.015446192 1.766 10.173226352
4987 1 37.086 24.724 30.022 12 11.015446192 1.766 9.9825511331
4988 1 35.32 26.49 30.022 12 11.015446192 1.766 9.1871058534
4989 1 38.852 24.724 28.256 12 11.015446192 1.766 11.1838832129
4990 1 40.618 26.49 28.256 12 11.015446192 1.766 13.377849181
4991 1 40.618 24.724 30.022 12 11.015446192 1.766 13.2371607821
4992 1 38.852 26.49 30.022 12 11.015446192 1.766 12.1408485808
4993 1 0.0 28.256 28.256 12 11.015446192 1.766 15.6629970855
4994 1 1.766 30.022 28.256 12 11.015446192 1.766 18.0046419207
4995 1 1.766 28.256 30.022 12 11.015446192 1.766 17.5484382084
4996 1 0.0 30.022 30.022 12 11.015446192 1.766 16.7369490124
4997 1 3.532 28.256 28.256 12 11.015446192 1.766 18.6060989819
4998 1 5.298 30.022 28.256 12 11.015446192 1.766 17.5266270089
4999 1 5.298 28.256 30.022 12 11.015446192 1.766 17.1919489125
5000 1 3.532 30.022 30.022 12 11.015446192 1.766 19.3987213447
5001 1 7.064 28.256 28.256 12 11.015446192 1.766 15.2551491106
5002 1 8.83 30.022 28.256 12 11.015446192 1.766 14.3572284398
5003 1 8.83 28.256 30.022 12 11.015446192 1.766 13.9488632681
5004 1 7.064 30.022 30.022 12 11.015446192 1.766 16.2124348841
5005 1 10.596 28.256 28.256 12 11.015446192 1.766 12.0084252693
5006 1 12.362 30.022 28.256 12 11.015446192 1.766 11.4018746456
5007 1 12.362 28.256 30.022 12 11.015446192 1.766 10.8870801198
5008 1 10.596 30.022 30.022 12 11.015446192 1.766 13.2032476283
5009 1 14.128 28.256 28.256 12 11.015446192 1.766 8.9797009143
5010 1 15.894 30.022 28.256 12 11.015446192 1.766 8.8712133067
5011 1 15.894 28.256 30.022 12 11.015446192 1.766 8.2119600947
5012 1 14.128 30.022 30.022 12 11.015446192 1.766 10.5241863816
5013 1 17.66 28.256 28.256 12 11.015446192 1.766 6.4599939437
5014 1 19.426 30.022 28.256 12 11.015446192 1.766 6.7046544791
5015 1 19.426 28.256 30.022 12 11.015446192 1.766 6.279504733
5016 1 17.66 30.022 30.022 12 11.015446192 1.766 8.3866433726
5017 1 21.192 28.256 28.256 12 11.015446192 1.766 4.5141442466
5018 1 22.958 30.022 28.256 12 11.015446192 1.766 5.6461847904
5019 1 22.958 28.256 30.022 12 11.015446192 1.766 4.8640238508
5020 1 21.192 30.022 30.022 12 11.015446192 1.766 6.8213570966
5021 1 24.724 28.256 28.256 12 11.015446192 1.766 3.7228528755
5022 1 26.49 30.022 28.256 12 11.015446192 1.766 5.7063553381
5023 1 26.49 28.256 30.022 12 11.015446192 1.766 4.8620825474
5024 1 24.724 30.022 30.022 12 11.015446192 1.766 6.025747352
5025 1 28.256 28.256 28.256 12 11.015446192 1.766 4.703310697
5026 1 30.022 30.022 28.256 12 11.015446192 1.766 7.0328912196
5027 1 30.022 28.256 30.022 12 11.015446192 1.766 6.510590595
5028 1 28.256 30.022 30.022 12 11.015446192 1.766 6.901302466
5029 1 31.788 28.256 28.256 12 11.015446192 1.766 7.0932090595
5030 1 33.554 30.022 28.256 12 11.015446192 1.766 9.4936329272
5031 1 33.554 28.256 30.022 12 11.015446192 1.766 9.0148354536
5032 1 31.788 30.022 30.022 12 11.015446192 1.766 8.7191605131
5033 1 35.32 28.256 28.256 12 11.015446192 1.766 9.715186519
5034 1 37.086 30.022 28.256 12 11.015446192 1.766 12.1767177059
5035 1 37.086 28.256 30.022 12 11.015446192 1.766 11.491431893
5036 1 35.32 30.022 30.022 12 11.015446192 1.766 11.3651349003
5037 1 38.852 28.256 28.256 12 11.015446192 1.766 12.5452038405
5038 1 40.618 30.022 28.256 12 11.015446192 1.766 14.9581004272
5039 1 40.618 28.256 30.022 12 11.015446192 1.766 14.4057391776
5040 1 38.852 30.022 30.022 12 11.015446192 1.766 13.8628324646
5041 1 0.0 31.788 28.256 12 11.015446192 1.766 17.3948964177
5042 1 1.766 33.554 28.256 12 11.015446192 1.766 19.8467906315
5043 1 1.766 31.788 30.022 12 11.015446192 1.766 19.1102231079
5044 1 0.0 33.554 30.022 12 11.015446192 1.766 18.7043692736
5045 1 3.532 31.788 28.256 12 11.015446192 1.766 19.8399130725
5046 1 5.298 33.554 28.256 12 11.015446192 1.766 19.1226525376
5047 1 5.298 31.788 30.022 12 11.015446192 1.766 18.5361896643
5048 1 3.532 33.554 30.022 12 11.015446192 1.766 20.9000630063
5049 1 7.064 31.788 28.256 12 11.015446192 1.766 16.7323514256
5050 1 8.83 33.554 28.256 12 11.015446192 1.766 16.2589278772
5051 1 8.83 31.788 30.022 12 11.015446192 1.766 15.5755579782
5052 1 7.064 33.554 30.022 12 11.015446192 1.766 17.9818043792
5053 1 10.596 31.788 28.256 12 11.015446192 1.766 13.8291865463
5054 1 12.362 33.554 28.256 12 11.015446192 1.766 13.7096686378
5055 1 12.362 31.788 30.022 12 11.015446192 1.766 12.905647345
5056 1 10.596 33.554 30.022 12 11.015446192 1.766 15.3240984006
5057 1 14.128 31.788 28.256 12 11.015446192 1.766 11.2891877857
5058 1 15.894 33.554 28.256 12 11.015446192 1.766 11.4685330576
5059 1 15.894 31.788 30.022 12 11.015446192 1.766 10.6599942412
5060 1 14.128 33.554 30.022 12 11.015446192 1.766 13.0157616683
5061 1 17.66 31.788 28.256 12 11.015446192 1.766 9.0555126353
5062 1 19.426 33.554 28.256 12 11.015446192 1.766 9.7624879784
5063 1 19.426 31.788 30.022 12 11.015446192 1.766 8.8287476032
5064 1 17.66 33.554 30.022 12 11.015446192 1.766 11.010640928
5065 1 21.192 31.788 28.256 12 11.015446192 1.766 7.6325784715
5066 1 22.958 33.554 28.256 12 11.015446192 1.766 9.0655318818
5067 1 22.958 31.788 30.022 12 11.015446192 1.766 7.8392882076
5068 1 21.192 33.554 30.022 12 11.015446192 1.766 9.8415453087
5069 1 24.724 31.788 28.256 12 11.015446192 1.766 7.187143554
5070 1 26.49 33.554 28.256 12 11.015446192 1.766 9.1113163297
5071 1 26.49 31.788 30.022 12 11.015446192 1.766 7.8380638956
5072 1 24.724 33.554 30.022 12 11.015446192 1.766 9.3048403578
5073 1 28.256 31.788 28.256 12 11.015446192 1.766 7.8156590925
5074 1 30.022 33.554 28.256 12 11.015446192 1.766 10.0448981301
5075 1 30.022 31.788 30.022 12 11.015446192 1.766 9.0227055919
5076 1 28.256 33.554 30.022 12 11.015446192 1.766 9.9283037152
5077 1 31.788 31.788 28.256 12 11.015446192 1.766 9.4486512424
5078 1 33.554 33.554 28.256 12 11.015446192 1.766 11.8982135505
5079 1 33.554 31.788 30.022 12 11.015446192 1.766 11.0488335786
5080 1 31.788 33.554 30.022 12 11.015446192 1.766 11.2899149506
5081 1 35.32 31.788 28.256 12 11.015446192 1.766 11.9339658768
5082 1 37.086 33.554 28.256 12 11.015446192 1.766 14.3939237508
5083 1 37.086 31.788 30.022 12 11.015446192 1.766 13.7001561559
5084 1 35.32 33.554 30.022 12 11.015446192 1.766 13.4389252115
5085 1 38.852 31.788 28.256 12 11.015446192 1.766 14.6504294504
5086 1 40.618 33.554 28.256 12 11.015446192 1.766 17.1310459713
5087 1 40.618 31.788 30.022 12 11.015446192 1.766 16.2720086324
5088 1 38.852 33.554 30.022 12 11.015446192 1.766 16.0840694505
5089 1 0.0 35.32 28.256 12 11.015446192 1.766 19.6159479267
5090 1 1.766 37.086 28.256 12 11.015446192 1.766 22.1036900551
5091 1 1.766 35.32 30.022 12 11.015446192 1.766 21.1519176179
5092 1 0.0 37.086 30.022 12 11.015446192 1.766 20.9315165451
5093 1 3.532 35.32 28.256 12 11.015446192 1.766 21.5230754308
5094 1 5.298 37.086 28.256 12 11.015446192 1.766 21.1314758098
5095 1 5.298 35.32 30.022 12 11.015446192 1.766 20.4063401143
5096 1 3.532 37.086 30.022 12 11.015446192 1.766 22.8338099062
5097 1 7.064 35.32 28.256 12 11.015446192 1.766 18.6902742192
5098 1 8.83 37.086 28.256 12 11.015446192 1.766 18.576759652
5099 1 8.83 35.32 30.022 12 11.015446192 1.766 17.7574875717
5100 1 7.064 37.086 30.022 12 11.015446192 1.766 20.1914487388
5101 1 10.596 35.32 28.256 12 11.015446192 1.766 16.1356159987
5102 1 12.362 37.086 28.256 12 11.015446192 1.766 16.3455490781
5103 1 12.362 35.32 30.022 12 11.015446192 1.766 15.4162093529
5104 1 10.596 37.086 30.022 12 11.015446192 1.766 17.8340970396
5105 1 14.128 35.32 28.256 12 11.015446192 1.766 13.906150555
5106 1 15.894 37.086 28.256 12 11.015446192 1.766 14.3816229383
5107 1 15.894 35.32 30.022 12 11.015446192 1.766 13.3040094351
5108 1 14.128 37.086 30.022 12 11.015446192 1.766 15.6599535266
5109 1 17.66 35.32 28.256 12 11.015446192 1.766 12.0345798819
5110 1 19.426 37.086 28.256 12 11.015446192 1.766 13.0617762718
5111 1 19.426 35.32 30.022 12 11.015446192 1.766 11.8648888779
5112 1 17.66 37.086 30.022 12 11.015446192 1.766 14.0192025982
5113 1 21.192 35.32 28.256 12 11.015446192 1.766 11.0038655921
5114 1 22.958 37.086 28.256 12 11.015446192 1.766 12.5474187067
5115 1 22.958 35.32 30.022 12 11.015446192 1.766 11.144500282
5116 1 21.192 37.086 30.022 12 11.015446192 1.766 13.1198512863
5117 1 24.724 35.32 28.256 12 11.015446192 1.766 10.6958159763
5118 1 26.49 37.086 28.256 12 11.015446192 1.766 12.5792936955
5119 1 26.49 35.32 30.022 12 11.015446192 1.766 11.1436391078
5120 1 24.724 37.086 30.022 12 11.015446192 1.766 12.7200835302
5121 1 28.256 35.32 28.256 12 11.015446192 1.766 11.1792909106
5122 1 30.022 37.086 28.256 12 11.015446192 1.766 13.3149707465
5123 1 30.022 35.32 30.022 12 11.015446192 1.766 12.05498485
5124 1 28.256 37.086 30.022 12 11.015446192 1.766 13.1972823945
5125 1 31.788 35.32 28.256 12 11.015446192 1.766 12.3770131226
5126 1 33.554 37.086 28.256 12 11.015446192 1.766 14.7633313731
5127 1 33.554 35.32 30.022 12 11.015446192 1.766 13.6378211964
5128 1 31.788 37.086 30.022 12 11.015446192 1.766 14.2776275035
5129 1 35.32 35.32 28.256 12 11.015446192 1.766 14.3642954957
5130 1 37.086 37.086 28.256 12 11.015446192 1.766 16.8396409843
5131 1 37.086 35.32 30.022 12 11.015446192 1.766 15.862147466
5132 1 35.32 37.086 30.022 12 11.015446192 1.766 16.0310067799
5133 1 38.852 35.32 28.256 12 11.015446192 1.766 16.8649211186
5134 1 40.618 37.086 28.256 12 11.015446192 1.766 19.3427276187
5135 1 40.618 35.32 30.022 12 11.015446192 1.766 18.4979816597
5136 1 38.852 37.086 30.022 12 11.015446192 1.766 18.3053477877
5137 1 0.0 38.852 28.256 12 11.015446192 1.766 21.8250242411
5138 1 1.766 40.618 28.256 12 11.015446192 1.766 24.3104355888
5139 1 1.766 38.852 30.022 12 11.015446192 1.766 23.3785471805
5140 1 0.0 40.618 30.022 12 11.015446192 1.766 23.2264267681
5141 1 3.532 38.852 28.256 12 11.015446192 1.766 23.5844697504
5142 1 5.298 40.618 28.256 12 11.015446192 1.766 23.4946134718
5143 1 5.298 38.852 30.022 12 11.015446192 1.766 22.6257269401
5144 1 3.532 40.618 30.022 12 11.015446192 1.766 25.0605492355
5145 1 7.064 38.852 28.256 12 11.015446192 1.766 21.0311416399
5146 1 8.83 40.618 28.256 12 11.015446192 1.766 21.2257731976
5147 1 8.83 38.852 30.022 12 11.015446192 1.766 20.252118061
5148 1 7.064 40.618 30.022 12 11.015446192 1.766 22.673252349
5149 1 10.596 38.852 28.256 12 11.015446192 1.766 18.7854850755
5150 1 12.362 40.618 28.256 12 11.015446192 1.766 19.1899995088
5151 1 12.362 38.852 30.022 12 11.015446192 1.766 18.0539925185
5152 1 10.596 40.618 30.022 12 11.015446192 1.766 20.4727665757
5153 1 14.128 38.852 28.256 12 11.015446192 1.766 16.7721813651
5154 1 15.894 40.618 28.256 12 11.015446192 1.766 17.5238395959
5155 1 15.894 38.852 30.022 12 11.015446192 1.766 16.271924253
5156 1 14.128 40.618 30.022 12 11.015446192 1.766 18.5873080434
5157 1 17.66 38.852 28.256 12 11.015446192 1.766 15.2515561429
5158 1 19.426 40.618 28.256 12 11.015446192 1.766 16.4579426181
5159 1 19.426 38.852 30.022 12 11.015446192 1.766 15.1180170634
5160 1 17.66 40.618 30.022 12 11.015446192 1.766 17.2276497914
5161 1 21.192 38.852 28.256 12 11.015446192 1.766 14.4521247509
5162 1 22.958 40.618 28.256 12 11.015446192 1.766 16.0511976621
5163 1 22.958 38.852 30.022 12 11.015446192 1.766 14.5566267201
5164 1 21.192 40.618 30.022 12 11.015446192 1.766 16.5031622355
5165 1 24.724 38.852 28.256 12 11.015446192 1.766 14.2160463678
5166 1 26.49 40.618 28.256 12 11.015446192 1.766 16.075109605
5167 1 26.49 38.852 30.022 12 11.015446192 1.766 14.5559674188
5168 1 24.724 40.618 30.022 12 11.015446192 1.766 16.1855195761
5169 1 28.256 38.852 28.256 12 11.015446192 1.766 14.6143508068
5170 1 30.022 40.618 28.256 12 11.015446192 1.766 16.6921227385
5171 1 30.022 38.852 30.022 12 11.015446192 1.766 15.3031418758
5172 1 28.256 40.618 30.022 12 11.015446192 1.766 16.5658345391
5173 1 31.788 38.852 28.256 12 11.015446192 1.766 15.5580829595
5174 1 33.554 40.618 28.256 12 11.015446192 1.766 17.8688127409
5175 1 33.554 38.852 30.022 12 11.015446192 1.766 16.578711003
5176 1 31.788 40.618 30.022 12 11.015446192 1.766 17.4696640685
5177 1 35.32 38.852 28.256 12 11.015446192 1.766 17.1812827409
5178 1 37.086 40.618 28.256 12 11.015446192 1.766 19.6191749066
5179 1 37.086 38.852 30.022 12 11.015446192 1.766 18.4518620679
5180 1 35.32 40.618 30.022 12 11.015446192 1.766 18.9296511831
5181 1 38.852 38.852 28.256 12 11.015446192 1.766 19.3206898395
5182 1 40.618 40.618 28.256 12 11.015446192 1.766 21.8054953456
5183 1 40.618 38.852 30.022 12 11.015446192 1.766 20.761474346
5184 1 38.852 40.618 30.022 12 11.015446192 1.766 20.8907700472
5185 1 0.0 0.0 31.788 12 11.015446192 1.766 24.8007488134
5186 1 1.766 1.766 31.788 12 11.015446192 1.766 25.1290525153
5187 1 1.766 0.0 33.554 12 11.015446192 1.766 26.4154680226
5188 1 0.0 1.766 33.554 12 11.015446192 1.766 24.3050127431
5189 1 3.532 0.0 31.788 12 11.015446192 1.766 26.4287413222
5190 1 5.298 1.766 31.788 12 11.015446192 1.766 24.0346270163
5191 1 5.298 0.0 33.554 12 11.015446192 1.766 25.8083616924
5192 1 3.532 1.766 33.554 12 11.015446192 1.766 25.8259708611
5193 1 7.064 0.0 31.788 12 11.015446192 1.766 24.14521837
5194 1 8.83 1.766 31.788 12 11.015446192 1.766 21.7864986189
5195 1 8.83 0.0 33.554 12 11.015446192 1.766 23.7288802834
5196 1 7.064 1.766 33.554 12 11.015446192 1.766 23.4839088139
5197 1 10.596 0.0 31.788 12 11.015446192 1.766 22.191323088
5198 1 12.362 1.766 31.788 12 11.015446192 1.766 19.9128022435
5199 1 12.362 0.0 33.554 12 11.015446192 1.766 21.8920213542
5200 1 10.596 1.766 33.554 12 11.015446192 1.766 21.4689906947
5201 1 14.128 0.0 31.788 12 11.015446192 1.766 20.5461674493
5202 1 15.894 1.766 31.788 12 11.015446192 1.766 18.3315322852
5203 1 15.894 0.0 33.554 12 11.015446192 1.766 20.4472362927
5204 1 14.128 1.766 33.554 12 11.015446192 1.766 19.7032569606
5205 1 17.66 0.0 31.788 12 11.015446192 1.766 19.2975429892
5206 1 19.426 1.766 31.788 12 11.015446192 1.766 17.2337913465
5207 1 19.426 0.0 33.554 12 11.015446192 1.766 19.4687480341
5208 1 17.66 1.766 33.554 12 11.015446192 1.766 18.3494359342
5209 1 21.192 0.0 31.788 12 11.015446192 1.766 18.5931498708
5210 1 22.958 1.766 31.788 12 11.015446192 1.766 16.7270575858
5211 1 22.958 0.0 33.554 12 11.015446192 1.766 18.8837382079
5212 1 21.192 1.766 33.554 12 11.015446192 1.766 17.5055152889
5213 1 24.724 0.0 31.788 12 11.015446192 1.766 18.2844507046
5214 1 26.49 1.766 31.788 12 11.015446192 1.766 16.740982026
5215 1 26.49 0.0 33.554 12 11.015446192 1.766 18.8832299868
5216 1 24.724 1.766 33.554 12 11.015446192 1.766 17.1547976204
5217 1 28.256 0.0 31.788 12 11.015446192 1.766 18.6219485445
5218 1 30.022 1.766 31.788 12 11.015446192 1.766 17.4457098136
5219 1 30.022 0.0 33.554 12 11.015446192 1.766 19.5322100327
5220 1 28.256 1.766 33.554 12 11.015446192 1.766 17.5193082734
5221 1 31.788 0.0 31.788 12 11.015446192 1.766 19.5140821961
5222 1 33.554 1.766 31.788 12 11.015446192 1.766 18.6800894242
5223 1 33.554 0.0 33.554 12 11.015446192 1.766 20.6415634365
5224 1 31.788 1.766 33.554 12 11.015446192 1.766 18.5560917994
5225 1 35.32 0.0 31.788 12 11.015446192 1.766 20.8312730097
5226 1 37.086 1.766 31.788 12 11.015446192 1.766 20.4492104013
5227 1 37.086 0.0 33.554 12 11.015446192 1.766 22.1741222228
5228 1 35.32 1.766 33.554 12 11.015446192 1.766 20.0595268678
5229 1 38.852 0.0 31.788 12 11.015446192 1.766 22.628179654
5230 1 40.618 1.766 31.788 12 11.015446192 1.766 22.6350330059
5231 1 40.618 0.0 33.554 12 11.015446192 1.766 24.1300497223
5232 1 38.852 1.766 33.554 12 11.015446192 1.766 22.0019114465
5233 1 0.0 3.532 31.788 12 11.015446192 1.766 22.7023257019
5234 1 1.766 5.298 31.788 12 11.015446192 1.766 22.6499105361
5235 1 1.766 3.532 33.554 12 11.015446192 1.766 24.3206750373
5236 1 0.0 5.298 33.554 12 11.015446192 1.766 21.9433409902
5237 1 3.532 3.532 31.788 12 11.015446192 1.766 24.1828460998
5238 1 5.298 5.298 31.788 12 11.015446192 1.766 21.82819272
5239 1 5.298 3.532 33.554 12 11.015446192 1.766 23.5032595794
5240 1 3.532 5.298 33.554 12 11.015446192 1.766 23.7666457908
5241 1 7.064 3.532 31.788 12 11.015446192 1.766 21.6638696392
5242 1 8.83 5.298 31.788 12 11.015446192 1.766 19.3250672361
5243 1 8.83 3.532 33.554 12 11.015446192 1.766 21.198854618
5244 1 7.064 5.298 33.554 12 11.015446192 1.766 21.216986284
5245 1 10.596 3.532 31.788 12 11.015446192 1.766 19.4624381311
5246 1 12.362 5.298 31.788 12 11.015446192 1.766 17.1871026628
5247 1 12.362 3.532 33.554 12 11.015446192 1.766 19.2296542036
5248 1 10.596 5.298 33.554 12 11.015446192 1.766 18.9674438196
5249 1 14.128 3.532 31.788 12 11.015446192 1.766 17.6488523642
5250 1 15.894 5.298 31.788 12 11.015446192 1.766 15.3876057002
5251 1 15.894 3.532 33.554 12 11.015446192 1.766 17.5096893636
5252 1 14.128 5.298 33.554 12 11.015446192 1.766 16.9985784145
5253 1 17.66 3.532 31.788 12 11.015446192 1.766 16.1447661699
5254 1 19.426 5.298 31.788 12 11.015446192 1.766 14.0618952291
5255 1 19.426 3.532 33.554 12 11.015446192 1.766 16.324662314
5256 1 17.66 5.298 33.554 12 11.015446192 1.766 15.4083742552
5257 1 21.192 3.532 31.788 12 11.015446192 1.766 15.2751246767
5258 1 22.958 5.298 31.788 12 11.015446192 1.766 13.3576041167
5259 1 22.958 3.532 33.554 12 11.015446192 1.766 15.6003237422
5260 1 21.192 5.298 33.554 12 11.015446192 1.766 14.3153115343
5261 1 24.724 3.532 31.788 12 11.015446192 1.766 14.9367327973
5262 1 26.49 5.298 31.788 12 11.015446192 1.766 13.3637784741
5263 1 26.49 3.532 33.554 12 11.015446192 1.766 15.6055809838
5264 1 24.724 5.298 33.554 12 11.015446192 1.766 13.8786590601
5265 1 28.256 3.532 31.788 12 11.015446192 1.766 15.3539919122
5266 1 30.022 5.298 31.788 12 11.015446192 1.766 14.2574926695
5267 1 30.022 3.532 33.554 12 11.015446192 1.766 16.3904930622
5268 1 28.256 5.298 33.554 12 11.015446192 1.766 14.326767196
5269 1 31.788 3.532 31.788 12 11.015446192 1.766 16.4407154605
5270 1 33.554 5.298 31.788 12 11.015446192 1.766 15.7606456071
5271 1 33.554 3.532 33.554 12 11.015446192 1.766 17.8139453623
5272 1 31.788 5.298 33.554 12 11.015446192 1.766 15.5833121013
5273 1 35.32 3.532 31.788 12 11.015446192 1.766 18.0844288269
5274 1 37.086 5.298 31.788 12 11.015446192 1.766 17.8219644005
5275 1 37.086 3.532 33.554 12 11.015446192 1.766 19.6652728244
5276 1 35.32 5.298 33.554 12 11.015446192 1.766 17.3734517934
5277 1 38.852 3.532 31.788 12 11.015446192 1.766 20.2174690586
5278 1 40.618 5.298 31.788 12 11.015446192 1.766 20.2927801997
5279 1 40.618 3.532 33.554 12 11.015446192 1.766 21.9293745556
5280 1 38.852 5.298 33.554 12 11.015446192 1.766 19.5840832402
5281 1 0.0 7.064 31.788 12 11.015446192 1.766 20.2304458388
5282 1 1.766 8.83 31.788 12 11.015446192 1.766 20.4525256199
5283 1 1.766 7.064 33.554 12 11.015446192 1.766 22.0069890537
5284 1 0.0 8.83 33.554 12 11.015446192 1.766 19.6671698714
5285 1 3.532 7.064 31.788 12 11.015446192 1.766 22.2552424498
5286 1 5.298 8.83 31.788 12 11.015446192 1.766 19.9254708929
5287 1 5.298 7.064 33.554 12 11.015446192 1.766 21.4525335491
5288 1 3.532 8.83 33.554 12 11.015446192 1.766 21.9195207707
5289 1 7.064 7.064 31.788 12 11.015446192 1.766 19.5067913827
5290 1 8.83 8.83 31.788 12 11.015446192 1.766 17.1982869311
5291 1 8.83 7.064 33.554 12 11.015446192 1.766 18.948768826
5292 1 7.064 8.83 33.554 12 11.015446192 1.766 19.1626410547
5293 1 10.596 7.064 31.788 12 11.015446192 1.766 17.0313893625
5294 1 12.362 8.83 31.788 12 11.015446192 1.766 14.7914414626
5295 1 12.362 7.064 33.554 12 11.015446192 1.766 16.7855558431
5296 1 10.596 8.83 33.554 12 11.015446192 1.766 16.7002479491
5297 1 14.128 7.064 31.788 12 11.015446192 1.766 14.9579748478
5298 1 15.894 8.83 31.788 12 11.015446192 1.766 12.7439071568
5299 1 15.894 7.064 33.554 12 11.015446192 1.766 14.825571789
5300 1 14.128 8.83 33.554 12 11.015446192 1.766 14.6147967616
5301 1 17.66 7.064 31.788 12 11.015446192 1.766 13.1856676714
5302 1 19.426 8.83 31.788 12 11.015446192 1.766 11.0984758303
5303 1 19.426 7.064 33.554 12 11.015446192 1.766 13.3554613817
5304 1 17.66 8.83 33.554 12 11.015446192 1.766 12.7552391253
5305 1 21.192 7.064 31.788 12 11.015446192 1.766 12.0567385746
5306 1 22.958 8.83 31.788 12 11.015446192 1.766 10.0849720889
5307 1 22.958 7.064 33.554 12 11.015446192 1.766 12.416731485
5308 1 21.192 8.83 33.554 12 11.015446192 1.766 11.3229098837
5309 1 24.724 7.064 31.788 12 11.015446192 1.766 11.5719966544
5310 1 26.49 8.83 31.788 12 11.015446192 1.766 10.0931025465
5311 1 26.49 7.064 33.554 12 11.015446192 1.766 12.4233360154
5312 1 24.724 8.83 33.554 12 11.015446192 1.766 10.7655618161
5313 1 28.256 7.064 31.788 12 11.015446192 1.766 12.105791488
5314 1 30.022 8.83 31.788 12 11.015446192 1.766 11.2648004671
5315 1 30.022 7.064 33.554 12 11.015446192 1.766 13.3960211531
5316 1 28.256 8.83 33.554 12 11.015446192 1.766 11.3373895672
5317 1 31.788 7.064 31.788 12 11.015446192 1.766 13.4978531069
5318 1 33.554 8.83 31.788 12 11.015446192 1.766 13.1453492539
5319 1 33.554 7.064 33.554 12 11.015446192 1.766 15.1278037618
5320 1 31.788 8.83 33.554 12 11.015446192 1.766 12.8889693606
5321 1 35.32 7.064 31.788 12 11.015446192 1.766 15.4587774112
5322 1 37.086 8.83 31.788 12 11.015446192 1.766 15.539977285
5323 1 37.086 7.064 33.554 12 11.015446192 1.766 17.2695598681
5324 1 35.32 8.83 33.554 12 11.015446192 1.766 14.9815605972
5325 1 38.852 7.064 31.788 12 11.015446192 1.766 17.9073201993
5326 1 40.618 8.83 31.788 12 11.015446192 1.766 17.8325111629
5327 1 40.618 7.064 33.554 12 11.015446192 1.766 19.5958994871
5328 1 38.852 8.83 33.554 12 11.015446192 1.766 17.2761076104
5329 1 0.0 10.596 31.788 12 11.015446192 1.766 18.0840625904
5330 1 1.766 12.362 31.788 12 11.015446192 1.766 18.669311963
5331 1 1.766 10.596 33.554 12 11.015446192 1.766 20.0516819281
5332 1 0.0 12.362 33.554 12 11.015446192 1.766 17.8054760028
5333 1 3.532 10.596 31.788 12 11.015446192 1.766 20.5797056397
5334 1 5.298 12.362 31.788 12 11.015446192 1.766 18.3509424853
5335 1 5.298 10.596 33.554 12 11.015446192 1.766 19.68402105
5336 1 3.532 12.362 33.554 12 11.015446192 1.766 20.4985263179
5337 1 7.064 10.596 31.788 12 11.015446192 1.766 17.6143607772
5338 1 8.83 12.362 31.788 12 11.015446192 1.766 15.3614301245
5339 1 8.83 10.596 33.554 12 11.015446192 1.766 16.9315424599
5340 1 7.064 12.362 33.554 12 11.015446192 1.766 17.5194464118
5341 1 10.596 10.596 31.788 12 11.015446192 1.766 14.8982272423
5342 1 12.362 12.362 31.788 12 11.015446192 1.766 12.6546445562
5343 1 12.362 10.596 33.554 12 11.015446192 1.766 14.5204553456
5344 1 10.596 12.362 33.554 12 11.015446192 1.766 14.7858875942
5345 1 14.128 10.596 31.788 12 11.015446192 1.766 12.587892712
5346 1 15.894 12.362 31.788 12 11.015446192 1.766 10.4375631368
5347 1 15.894 10.596 33.554 12 11.015446192 1.766 12.4928413892
5348 1 14.128 12.362 33.554 12 11.015446192 1.766 12.4298400007
5349 1 17.66 10.596 31.788 12 11.015446192 1.766 10.583961319
5350 1 19.426 12.362 31.788 12 11.015446192 1.766 8.5252445268
5351 1 19.426 10.596 33.554 12 11.015446192 1.766 10.7076326594
5352 1 17.66 12.362 33.554 12 11.015446192 1.766 10.3765595874
5353 1 21.192 10.596 31.788 12 11.015446192 1.766 9.0449851091
5354 1 22.958 12.362 31.788 12 11.015446192 1.766 7.0666013007
5355 1 22.958 10.596 33.554 12 11.015446192 1.766 9.4831634321
5356 1 21.192 12.362 33.554 12 11.015446192 1.766 8.7417245983
5357 1 24.724 10.596 31.788 12 11.015446192 1.766 8.3466325233
5358 1 26.49 12.362 31.788 12 11.015446192 1.766 7.0781996951
5359 1 26.49 10.596 33.554 12 11.015446192 1.766 9.4918093987
5360 1 24.724 12.362 33.554 12 11.015446192 1.766 8.0079656047
5361 1 28.256 10.596 31.788 12 11.015446192 1.766 9.0722299056
5362 1 30.022 12.362 31.788 12 11.015446192 1.766 8.6666869164
5363 1 30.022 10.596 33.554 12 11.015446192 1.766 10.7335246142
5364 1 28.256 12.362 33.554 12 11.015446192 1.766 8.7616547585
5365 1 31.788 10.596 31.788 12 11.015446192 1.766 10.8995457682
5366 1 33.554 12.362 31.788 12 11.015446192 1.766 10.8463770989
5367 1 33.554 10.596 33.554 12 11.015446192 1.766 12.7327540476
5368 1 31.788 12.362 33.554 12 11.015446192 1.766 10.5381007706
5369 1 35.32 10.596 31.788 12 11.015446192 1.766 13.183884879
5370 1 37.086 12.362 31.788 12 11.015446192 1.766 13.1483290747
5371 1 37.086 10.596 33.554 12 11.015446192 1.766 14.9828507862
5372 1 35.32 12.362 33.554 12 11.015446192 1.766 12.7304771023
5373 1 38.852 10.596 31.788 12 11.015446192 1.766 15.4661240754
5374 1 40.618 12.362 31.788 12 11.015446192 1.766 15.7555025091
5375 1 40.618 10.596 33.554 12 11.015446192 1.766 17.3713153875
5376 1 38.852 12.362 33.554 12 11.015446192 1.766 15.1383999232
5377 1 0.0 14.128 31.788 12 11.015446192 1.766 16.4239382826
5378 1 1.766 15.894 31.788 12 11.015446192 1.766 17.4278702689
5379 1 1.766 14.128 33.554 12 11.015446192 1.766 18.5651637923
5380 1 0.0 15.894 33.554 12 11.015446192 1.766 16.4300221398
5381 1 3.532 14.128 31.788 12 11.015446192 1.766 19.3835883831
5382 1 5.298 15.894 31.788 12 11.015446192 1.766 17.3566373943
5383 1 5.298 14.128 33.554 12 11.015446192 1.766 18.4298643262
5384 1 3.532 15.894 33.554 12 11.015446192 1.766 19.5691603943
5385 1 7.064 14.128 31.788 12 11.015446192 1.766 16.2007691168
5386 1 8.83 15.894 31.788 12 11.015446192 1.766 14.1583404894
5387 1 8.83 14.128 33.554 12 11.015446192 1.766 15.4556250102
5388 1 7.064 15.894 33.554 12 11.015446192 1.766 16.421290697
5389 1 10.596 14.128 31.788 12 11.015446192 1.766 13.1968325499
5390 1 12.362 15.894 31.788 12 11.015446192 1.766 11.16306793
5391 1 12.362 14.128 33.554 12 11.015446192 1.766 12.768651912
5392 1 10.596 15.894 33.554 12 11.015446192 1.766 13.4653360221
5393 1 14.128 14.128 31.788 12 11.015446192 1.766 10.5260584609
5394 1 15.894 15.894 31.788 12 11.015446192 1.766 8.5416747128
5395 1 15.894 14.128 33.554 12 11.015446192 1.766 10.3692418141
5396 1 14.128 15.894 33.554 12 11.015446192 1.766 10.8380208894
5397 1 17.66 14.128 31.788 12 11.015446192 1.766 8.3172035012
5398 1 19.426 15.894 31.788 12 11.015446192 1.766 6.2093095958
5399 1 19.426 14.128 33.554 12 11.015446192 1.766 8.3194488497
5400 1 17.66 15.894 33.554 12 11.015446192 1.766 8.3529339263
5401 1 21.192 14.128 31.788 12 11.015446192 1.766 6.4821475959
5402 1 22.958 15.894 31.788 12 11.015446192 1.766 4.710743394
5403 1 22.958 14.128 33.554 12 11.015446192 1.766 7.1099061973
5404 1 21.192 15.894 33.554 12 11.015446192 1.766 6.4847107882
5405 1 24.724 14.128 31.788 12 11.015446192 1.766 5.5110335136
5406 1 26.49 15.894 31.788 12 11.015446192 1.766 4.8055599542
5407 1 26.49 14.128 33.554 12 11.015446192 1.766 7.1273881311
5408 1 24.724 15.894 33.554 12 11.015446192 1.766 5.5535976606
5409 1 28.256 14.128 31.788 12 11.015446192 1.766 6.5473681878
5410 1 30.022 15.894 31.788 12 11.015446192 1.766 6.3661704205
5411 1 30.022 14.128 33.554 12 11.015446192 1.766 8.5090441038
5412 1 28.256 15.894 33.554 12 11.015446192 1.766 6.5506578248
5413 1 31.788 14.128 31.788 12 11.015446192 1.766 8.5439813261
5414 1 33.554 15.894 31.788 12 11.015446192 1.766 8.7029723439
5415 1 33.554 14.128 33.554 12 11.015446192 1.766 10.5428026167
5416 1 31.788 15.894 33.554 12 11.015446192 1.766 8.5130497805
5417 1 35.32 14.128 31.788 12 11.015446192 1.766 10.9036821003
5418 1 37.086 15.894 31.788 12 11.015446192 1.766 11.2893732809
5419 1 37.086 14.128 33.554 12 11.015446192 1.766 12.9342557968
5420 1 35.32 15.894 33.554 12 11.015446192 1.766 10.7910104724
5421 1 38.852 14.128 31.788 12 11.015446192 1.766 13.487528419
5422 1 40.618 15.894 31.788 12 11.015446192 1.766 14.2598875305
5423 1 40.618 14.128 33.554 12 11.015446192 1.766 15.6127864429
5424 1 38.852 15.894 33.554 12 11.015446192 1.766 13.443241546
5425 1 0.0 17.66 31.788 12 11.015446192 1.766 15.3787688594
5426 1 1.766 19.426 31.788 12 11.015446192 1.766 16.7721646605
5427 1 1.766 17.66 33.554 12 11.015446192 1.766 17.5590561715
5428 1 0.0 19.426 33.554 12 11.015446192 1.766 15.6523279899
5429 1 3.532 17.66 31.788 12 11.015446192 1.766 18.6891539827
5430 1 5.298 19.426 31.788 12 11.015446192 1.766 16.7450847788
5431 1 5.298 17.66 33.554 12 11.015446192 1.766 17.5703762206
5432 1 3.532 19.426 33.554 12 11.015446192 1.766 18.9476374246
5433 1 7.064 17.66 31.788 12 11.015446192 1.766 15.3615902459
5434 1 8.83 19.426 31.788 12 11.015446192 1.766 13.3996899085
5435 1 8.83 17.66 33.554 12 11.015446192 1.766 14.4177649422
5436 1 7.064 19.426 33.554 12 11.015446192 1.766 15.6745579002
5437 1 10.596 17.66 31.788 12 11.015446192 1.766 12.1499864032
5438 1 12.362 19.426 31.788 12 11.015446192 1.766 10.1811376103
5439 1 12.362 17.66 33.554 12 11.015446192 1.766 11.4880729161
5440 1 10.596 19.426 33.554 12 11.015446192 1.766 12.542751483
5441 1 14.128 17.66 31.788 12 11.015446192 1.766 9.176906926
5442 1 15.894 19.426 31.788 12 11.015446192 1.766 7.2601297809
5443 1 15.894 17.66 33.554 12 11.015446192 1.766 8.9353260981
5444 1 14.128 19.426 33.554 12 11.015446192 1.766 9.6901760644
5445 1 17.66 17.66 31.788 12 11.015446192 1.766 6.611054843
5446 1 19.426 19.426 31.788 12 11.015446192 1.766 4.8855844012
5447 1 19.426 17.66 33.554 12 11.015446192 1.766 6.552296285
5448 1 17.66 19.426 33.554 12 11.015446192 1.766 7.3397203059
5449 1 21.192 17.66 31.788 12 11.015446192 1.766 4.2813798774
5450 1 22.958 19.426 31.788 12 11.015446192 1.766 2.6118220387
5451 1 22.958 17.66 33.554 12 11.015446192 1.766 4.7505856808
5452 1 21.192 19.426 33.554 12 11.015446192 1.766 4.8455446648
5453 1 24.724 17.66 31.788 12 11.015446192 1.766 3.0630884744
5454 1 26.49 19.426 31.788 12 11.015446192 1.766 2.6320761441
5455 1 26.49 17.66 33.554 12 11.015446192 1.766 4.7287697658
5456 1 24.724 19.426 33.554 12 11.015446192 1.766 3.7531034007
5457 1 28.256 17.66 31.788 12 11.015446192 1.766 4.436330249
5458 1 30.022 19.426 31.788 12 11.015446192 1.766 4.8763566552
5459 1 30.022 17.66 33.554 12 11.015446192 1.766 6.7017997824
5460 1 28.256 19.426 33.554 12 11.015446192 1.766 4.9270182085
5461 1 31.788 17.66 31.788 12 11.015446192 1.766 6.5977142592
5462 1 33.554 19.426 31.788 12 11.015446192 1.766 7.1453430044
5463 1 33.554 17.66 33.554 12 11.015446192 1.766 8.8357723424
5464 1 31.788 19.426 33.554 12 11.015446192 1.766 7.2229400356
5465 1 35.32 17.66 31.788 12 11.015446192 1.766 9.1210442812
5466 1 37.086 19.426 31.788 12 11.015446192 1.766 10.1417818405
5467 1 37.086 17.66 33.554 12 11.015446192 1.766 11.3960820081
5468 1 35.32 19.426 33.554 12 11.015446192 1.766 9.5653359066
5469 1 38.852 17.66 31.788 12 11.015446192 1.766 12.1436520466
5470 1 40.618 19.426 31.788 12 11.015446192 1.766 13.4017013528
5471 1 40.618 17.66 33.554 12 11.015446192 1.766 14.3743015616
5472 1 38.852 19.426 33.554 12 11.015446192 1.766 12.4808047519
5473 1 0.0 21.192 31.788 12 11.015446192 1.766 14.9739085502
5474 1 1.766 22.958 31.788 12 11.015446192 1.766 16.7721584595
5475 1 1.766 21.192 33.554 12 11.015446192 1.766 17.2001517907
5476 1 0.0 22.958 33.554 12 11.015446192 1.766 15.6523213453
5477 1 3.532 21.192 31.788 12 11.015446192 1.766 18.3556590644
5478 1 5.298 22.958 31.788 12 11.015446192 1.766 16.7374244292
5479 1 5.298 21.192 33.554 12 11.015446192 1.766 17.2042613561
5480 1 3.532 22.958 33.554 12 11.015446192 1.766 18.9408678853
5481 1 7.064 21.192 31.788 12 11.015446192 1.766 14.9535621536
5482 1 8.83 22.958 31.788 12 11.015446192 1.766 13.3901158291
5483 1 8.83 21.192 33.554 12 11.015446192 1.766 13.9692674899
5484 1 7.064 22.958 33.554 12 11.015446192 1.766 15.6663741064
5485 1 10.596 21.192 31.788 12 11.015446192 1.766 11.6291818491
5486 1 12.362 22.958 31.788 12 11.015446192 1.766 10.1685335872
5487 1 12.362 21.192 33.554 12 11.015446192 1.766 10.9199041937
5488 1 10.596 22.958 33.554 12 11.015446192 1.766 12.5325227723
5489 1 14.128 21.192 31.788 12 11.015446192 1.766 8.4744774396
5490 1 15.894 22.958 31.788 12 11.015446192 1.766 7.2424441116
5491 1 15.894 21.192 33.554 12 11.015446192 1.766 8.264274257
5492 1 14.128 22.958 33.554 12 11.015446192 1.766 9.6769325943
5493 1 17.66 21.192 31.788 12 11.015446192 1.766 5.7745747264
5494 1 19.426 22.958 31.788 12 11.015446192 1.766 4.8683999115
5495 1 19.426 21.192 33.554 12 11.015446192 1.766 5.7901891084
5496 1 17.66 22.958 33.554 12 11.015446192 1.766 7.3248336868
5497 1 21.192 21.192 31.788 12 11.015446192 1.766 3.3321296438
5498 1 22.958 22.958 31.788 12 11.015446192 1.766 2.6096469655
5499 1 22.958 21.192 33.554 12 11.015446192 1.766 3.6690238458
5500 1 21.192 22.958 33.554 12 11.015446192 1.766 4.8485794614
5501 1 24.724 21.192 31.788 12 11.015446192 1.766 1.801690404
5502 1 26.49 22.958 31.788 12 11.015446192 1.766 2.633815203
5503 1 26.49 21.192 33.554 12 11.015446192 1.766 3.792722853
5504 1 24.724 22.958 33.554 12 11.015446192 1.766 3.7481356327
5505 1 28.256 21.192 31.788 12 11.015446192 1.766 3.3756725812
5506 1 30.022 22.958 31.788 12 11.015446192 1.766 4.8820557681
5507 1 30.022 21.192 33.554 12 11.015446192 1.766 5.846229188
5508 1 28.256 22.958 33.554 12 11.015446192 1.766 4.9282485662
5509 1 31.788 21.192 31.788 12 11.015446192 1.766 5.6029838945
5510 1 33.554 22.958 31.788 12 11.015446192 1.766 7.1453284489
5511 1 33.554 21.192 33.554 12 11.015446192 1.766 8.0991135859
5512 1 31.788 22.958 33.554 12 11.015446192 1.766 7.2229256364
5513 1 35.32 21.192 31.788 12 11.015446192 1.766 8.4094123915
5514 1 37.086 22.958 31.788 12 11.015446192 1.766 10.1417715854
5515 1 37.086 21.192 33.554 12 11.015446192 1.766 10.8349182335
5516 1 35.32 22.958 33.554 12 11.015446192 1.766 9.5653250335
5517 1 38.852 21.192 31.788 12 11.015446192 1.766 11.6186510844
5518 1 40.618 22.958 31.788 12 11.015446192 1.766 13.4016935922
5519 1 40.618 21.192 33.554 12 11.015446192 1.766 13.9336037469
5520 1 38.852 22.958 33.554 12 11.015446192 1.766 12.4807964188
5521 1 0.0 24.724 31.788 12 11.015446192 1.766 15.3823561549
5522 1 1.766 26.49 31.788 12 11.015446192 1.766 17.4414236923
5523 1 1.766 24.724 33.554 12 11.015446192 1.766 17.5590443252
5524 1 0.0 26.49 33.554 12 11.015446192 1.766 16.4300031493
5525 1 3.532 24.724 31.788 12 11.015446192 1.766 18.6338262758
5526 1 5.298 26.49 31.788 12 11.015446192 1.766 17.2154550924
5527 1 5.298 24.724 33.554 12 11.015446192 1.766 17.5401617027
5528 1 3.532 26.49 33.554 12 11.015446192 1.766 19.4403694168
5529 1 7.064 24.724 31.788 12 11.015446192 1.766 15.290614256
5530 1 8.83 26.49 31.788 12 11.015446192 1.766 13.9778243335
5531 1 8.83 24.724 33.554 12 11.015446192 1.766 14.3791419304
5532 1 7.064 26.49 33.554 12 11.015446192 1.766 16.2622451748
5533 1 10.596 24.724 31.788 12 11.015446192 1.766 12.0554565617
5534 1 12.362 26.49 31.788 12 11.015446192 1.766 10.9241613024
5535 1 12.362 24.724 33.554 12 11.015446192 1.766 11.4372163871
5536 1 10.596 26.49 33.554 12 11.015446192 1.766 13.2643628262
5537 1 14.128 24.724 31.788 12 11.015446192 1.766 9.0450498854
5538 1 15.894 26.49 31.788 12 11.015446192 1.766 8.2610577545
5539 1 15.894 24.724 33.554 12 11.015446192 1.766 8.8989623509
5540 1 14.128 26.49 33.554 12 11.015446192 1.766 10.6007580978
5541 1 17.66 24.724 31.788 12 11.015446192 1.766 6.5037261928
5542 1 19.426 26.49 31.788 12 11.015446192 1.766 6.1494937206
5543 1 19.426 24.724 33.554 12 11.015446192 1.766 6.5372698893
5544 1 17.66 26.49 33.554 12 11.015446192 1.766 8.3083963928
5545 1 21.192 24.724 31.788 12 11.015446192 1.766 4.2635736036
5546 1 22.958 26.49 31.788 12 11.015446192 1.766 4.7923713707
5547 1 22.958 24.724 33.554 12 11.015446192 1.766 4.74593066
5548 1 21.192 26.49 33.554 12 11.015446192 1.766 6.4732983359
5549 1 24.724 24.724 31.788 12 11.015446192 1.766 3.0636227825
5550 1 26.49 26.49 31.788 12 11.015446192 1.766 4.8657607748
5551 1 26.49 24.724 33.554 12 11.015446192 1.766 4.729605182
5552 1 24.724 26.49 33.554 12 11.015446192 1.766 5.5537794506
5553 1 28.256 24.724 31.788 12 11.015446192 1.766 4.4443759003
5554 1 30.022 26.49 31.788 12 11.015446192 1.766 6.3726642386
5555 1 30.022 24.724 33.554 12 11.015446192 1.766 6.708976641
5556 1 28.256 26.49 33.554 12 11.015446192 1.766 6.5551677308
5557 1 31.788 24.724 31.788 12 11.015446192 1.766 6.5997585792
5558 1 33.554 26.49 31.788 12 11.015446192 1.766 8.7033837663
5559 1 33.554 24.724 33.554 12 11.015446192 1.766 8.8357488007
5560 1 31.788 26.49 33.554 12 11.015446192 1.766 8.522372985
5561 1 35.32 24.724 31.788 12 11.015446192 1.766 9.1210214758
5562 1 37.086 26.49 31.788 12 11.015446192 1.766 11.2936510956
5563 1 37.086 24.724 33.554 12 11.015446192 1.766 11.3960637554
5564 1 35.32 26.49 33.554 12 11.015446192 1.766 10.7909815581
5565 1 38.852 24.724 31.788 12 11.015446192 1.766 12.1436349176
5566 1 40.618 26.49 31.788 12 11.015446192 1.766 14.2692776095
5567 1 40.618 24.724 33.554 12 11.015446192 1.766 14.3742870907
5568 1 38.852 26.49 33.554 12 11.015446192 1.766 13.4432183363
5569 1 0.0 28.256 31.788 12 11.015446192 1.766 16.4360435356
5570 1 1.766 30.022 31.788 12 11.015446192 1.766 18.6810379823
5571 1 1.766 28.256 33.554 12 11.015446192 1.766 18.5736306045
5572 1 0.0 30.022 33.554 12 11.015446192 1.766 17.8161313322
5573 1 3.532 28.256 31.788 12 11.015446192 1.766 19.2582882011
5574 1 5.298 30.022 31.788 12 11.015446192 1.766 18.2187839851
5575 1 5.298 28.256 33.554 12 11.015446192 1.766 18.2409669843
5576 1 3.532 30.022 33.554 12 11.015446192 1.766 20.3342115392
5577 1 7.064 28.256 31.788 12 11.015446192 1.766 16.0441366081
5578 1 8.83 30.022 31.788 12 11.015446192 1.766 15.1964393513
5579 1 8.83 28.256 33.554 12 11.015446192 1.766 15.2230271492
5580 1 7.064 30.022 33.554 12 11.015446192 1.766 17.3208779796
5581 1 10.596 28.256 31.788 12 11.015446192 1.766 12.9960387257
5582 1 12.362 30.022 31.788 12 11.015446192 1.766 12.4454608601
5583 1 12.362 28.256 33.554 12 11.015446192 1.766 12.4779117903
5584 1 10.596 30.022 33.554 12 11.015446192 1.766 14.5428854443
5585 1 14.128 28.256 31.788 12 11.015446192 1.766 10.2630294563
5586 1 15.894 30.022 31.788 12 11.015446192 1.766 10.1880945757
5587 1 15.894 28.256 33.554 12 11.015446192 1.766 10.2009811221
5588 1 14.128 30.022 33.554 12 11.015446192 1.766 12.1625765407
5589 1 17.66 28.256 31.788 12 11.015446192 1.766 8.1430832454
5590 1 19.426 30.022 31.788 12 11.015446192 1.766 8.4897155511
5591 1 19.426 28.256 33.554 12 11.015446192 1.766 8.3021880971
5592 1 17.66 30.022 33.554 12 11.015446192 1.766 10.3191079368
5593 1 21.192 28.256 31.788 12 11.015446192 1.766 6.5577726651
5594 1 22.958 30.022 31.788 12 11.015446192 1.766 7.2350915881
5595 1 22.958 28.256 33.554 12 11.015446192 1.766 7.1879430468
5596 1 21.192 30.022 33.554 12 11.015446192 1.766 8.8907283917
5597 1 24.724 28.256 31.788 12 11.015446192 1.766 5.782668401
5598 1 26.49 30.022 31.788 12 11.015446192 1.766 7.2337650167
5599 1 26.49 28.256 33.554 12 11.015446192 1.766 7.1861045458
5600 1 24.724 30.022 33.554 12 11.015446192 1.766 8.2682691933
5601 1 28.256 28.256 31.788 12 11.015446192 1.766 6.6818867502
5602 1 30.022 30.022 31.788 12 11.015446192 1.766 8.6232832094
5603 1 30.022 28.256 33.554 12 11.015446192 1.766 8.5243513293
5604 1 28.256 30.022 33.554 12 11.015446192 1.766 8.9787920109
5605 1 31.788 28.256 31.788 12 11.015446192 1.766 8.5104644425
5606 1 33.554 30.022 31.788 12 11.015446192 1.766 10.7074924296
5607 1 33.554 28.256 33.554 12 11.015446192 1.766 10.5461365424
5608 1 31.788 30.022 33.554 12 11.015446192 1.766 10.5267905095
5609 1 35.32 28.256 31.788 12 11.015446192 1.766 10.9107934341
5610 1 37.086 30.022 31.788 12 11.015446192 1.766 13.1562343964
5611 1 37.086 28.256 33.554 12 11.015446192 1.766 12.9342619855
5612 1 35.32 30.022 33.554 12 11.015446192 1.766 12.7325107211
5613 1 38.852 28.256 31.788 12 11.015446192 1.766 13.4980068456
5614 1 40.618 30.022 31.788 12 11.015446192 1.766 15.7657482472
5615 1 40.618 28.256 33.554 12 11.015446192 1.766 15.6164948013
5616 1 38.852 30.022 33.554 12 11.015446192 1.766 15.1457025243
5617 1 0.0 31.788 31.788 12 11.015446192 1.766 18.0941004414
5618 1 1.766 33.554 31.788 12 11.015446192 1.766 20.4623837266
5619 1 1.766 31.788 33.554 12 11.015446192 1.766 20.0621459629
5620 1 0.0 33.554 33.554 12 11.015446192 1.766 19.6759371651
5621 1 3.532 31.788 31.788 12 11.015446192 1.766 20.4672637227
5622 1 5.298 33.554 31.788 12 11.015446192 1.766 19.8097535006
5623 1 5.298 31.788 33.554 12 11.015446192 1.766 19.5130750109
5624 1 3.532 33.554 33.554 12 11.015446192 1.766 21.7711369198
5625 1 7.064 31.788 31.788 12 11.015446192 1.766 17.4768858598
5626 1 8.83 33.554 31.788 12 11.015446192 1.766 17.0714385105
5627 1 8.83 31.788 33.554 12 11.015446192 1.766 16.7262600555
5628 1 7.064 33.554 33.554 12 11.015446192 1.766 18.9872340756
5629 1 10.596 31.788 31.788 12 11.015446192 1.766 14.7283482583
5630 1 12.362 33.554 31.788 12 11.015446192 1.766 14.6762304384
5631 1 12.362 31.788 33.554 12 11.015446192 1.766 14.273244288
5632 1 10.596 33.554 33.554 12 11.015446192 1.766 16.4923546198
5633 1 14.128 31.788 31.788 12 11.015446192 1.766 12.3837390751
5634 1 15.894 33.554 31.788 12 11.015446192 1.766 12.6347647292
5635 1 15.894 31.788 33.554 12 11.015446192 1.766 12.3423130165
5636 1 14.128 33.554 33.554 12 11.015446192 1.766 14.42701692
5637 1 17.66 31.788 31.788 12 11.015446192 1.766 10.4934426361
5638 1 19.426 33.554 31.788 12 11.015446192 1.766 11.1069128977
5639 1 19.426 31.788 33.554 12 11.015446192 1.766 10.7888937915
5640 1 17.66 33.554 33.554 12 11.015446192 1.766 12.7204528876
5641 1 21.192 31.788 31.788 12 11.015446192 1.766 9.1328895645
5642 1 22.958 33.554 31.788 12 11.015446192 1.766 10.130003614
5643 1 22.958 31.788 33.554 12 11.015446192 1.766 9.6700095091
5644 1 21.192 33.554 33.554 12 11.015446192 1.766 11.4511534946
5645 1 24.724 31.788 31.788 12 11.015446192 1.766 8.4400623676
5646 1 26.49 33.554 31.788 12 11.015446192 1.766 10.1290561875
5647 1 26.49 31.788 33.554 12 11.015446192 1.766 9.6690170097
5648 1 24.724 33.554 33.554 12 11.015446192 1.766 10.8919556732
5649 1 28.256 31.788 31.788 12 11.015446192 1.766 9.1482502588
5650 1 30.022 33.554 31.788 12 11.015446192 1.766 11.2157054192
5651 1 30.022 31.788 33.554 12 11.015446192 1.766 10.8639696059
5652 1 28.256 33.554 33.554 12 11.015446192 1.766 11.4494772114
5653 1 31.788 31.788 31.788 12 11.015446192 1.766 10.6868577863
5654 1 33.554 33.554 31.788 12 11.015446192 1.766 12.9034648346
5655 1 33.554 31.788 33.554 12 11.015446192 1.766 12.6153557127
5656 1 31.788 33.554 33.554 12 11.015446192 1.766 12.8401371736
5657 1 35.32 31.788 31.788 12 11.015446192 1.766 12.9364392548
5658 1 37.086 33.554 31.788 12 11.015446192 1.766 15.2353851276
5659 1 37.086 31.788 33.554 12 11.015446192 1.766 14.9672397404
5660 1 35.32 33.554 33.554 12 11.015446192 1.766 14.7652177053
5661 1 38.852 31.788 31.788 12 11.015446192 1.766 15.4741439984
5662 1 40.618 33.554 31.788 12 11.015446192 1.766 17.8405937534
5663 1 40.618 31.788 33.554 12 11.015446192 1.766 17.3800845319
5664 1 38.852 33.554 33.554 12 11.015446192 1.766 17.207679241
5665 1 0.0 35.32 31.788 12 11.015446192 1.766 20.2385637451
5666 1 1.766 37.086 31.788 12 11.015446192 1.766 22.6580485359
5667 1 1.766 35.32 33.554 12 11.015446192 1.766 22.0157373785
5668 1 0.0 37.086 33.554 12 11.015446192 1.766 21.8067725242
5669 1 3.532 35.32 31.788 12 11.015446192 1.766 22.1785065357
5670 1 5.298 37.086 31.788 12 11.015446192 1.766 21.8604351653
5671 1 5.298 35.32 33.554 12 11.015446192 1.766 21.3011118076
5672 1 3.532 37.086 33.554 12 11.015446192 1.766 23.6523718608
5673 1 7.064 35.32 31.788 12 11.015446192 1.766 19.452989673
5674 1 8.83 37.086 31.788 12 11.015446192 1.766 19.4135598146
5675 1 8.83 35.32 33.554 12 11.015446192 1.766 18.7815080146
5676 1 7.064 37.086 33.554 12 11.015446192 1.766 21.1179390496
5677 1 10.596 35.32 31.788 12 11.015446192 1.766 17.0264943626
5678 1 12.362 37.086 31.788 12 11.015446192 1.766 17.2079119759
5679 1 12.362 35.32 33.554 12 11.015446192 1.766 16.6253415611
5680 1 10.596 37.086 33.554 12 11.015446192 1.766 18.8981488845
5681 1 14.128 35.32 31.788 12 11.015446192 1.766 14.8874861936
5682 1 15.894 37.086 31.788 12 11.015446192 1.766 15.3277887383
5683 1 15.894 35.32 33.554 12 11.015446192 1.766 14.7506515218
5684 1 14.128 37.086 33.554 12 11.015446192 1.766 16.9061881488
5685 1 17.66 35.32 31.788 12 11.015446192 1.766 13.1507088099
5686 1 19.426 37.086 31.788 12 11.015446192 1.766 14.0946313765
5687 1 19.426 35.32 33.554 12 11.015446192 1.766 13.4159093532
5688 1 17.66 37.086 33.554 12 11.015446192 1.766 15.3988017312
5689 1 21.192 35.32 31.788 12 11.015446192 1.766 12.0903019466
5690 1 22.958 37.086 31.788 12 11.015446192 1.766 13.3355706347
5691 1 22.958 35.32 33.554 12 11.015446192 1.766 12.5001812322
5692 1 21.192 37.086 33.554 12 11.015446192 1.766 14.3648664209
5693 1 24.724 35.32 31.788 12 11.015446192 1.766 11.5749773089
5694 1 26.49 37.086 31.788 12 11.015446192 1.766 13.3348509621
5695 1 26.49 35.32 33.554 12 11.015446192 1.766 12.4994134609
5696 1 24.724 37.086 33.554 12 11.015446192 1.766 13.923188188
5697 1 28.256 35.32 31.788 12 11.015446192 1.766 12.101071429
5698 1 30.022 37.086 31.788 12 11.015446192 1.766 14.2084038832
5699 1 30.022 35.32 33.554 12 11.015446192 1.766 13.4575953333
5700 1 28.256 37.086 33.554 12 11.015446192 1.766 14.363530184
5701 1 31.788 35.32 31.788 12 11.015446192 1.766 13.3462493938
5702 1 33.554 37.086 31.788 12 11.015446192 1.766 15.5848603547
5703 1 33.554 35.32 33.554 12 11.015446192 1.766 14.9464748362
5704 1 31.788 37.086 33.554 12 11.015446192 1.766 15.5324689014
5705 1 35.32 35.32 31.788 12 11.015446192 1.766 15.2073963627
5706 1 37.086 37.086 31.788 12 11.015446192 1.766 17.5643225752
5707 1 37.086 35.32 33.554 12 11.015446192 1.766 17.0004313262
5708 1 35.32 37.086 33.554 12 11.015446192 1.766 17.15809201
5709 1 38.852 35.32 31.788 12 11.015446192 1.766 17.5885611515
5710 1 40.618 37.086 31.788 12 11.015446192 1.766 19.9768123277
5711 1 40.618 35.32 33.554 12 11.015446192 1.766 19.4828711572
5712 1 38.852 37.086 33.554 12 11.015446192 1.766 19.3000699655
5713 1 0.0 38.852 31.788 12 11.015446192 1.766 22.3889169494
5714 1 1.766 40.618 31.788 12 11.015446192 1.766 24.8179208952
5715 1 1.766 38.852 33.554 12 11.015446192 1.766 24.16533491
5716 1 0.0 40.618 33.554 12 11.015446192 1.766 24.0181981726
5717 1 3.532 38.852 31.788 12 11.015446192 1.766 24.2860755993
5718 1 5.298 40.618 31.788 12 11.015446192 1.766 24.2481392541
5719 1 5.298 38.852 33.554 12 11.015446192 1.766 23.4875430835
5720 1 3.532 40.618 33.554 12 11.015446192 1.766 25.8812100664
5721 1 7.064 38.852 31.788 12 11.015446192 1.766 21.8253549306
5722 1 8.83 40.618 31.788 12 11.015446192 1.766 21.9655932171
5723 1 8.83 38.852 33.554 12 11.015446192 1.766 21.2215212677
5724 1 7.064 40.618 33.554 12 11.015446192 1.766 23.5805170213
5725 1 10.596 38.852 31.788 12 11.015446192 1.766 19.5719760876
5726 1 12.362 40.618 31.788 12 11.015446192 1.766 19.9089454873
5727 1 12.362 38.852 33.554 12 11.015446192 1.766 19.1450176058
5728 1 10.596 40.618 33.554 12 11.015446192 1.766 21.4410639785
5729 1 14.128 38.852 31.788 12 11.015446192 1.766 17.5902273155
5730 1 15.894 40.618 31.788 12 11.015446192 1.766 18.3083309849
5731 1 15.894 38.852 33.554 12 11.015446192 1.766 17.4745692983
5732 1 14.128 40.618 33.554 12 11.015446192 1.766 19.6487422897
5733 1 17.66 38.852 31.788 12 11.015446192 1.766 16.1468261292
5734 1 19.426 40.618 31.788 12 11.015446192 1.766 17.288815328
5735 1 19.426 38.852 33.554 12 11.015446192 1.766 16.3622239085
5736 1 17.66 40.618 33.554 12 11.015446192 1.766 18.3678243296
5737 1 21.192 38.852 31.788 12 11.015446192 1.766 15.2934794212
5738 1 22.958 40.618 31.788 12 11.015446192 1.766 16.6735707959
5739 1 22.958 38.852 33.554 12 11.015446192 1.766 15.6188996338
5740 1 21.192 40.618 33.554 12 11.015446192 1.766 17.507709908
5741 1 24.724 38.852 31.788 12 11.015446192 1.766 14.8887741146
5742 1 26.49 40.618 31.788 12 11.015446192 1.766 16.6729952053
5743 1 26.49 38.852 33.554 12 11.015446192 1.766 15.6182851748
5744 1 24.724 40.618 33.554 12 11.015446192 1.766 17.1471772678
5745 1 28.256 38.852 31.788 12 11.015446192 1.766 15.3013536873
5746 1 30.022 40.618 31.788 12 11.015446192 1.766 17.3959547819
5747 1 30.022 38.852 33.554 12 11.015446192 1.766 16.3970023428
5748 1 28.256 40.618 33.554 12 11.015446192 1.766 17.5066135583
5749 1 31.788 38.852 31.788 12 11.015446192 1.766 16.3397020909
5750 1 33.554 40.618 31.788 12 11.015446192 1.766 18.5533389936
5751 1 33.554 38.852 33.554 12 11.015446192 1.766 17.6708970221
5752 1 31.788 40.618 33.554 12 11.015446192 1.766 18.5063521523
5753 1 35.32 38.852 31.788 12 11.015446192 1.766 17.8921322281
5754 1 37.086 40.618 31.788 12 11.015446192 1.766 20.2446028132
5755 1 37.086 38.852 33.554 12 11.015446192 1.766 19.4390883741
5756 1 35.32 40.618 33.554 12 11.015446192 1.766 19.8931806647
5757 1 38.852 38.852 31.788 12 11.015446192 1.766 19.9554748106
5758 1 40.618 40.618 31.788 12 11.015446192 1.766 22.3698803374
5759 1 40.618 38.852 33.554 12 11.015446192 1.766 21.6436078338
5760 1 38.852 40.618 33.554 12 11.015446192 1.766 21.7676644638
5761 1 0.0 0.0 35.32 12 11.015446192 1.766 25.7868010569
5762 1 1.766 1.766 35.32 12 11.015446192 1.766 26.1063709216
5763 1 1.766 0.0 37.086 12 11.015446192 1.766 27.5705266888
5764 1 0.0 1.766 37.086 12 11.015446192 1.766 25.5465678088
5765 1 3.532 0.0 35.32 12 11.015446192 1.766 27.5975817845
5766 1 5.298 1.766 35.32 12 11.015446192 1.766 25.314253856
5767 1 5.298 0.0 37.086 12 11.015446192 1.766 27.1415154528
5768 1 3.532 1.766 37.086 12 11.015446192 1.766 27.2279394442
5769 1 7.064 0.0 35.32 12 11.015446192 1.766 25.419278562
5770 1 8.83 1.766 35.32 12 11.015446192 1.766 23.1901238156
5771 1 8.83 0.0 37.086 12 11.015446192 1.766 25.1180587467
5772 1 7.064 1.766 37.086 12 11.015446192 1.766 25.0368461228
5773 1 10.596 0.0 35.32 12 11.015446192 1.766 23.4275740333
5774 1 12.362 1.766 35.32 12 11.015446192 1.766 21.2806630015
5775 1 12.362 0.0 37.086 12 11.015446192 1.766 23.3408590296
5776 1 10.596 1.766 37.086 12 11.015446192 1.766 23.0215100442
5777 1 14.128 0.0 35.32 12 11.015446192 1.766 21.7991989331
5778 1 15.894 1.766 35.32 12 11.015446192 1.766 19.7199152643
5779 1 15.894 0.0 37.086 12 11.015446192 1.766 21.9764730568
5780 1 14.128 1.766 37.086 12 11.015446192 1.766 21.2960874567
5781 1 17.66 0.0 35.32 12 11.015446192 1.766 20.6103258582
5782 1 19.426 1.766 35.32 12 11.015446192 1.766 18.5881179695
5783 1 19.426 0.0 37.086 12 11.015446192 1.766 20.8678779313
5784 1 17.66 1.766 37.086 12 11.015446192 1.766 19.9253518874
5785 1 21.192 0.0 35.32 12 11.015446192 1.766 19.754851737
5786 1 22.958 1.766 35.32 12 11.015446192 1.766 17.9105753006
5787 1 22.958 0.0 37.086 12 11.015446192 1.766 20.2652988711
5788 1 21.192 1.766 37.086 12 11.015446192 1.766 18.9674815882
5789 1 24.724 0.0 35.32 12 11.015446192 1.766 19.4407613054
5790 1 26.49 1.766 35.32 12 11.015446192 1.766 17.9151546066
5791 1 26.49 0.0 37.086 12 11.015446192 1.766 20.2693461986
5792 1 24.724 1.766 37.086 12 11.015446192 1.766 18.6401285076
5793 1 28.256 0.0 35.32 12 11.015446192 1.766 19.7631546347
5794 1 30.022 1.766 35.32 12 11.015446192 1.766 18.6028726158
5795 1 30.022 0.0 37.086 12 11.015446192 1.766 20.8796671501
5796 1 28.256 1.766 37.086 12 11.015446192 1.766 18.9761289984
5797 1 31.788 0.0 35.32 12 11.015446192 1.766 20.6923031608
5798 1 33.554 1.766 35.32 12 11.015446192 1.766 19.9030405351
5799 1 33.554 0.0 37.086 12 11.015446192 1.766 22.0459668257
5800 1 31.788 1.766 37.086 12 11.015446192 1.766 19.9419808631
5801 1 35.32 0.0 35.32 12 11.015446192 1.766 21.9959974143
5802 1 37.086 1.766 35.32 12 11.015446192 1.766 21.6402060856
5803 1 37.086 0.0 37.086 12 11.015446192 1.766 23.5382388338
5804 1 35.32 1.766 37.086 12 11.015446192 1.766 21.4527801864
5805 1 38.852 0.0 35.32 12 11.015446192 1.766 23.7047776092
5806 1 40.618 1.766 35.32 12 11.015446192 1.766 23.716513921
5807 1 40.618 0.0 37.086 12 11.015446192 1.766 25.3892948041
5808 1 38.852 1.766 37.086 12 11.015446192 1.766 23.3767691306
5809 1 0.0 3.532 35.32 12 11.015446192 1.766 23.7625203914
5810 1 1.766 5.298 35.32 12 11.015446192 1.766 23.7230764065
5811 1 1.766 3.532 37.086 12 11.015446192 1.766 25.5514570739
5812 1 0.0 5.298 37.086 12 11.015446192 1.766 23.2632174295
5813 1 3.532 3.532 35.32 12 11.015446192 1.766 25.4337389198
5814 1 5.298 5.298 35.32 12 11.015446192 1.766 23.1487615416
5815 1 5.298 3.532 37.086 12 11.015446192 1.766 24.9798684446
5816 1 3.532 5.298 37.086 12 11.015446192 1.766 25.135088542
5817 1 7.064 3.532 35.32 12 11.015446192 1.766 23.0709794234
5818 1 8.83 5.298 35.32 12 11.015446192 1.766 20.851728809
5819 1 8.83 3.532 37.086 12 11.015446192 1.766 22.8570950474
5820 1 7.064 5.298 37.086 12 11.015446192 1.766 22.7709046239
5821 1 10.596 3.532 35.32 12 11.015446192 1.766 20.9891311082
5822 1 12.362 5.298 35.32 12 11.015446192 1.766 18.8042114671
5823 1 12.362 3.532 37.086 12 11.015446192 1.766 20.8778779446
5824 1 10.596 5.298 37.086 12 11.015446192 1.766 20.7109318121
5825 1 14.128 3.532 35.32 12 11.015446192 1.766 19.1049729793
5826 1 15.894 5.298 35.32 12 11.015446192 1.766 17.0154686319
5827 1 15.894 3.532 37.086 12 11.015446192 1.766 19.2380948493
5828 1 14.128 5.298 37.086 12 11.015446192 1.766 18.8070974412
5829 1 17.66 3.532 35.32 12 11.015446192 1.766 17.6659621735
5830 1 19.426 5.298 35.32 12 11.015446192 1.766 15.6174516015
5831 1 19.426 3.532 37.086 12 11.015446192 1.766 17.9254958443
5832 1 17.66 5.298 37.086 12 11.015446192 1.766 17.1859381102
5833 1 21.192 3.532 35.32 12 11.015446192 1.766 16.61653511
5834 1 22.958 5.298 35.32 12 11.015446192 1.766 14.8026620413
5835 1 22.958 3.532 37.086 12 11.015446192 1.766 17.2202616195
5836 1 21.192 5.298 37.086 12 11.015446192 1.766 16.0653494736
5837 1 24.724 3.532 35.32 12 11.015446192 1.766 16.2418678742
5838 1 26.49 5.298 35.32 12 11.015446192 1.766 14.8082024733
5839 1 26.49 3.532 37.086 12 11.015446192 1.766 17.2250244478
5840 1 24.724 5.298 37.086 12 11.015446192 1.766 15.6775153226
5841 1 28.256 3.532 35.32 12 11.015446192 1.766 16.6264052947
5842 1 30.022 5.298 35.32 12 11.015446192 1.766 15.633200743
5843 1 30.022 3.532 37.086 12 11.015446192 1.766 17.9392188294
5844 1 28.256 5.298 37.086 12 11.015446192 1.766 16.0755580828
5845 1 31.788 3.532 35.32 12 11.015446192 1.766 17.720792364
5846 1 33.554 5.298 35.32 12 11.015446192 1.766 17.1598694183
5847 1 33.554 3.532 37.086 12 11.015446192 1.766 19.2841832907
5848 1 31.788 5.298 37.086 12 11.015446192 1.766 17.2050195191
5849 1 35.32 3.532 35.32 12 11.015446192 1.766 19.396199152
5850 1 37.086 5.298 35.32 12 11.015446192 1.766 19.1688266626
5851 1 37.086 3.532 37.086 12 11.015446192 1.766 21.1398600891
5852 1 35.32 5.298 37.086 12 11.015446192 1.766 18.9354660264
5853 1 38.852 3.532 35.32 12 11.015446192 1.766 21.4213530974
5854 1 40.618 5.298 35.32 12 11.015446192 1.766 21.4307558709
5855 1 40.618 3.532 37.086 12 11.015446192 1.766 23.2622565986
5856 1 38.852 5.298 37.086 12 11.015446192 1.766 21.0034089255
5857 1 0.0 7.064 35.32 12 11.015446192 1.766 21.425145174
5858 1 1.766 8.83 35.32 12 11.015446192 1.766 21.6349650132
5859 1 1.766 7.064 37.086 12 11.015446192 1.766 23.3783767208
5860 1 0.0 8.83 37.086 12 11.015446192 1.766 21.1749581412
5861 1 3.532 7.064 35.32 12 11.015446192 1.766 23.4495526912
5862 1 5.298 8.83 35.32 12 11.015446192 1.766 21.2282666107
5863 1 5.298 7.064 37.086 12 11.015446192 1.766 22.9410755174
5864 1 3.532 8.83 37.086 12 11.015446192 1.766 23.3783407966
5865 1 7.064 7.064 35.32 12 11.015446192 1.766 20.8955244679
5866 1 8.83 8.83 35.32 12 11.015446192 1.766 18.7044312576
5867 1 8.83 7.064 37.086 12 11.015446192 1.766 20.6278789813
5868 1 7.064 8.83 37.086 12 11.015446192 1.766 20.8155768543
5869 1 10.596 7.064 35.32 12 11.015446192 1.766 18.6631833341
5870 1 12.362 8.83 35.32 12 11.015446192 1.766 16.5360750078
5871 1 12.362 7.064 37.086 12 11.015446192 1.766 18.5900711664
5872 1 10.596 8.83 37.086 12 11.015446192 1.766 18.5396561043
5873 1 14.128 7.064 35.32 12 11.015446192 1.766 16.673124616
5874 1 15.894 8.83 35.32 12 11.015446192 1.766 14.584942296
5875 1 15.894 7.064 37.086 12 11.015446192 1.766 16.7617572908
5876 1 14.128 8.83 37.086 12 11.015446192 1.766 16.4701080664
5877 1 17.66 7.064 35.32 12 11.015446192 1.766 14.9598865787
5878 1 19.426 8.83 35.32 12 11.015446192 1.766 12.9300014863
5879 1 19.426 7.064 37.086 12 11.015446192 1.766 15.2357645418
5880 1 17.66 8.83 37.086 12 11.015446192 1.766 14.7518920467
5881 1 21.192 7.064 35.32 12 11.015446192 1.766 13.6716626265
5882 1 22.958 8.83 35.32 12 11.015446192 1.766 11.9331030088
5883 1 22.958 7.064 37.086 12 11.015446192 1.766 14.3993933954
5884 1 21.192 8.83 37.086 12 11.015446192 1.766 13.4675757885
5885 1 24.724 7.064 35.32 12 11.015446192 1.766 13.2137576773
5886 1 26.49 8.83 35.32 12 11.015446192 1.766 11.9399750586
5887 1 26.49 7.064 37.086 12 11.015446192 1.766 14.4050889319
5888 1 24.724 8.83 37.086 12 11.015446192 1.766 13.0024855547
5889 1 28.256 7.064 35.32 12 11.015446192 1.766 13.6836571477
5890 1 30.022 8.83 35.32 12 11.015446192 1.766 12.9490196301
5891 1 30.022 7.064 37.086 12 11.015446192 1.766 15.251907819
5892 1 28.256 8.83 37.086 12 11.015446192 1.766 13.479751911
5893 1 31.788 7.064 35.32 12 11.015446192 1.766 14.9943856799
5894 1 33.554 8.83 35.32 12 11.015446192 1.766 14.7345959219
5895 1 33.554 7.064 37.086 12 11.015446192 1.766 16.8132342248
5896 1 31.788 8.83 37.086 12 11.015446192 1.766 14.8085394473
5897 1 35.32 7.064 35.32 12 11.015446192 1.766 16.9353298632
5898 1 37.086 8.83 35.32 12 11.015446192 1.766 16.8271483276
5899 1 37.086 7.064 37.086 12 11.015446192 1.766 18.7803194015
5900 1 35.32 8.83 37.086 12 11.015446192 1.766 16.6307239521
5901 1 38.852 7.064 35.32 12 11.015446192 1.766 19.1155007319
5902 1 40.618 8.83 35.32 12 11.015446192 1.766 19.1679759429
5903 1 40.618 7.064 37.086 12 11.015446192 1.766 21.0008313596
5904 1 38.852 8.83 37.086 12 11.015446192 1.766 18.7763912174
5905 1 0.0 10.596 35.32 12 11.015446192 1.766 19.4098492232
5906 1 1.766 12.362 35.32 12 11.015446192 1.766 19.9370465722
5907 1 1.766 10.596 37.086 12 11.015446192 1.766 21.4976916462
5908 1 0.0 12.362 37.086 12 11.015446192 1.766 19.3358634662
5909 1 3.532 10.596 35.32 12 11.015446192 1.766 21.8433213547
5910 1 5.298 12.362 35.32 12 11.015446192 1.766 19.7576186238
5911 1 5.298 10.596 37.086 12 11.015446192 1.766 21.2965281744
5912 1 3.532 12.362 37.086 12 11.015446192 1.766 22.048623452
5913 1 7.064 10.596 35.32 12 11.015446192 1.766 19.0754320836
5914 1 8.83 12.362 35.32 12 11.015446192 1.766 17.0170484825
5915 1 8.83 10.596 37.086 12 11.015446192 1.766 18.779219033
5916 1 7.064 12.362 37.086 12 11.015446192 1.766 19.3099479125
5917 1 10.596 10.596 35.32 12 11.015446192 1.766 16.6001077873
5918 1 12.362 12.362 35.32 12 11.015446192 1.766 14.5678535279
5919 1 12.362 10.596 37.086 12 11.015446192 1.766 16.4666535333
5920 1 10.596 12.362 37.086 12 11.015446192 1.766 16.7975645746
5921 1 14.128 10.596 35.32 12 11.015446192 1.766 14.4234307213
5922 1 15.894 12.362 35.32 12 11.015446192 1.766 12.3219829036
5923 1 15.894 10.596 37.086 12 11.015446192 1.766 14.4016068172
5924 1 14.128 12.362 37.086 12 11.015446192 1.766 14.4209762129
5925 1 17.66 10.596 35.32 12 11.015446192 1.766 12.5342627264
5926 1 19.426 12.362 35.32 12 11.015446192 1.766 10.5865819458
5927 1 19.426 10.596 37.086 12 11.015446192 1.766 12.9052875005
5928 1 17.66 12.362 37.086 12 11.015446192 1.766 12.4888546177
5929 1 21.192 10.596 35.32 12 11.015446192 1.766 11.0756276067
5930 1 22.958 12.362 35.32 12 11.015446192 1.766 9.519933788
5931 1 22.958 10.596 37.086 12 11.015446192 1.766 11.9623450069
5932 1 21.192 12.362 37.086 12 11.015446192 1.766 11.1296547897
5933 1 24.724 10.596 35.32 12 11.015446192 1.766 10.5051682454
5934 1 26.49 12.362 35.32 12 11.015446192 1.766 9.5285463901
5935 1 26.49 10.596 37.086 12 11.015446192 1.766 11.9692002676
5936 1 24.724 12.362 37.086 12 11.015446192 1.766 10.5445431824
5937 1 28.256 10.596 35.32 12 11.015446192 1.766 11.090430147
5938 1 30.022 12.362 35.32 12 11.015446192 1.766 10.7277451052
5939 1 30.022 10.596 37.086 12 11.015446192 1.766 12.9759724116
5940 1 28.256 12.362 37.086 12 11.015446192 1.766 11.1110581905
5941 1 31.788 10.596 35.32 12 11.015446192 1.766 12.6436550059
5942 1 33.554 12.362 35.32 12 11.015446192 1.766 12.4833817006
5943 1 33.554 10.596 37.086 12 11.015446192 1.766 14.5921338305
5944 1 31.788 12.362 37.086 12 11.015446192 1.766 12.6414232803
5945 1 35.32 10.596 35.32 12 11.015446192 1.766 14.6032995505
5946 1 37.086 12.362 35.32 12 11.015446192 1.766 14.7624863184
5947 1 37.086 10.596 37.086 12 11.015446192 1.766 16.6258471084
5948 1 35.32 12.362 37.086 12 11.015446192 1.766 14.586286059
5949 1 38.852 10.596 35.32 12 11.015446192 1.766 16.9506103313
5950 1 40.618 12.362 35.32 12 11.015446192 1.766 17.2049649703
5951 1 40.618 10.596 37.086 12 11.015446192 1.766 18.9842460872
5952 1 38.852 12.362 37.086 12 11.015446192 1.766 16.8690423967
5953 1 0.0 14.128 35.32 12 11.015446192 1.766 17.7671919489
5954 1 1.766 15.894 35.32 12 11.015446192 1.766 18.6496762403
5955 1 1.766 14.128 37.086 12 11.015446192 1.766 19.9943846643
5956 1 0.0 15.894 37.086 12 11.015446192 1.766 17.9993142085
5957 1 3.532 14.128 35.32 12 11.015446192 1.766 20.7019599326
5958 1 5.298 15.894 35.32 12 11.015446192 1.766 18.6946504746
5959 1 5.298 14.128 37.086 12 11.015446192 1.766 20.0584608405
5960 1 3.532 15.894 37.086 12 11.015446192 1.766 20.9320387021
5961 1 7.064 14.128 35.32 12 11.015446192 1.766 17.7564260477
5962 1 8.83 15.894 35.32 12 11.015446192 1.766 15.768558851
5963 1 8.83 14.128 37.086 12 11.015446192 1.766 17.3641041946
5964 1 7.064 15.894 37.086 12 11.015446192 1.766 18.0909459658
5965 1 10.596 14.128 35.32 12 11.015446192 1.766 15.065189124
5966 1 12.362 15.894 35.32 12 11.015446192 1.766 13.1349223507
5967 1 12.362 14.128 37.086 12 11.015446192 1.766 14.8571685277
5968 1 10.596 15.894 37.086 12 11.015446192 1.766 15.4566499656
5969 1 14.128 14.128 35.32 12 11.015446192 1.766 12.5730212271
5970 1 15.894 15.894 35.32 12 11.015446192 1.766 10.6503414703
5971 1 15.894 14.128 37.086 12 11.015446192 1.766 12.5111856223
5972 1 14.128 15.894 37.086 12 11.015446192 1.766 13.0168629697
5973 1 17.66 14.128 35.32 12 11.015446192 1.766 10.3263732946
5974 1 19.426 15.894 35.32 12 11.015446192 1.766 8.5727910233
5975 1 19.426 14.128 37.086 12 11.015446192 1.766 10.7305881287
5976 1 17.66 15.894 37.086 12 11.015446192 1.766 10.7934295846
5977 1 21.192 14.128 35.32 12 11.015446192 1.766 8.7871733052
5978 1 22.958 15.894 35.32 12 11.015446192 1.766 7.0898175072
5979 1 22.958 14.128 37.086 12 11.015446192 1.766 9.5098887617
5980 1 21.192 15.894 37.086 12 11.015446192 1.766 9.0644140238
5981 1 24.724 14.128 35.32 12 11.015446192 1.766 8.0484412746
5982 1 26.49 15.894 35.32 12 11.015446192 1.766 7.0752181219
5983 1 26.49 14.128 37.086 12 11.015446192 1.766 9.4990096035
5984 1 24.724 15.894 37.086 12 11.015446192 1.766 8.3355729726
5985 1 28.256 14.128 35.32 12 11.015446192 1.766 8.7775640207
5986 1 30.022 15.894 35.32 12 11.015446192 1.766 8.6402059207
5987 1 30.022 14.128 37.086 12 11.015446192 1.766 10.7226130507
5988 1 28.256 15.894 37.086 12 11.015446192 1.766 9.0415706583
5989 1 31.788 14.128 35.32 12 11.015446192 1.766 10.5212725005
5990 1 33.554 15.894 35.32 12 11.015446192 1.766 10.7647617129
5991 1 33.554 14.128 37.086 12 11.015446192 1.766 12.7014787206
5992 1 31.788 15.894 37.086 12 11.015446192 1.766 10.8969666838
5993 1 35.32 14.128 35.32 12 11.015446192 1.766 12.6756918162
5994 1 37.086 15.894 35.32 12 11.015446192 1.766 13.0138639677
5995 1 37.086 14.128 37.086 12 11.015446192 1.766 14.8725369142
5996 1 35.32 15.894 37.086 12 11.015446192 1.766 13.0493251989
5997 1 38.852 14.128 35.32 12 11.015446192 1.766 15.0481967524
5998 1 40.618 15.894 35.32 12 11.015446192 1.766 15.687909855
5999 1 40.618 14.128 37.086 12 11.015446192 1.766 17.2648634473
6000 1 38.852 15.894 37.086 12 11.015446192 1.766 15.3215674044
6001 1 0.0 17.66 35.32 12 11.015446192 1.766 16.680762265
6002 1 1.766 19.426 35.32 12 11.015446192 1.766 17.9683101003
6003 1 1.766 17.66 37.086 12 11.015446192 1.766 19.0354967914
6004 1 0.0 19.426 37.086 12 11.015446192 1.766 17.2923409626
6005 1 3.532 17.66 35.32 12 11.015446192 1.766 19.8096633487
6006 1 5.298 19.426 35.32 12 11.015446192 1.766 18.008522013
6007 1 5.298 17.66 37.086 12 11.015446192 1.766 19.1076462542
6008 1 3.532 19.426 37.086 12 11.015446192 1.766 20.3273212258
6009 1 7.064 17.66 35.32 12 11.015446192 1.766 16.7406551142
6010 1 8.83 19.426 35.32 12 11.015446192 1.766 14.9486016232
6011 1 8.83 17.66 37.086 12 11.015446192 1.766 16.2559518569
6012 1 7.064 19.426 37.086 12 11.015446192 1.766 17.3803276785
6013 1 10.596 17.66 35.32 12 11.015446192 1.766 13.8520172917
6014 1 12.362 19.426 35.32 12 11.015446192 1.766 12.1476155637
6015 1 12.362 17.66 37.086 12 11.015446192 1.766 13.7227697354
6016 1 10.596 19.426 37.086 12 11.015446192 1.766 14.6186401422
6017 1 14.128 17.66 35.32 12 11.015446192 1.766 11.3151337894
6018 1 15.894 19.426 35.32 12 11.015446192 1.766 9.7961221789
6019 1 15.894 17.66 37.086 12 11.015446192 1.766 11.3049368474
6020 1 14.128 19.426 37.086 12 11.015446192 1.766 12.2534273436
6021 1 17.66 17.66 35.32 12 11.015446192 1.766 8.911816807
6022 1 19.426 19.426 35.32 12 11.015446192 1.766 7.2208044598
6023 1 19.426 17.66 37.086 12 11.015446192 1.766 9.1229802248
6024 1 17.66 19.426 37.086 12 11.015446192 1.766 9.6579374089
6025 1 21.192 17.66 35.32 12 11.015446192 1.766 6.9140958028
6026 1 22.958 19.426 35.32 12 11.015446192 1.766 5.6610591944
6027 1 22.958 17.66 37.086 12 11.015446192 1.766 7.8235154577
6028 1 21.192 19.426 37.086 12 11.015446192 1.766 7.7933418419
6029 1 24.724 17.66 35.32 12 11.015446192 1.766 5.9621151287
6030 1 26.49 19.426 35.32 12 11.015446192 1.766 5.7392094347
6031 1 26.49 17.66 37.086 12 11.015446192 1.766 7.8102876582
6032 1 24.724 19.426 37.086 12 11.015446192 1.766 7.2415188937
6033 1 28.256 17.66 35.32 12 11.015446192 1.766 6.9148381132
6034 1 30.022 19.426 35.32 12 11.015446192 1.766 7.3004281224
6035 1 30.022 17.66 37.086 12 11.015446192 1.766 9.2064144133
6036 1 28.256 19.426 37.086 12 11.015446192 1.766 7.907170419
6037 1 31.788 17.66 35.32 12 11.015446192 1.766 9.021294263
6038 1 33.554 19.426 35.32 12 11.015446192 1.766 9.6234394638
6039 1 33.554 17.66 37.086 12 11.015446192 1.766 11.3849857979
6040 1 31.788 19.426 37.086 12 11.015446192 1.766 9.7361192019
6041 1 35.32 17.66 35.32 12 11.015446192 1.766 11.1690693096
6042 1 37.086 19.426 35.32 12 11.015446192 1.766 12.017087807
6043 1 37.086 17.66 37.086 12 11.015446192 1.766 13.5609870436
6044 1 35.32 19.426 37.086 12 11.015446192 1.766 12.063388225
6045 1 38.852 17.66 35.32 12 11.015446192 1.766 13.748561579
6046 1 40.618 19.426 35.32 12 11.015446192 1.766 14.8714578845
6047 1 40.618 17.66 37.086 12 11.015446192 1.766 16.1446656777
6048 1 38.852 19.426 37.086 12 11.015446192 1.766 14.4844803744
6049 1 0.0 21.192 35.32 12 11.015446192 1.766 16.3025334758
6050 1 1.766 22.958 35.32 12 11.015446192 1.766 17.9683043121
6051 1 1.766 21.192 37.086 12 11.015446192 1.766 18.7049433596
6052 1 0.0 22.958 37.086 12 11.015446192 1.766 17.2923349481
6053 1 3.532 21.192 35.32 12 11.015446192 1.766 19.4922428155
6054 1 5.298 22.958 35.32 12 11.015446192 1.766 18.0013993169
6055 1 5.298 21.192 37.086 12 11.015446192 1.766 18.7715378606
6056 1 3.532 22.958 37.086 12 11.015446192 1.766 20.3273161093
6057 1 7.064 21.192 35.32 12 11.015446192 1.766 16.3559781709
6058 1 8.83 22.958 35.32 12 11.015446192 1.766 14.9400201728
6059 1 8.83 21.192 37.086 12 11.015446192 1.766 15.8595226614
6060 1 7.064 22.958 37.086 12 11.015446192 1.766 17.3729474323
6061 1 10.596 21.192 35.32 12 11.015446192 1.766 13.3845758739
6062 1 12.362 22.958 35.32 12 11.015446192 1.766 12.13705385
6063 1 12.362 21.192 37.086 12 11.015446192 1.766 13.2524840103
6064 1 10.596 22.958 37.086 12 11.015446192 1.766 14.6098648824
6065 1 14.128 21.192 35.32 12 11.015446192 1.766 10.7575912136
6066 1 15.894 22.958 35.32 12 11.015446192 1.766 9.7833713598
6067 1 15.894 21.192 37.086 12 11.015446192 1.766 10.760937032
6068 1 14.128 22.958 37.086 12 11.015446192 1.766 12.242745508
6069 1 17.66 21.192 35.32 12 11.015446192 1.766 8.2719112579
6070 1 19.426 22.958 35.32 12 11.015446192 1.766 7.2228413205
6071 1 19.426 21.192 37.086 12 11.015446192 1.766 8.4132730775
6072 1 17.66 22.958 37.086 12 11.015446192 1.766 9.6594603725
6073 1 21.192 21.192 35.32 12 11.015446192 1.766 5.9904038202
6074 1 22.958 22.958 35.32 12 11.015446192 1.766 5.662345847
6075 1 22.958 21.192 37.086 12 11.015446192 1.766 7.1216999338
6076 1 21.192 22.958 37.086 12 11.015446192 1.766 7.7952291024
6077 1 24.724 21.192 35.32 12 11.015446192 1.766 5.3166156166
6078 1 26.49 22.958 35.32 12 11.015446192 1.766 5.7379319889
6079 1 26.49 21.192 37.086 12 11.015446192 1.766 7.2548316484
6080 1 24.724 22.958 37.086 12 11.015446192 1.766 7.2388816451
6081 1 28.256 21.192 35.32 12 11.015446192 1.766 6.0965545173
6082 1 30.022 22.958 35.32 12 11.015446192 1.766 7.3012585404
6083 1 30.022 21.192 37.086 12 11.015446192 1.766 8.5103602348
6084 1 28.256 22.958 37.086 12 11.015446192 1.766 7.9079371228
6085 1 31.788 21.192 35.32 12 11.015446192 1.766 8.3328656573
6086 1 33.554 22.958 35.32 12 11.015446192 1.766 9.6234286563
6087 1 33.554 21.192 37.086 12 11.015446192 1.766 10.8245059197
6088 1 31.788 22.958 37.086 12 11.015446192 1.766 9.7367418892
6089 1 35.32 21.192 35.32 12 11.015446192 1.766 10.5958896386
6090 1 37.086 22.958 35.32 12 11.015446192 1.766 12.0170791523
6091 1 37.086 21.192 37.086 12 11.015446192 1.766 13.0929422816
6092 1 35.32 22.958 37.086 12 11.015446192 1.766 12.0633796035
6093 1 38.852 21.192 35.32 12 11.015446192 1.766 13.2871258548
6094 1 40.618 22.958 35.32 12 11.015446192 1.766 14.8714508909
6095 1 40.618 21.192 37.086 12 11.015446192 1.766 15.7535709551
6096 1 38.852 22.958 37.086 12 11.015446192 1.766 14.484473194
6097 1 0.0 24.724 35.32 12 11.015446192 1.766 16.680749795
6098 1 1.766 26.49 35.32 12 11.015446192 1.766 18.6496595101
6099 1 1.766 24.724 37.086 12 11.015446192 1.766 19.035485864
6100 1 0.0 26.49 37.086 12 11.015446192 1.766 17.9992968737
6101 1 3.532 24.724 35.32 12 11.015446192 1.766 19.8096528483
6102 1 5.298 26.49 35.32 12 11.015446192 1.766 18.5962286684
6103 1 5.298 24.724 37.086 12 11.015446192 1.766 19.0942182329
6104 1 3.532 26.49 37.086 12 11.015446192 1.766 20.932023796
6105 1 7.064 24.724 35.32 12 11.015446192 1.766 16.7250771889
6106 1 8.83 26.49 35.32 12 11.015446192 1.766 15.6478868484
6107 1 8.83 24.724 37.086 12 11.015446192 1.766 16.2401661113
6108 1 7.064 26.49 37.086 12 11.015446192 1.766 18.0384767306
6109 1 10.596 24.724 35.32 12 11.015446192 1.766 13.8329210408
6110 1 12.362 26.49 35.32 12 11.015446192 1.766 12.9938735907
6111 1 12.362 24.724 37.086 12 11.015446192 1.766 13.7044301503
6112 1 10.596 26.49 37.086 12 11.015446192 1.766 15.392931246
6113 1 14.128 24.724 35.32 12 11.015446192 1.766 11.294464135
6114 1 15.894 26.49 35.32 12 11.015446192 1.766 10.6158321649
6115 1 15.894 24.724 37.086 12 11.015446192 1.766 11.2995658819
6116 1 14.128 26.49 37.086 12 11.015446192 1.766 12.99268808
6117 1 17.66 24.724 35.32 12 11.015446192 1.766 8.9013453785
6118 1 19.426 26.49 35.32 12 11.015446192 1.766 8.5582504641
6119 1 19.426 24.724 37.086 12 11.015446192 1.766 9.126204445
6120 1 17.66 26.49 37.086 12 11.015446192 1.766 10.7835566479
6121 1 21.192 24.724 35.32 12 11.015446192 1.766 6.9125206143
6122 1 22.958 26.49 35.32 12 11.015446192 1.766 7.0866107176
6123 1 22.958 24.724 37.086 12 11.015446192 1.766 7.817949586
6124 1 21.192 26.49 37.086 12 11.015446192 1.766 9.0592858846
6125 1 24.724 24.724 35.32 12 11.015446192 1.766 5.9587950505
6126 1 26.49 26.49 35.32 12 11.015446192 1.766 7.0756878683
6127 1 26.49 24.724 37.086 12 11.015446192 1.766 7.8080498895
6128 1 24.724 26.49 37.086 12 11.015446192 1.766 8.3331233092
6129 1 28.256 24.724 35.32 12 11.015446192 1.766 6.915746385
6130 1 30.022 26.49 35.32 12 11.015446192 1.766 8.644537714
6131 1 30.022 24.724 37.086 12 11.015446192 1.766 9.2075801753
6132 1 28.256 26.49 37.086 12 11.015446192 1.766 9.0421941714
6133 1 31.788 24.724 35.32 12 11.015446192 1.766 9.0253492265
6134 1 33.554 26.49 35.32 12 11.015446192 1.766 10.7717620685
6135 1 33.554 24.724 37.086 12 11.015446192 1.766 11.3864242675
6136 1 31.788 26.49 37.086 12 11.015446192 1.766 10.9003475865
6137 1 35.32 24.724 35.32 12 11.015446192 1.766 11.1690506859
6138 1 37.086 26.49 35.32 12 11.015446192 1.766 13.0138399922
6139 1 37.086 24.724 37.086 12 11.015446192 1.766 13.5609717048
6140 1 35.32 26.49 37.086 12 11.015446192 1.766 13.0517937825
6141 1 38.852 24.724 35.32 12 11.015446192 1.766 13.7485464495
6142 1 40.618 26.49 35.32 12 11.015446192 1.766 15.6878899662
6143 1 40.618 24.724 37.086 12 11.015446192 1.766 16.1446527937
6144 1 38.852 26.49 37.086 12 11.015446192 1.766 15.32154704
6145 1 0.0 28.256 35.32 12 11.015446192 1.766 17.7671685339
6146 1 1.766 30.022 35.32 12 11.015446192 1.766 19.9401549306
6147 1 1.766 28.256 37.086 12 11.015446192 1.766 19.9943638576
6148 1 0.0 30.022 37.086 12 11.015446192 1.766 19.335836572
6149 1 3.532 28.256 35.32 12 11.015446192 1.766 20.5067417585
6150 1 5.298 30.022 35.32 12 11.015446192 1.766 19.5337882401
6151 1 5.298 28.256 37.086 12 11.015446192 1.766 19.870900675
6152 1 3.532 30.022 37.086 12 11.015446192 1.766 21.8082547682
6153 1 7.064 28.256 35.32 12 11.015446192 1.766 17.5231022542
6154 1 8.83 30.022 35.32 12 11.015446192 1.766 16.750419758
6155 1 8.83 28.256 37.086 12 11.015446192 1.766 17.1423561011
6156 1 7.064 30.022 37.086 12 11.015446192 1.766 19.0297827391
6157 1 10.596 28.256 35.32 12 11.015446192 1.766 14.7831598676
6158 1 12.362 30.022 35.32 12 11.015446192 1.766 14.3015484872
6159 1 12.362 28.256 37.086 12 11.015446192 1.766 14.72821208
6160 1 10.596 30.022 37.086 12 11.015446192 1.766 16.5413220197
6161 1 14.128 28.256 35.32 12 11.015446192 1.766 12.4202854756
6162 1 15.894 30.022 35.32 12 11.015446192 1.766 12.2596779992
6163 1 15.894 28.256 37.086 12 11.015446192 1.766 12.490952549
6164 1 14.128 30.022 37.086 12 11.015446192 1.766 14.3709792291
6165 1 17.66 28.256 35.32 12 11.015446192 1.766 10.3071625286
6166 1 19.426 30.022 35.32 12 11.015446192 1.766 10.5826434656
6167 1 19.426 28.256 37.086 12 11.015446192 1.766 10.7216124678
6168 1 17.66 30.022 37.086 12 11.015446192 1.766 12.4716128432
6169 1 21.192 28.256 35.32 12 11.015446192 1.766 8.7811220093
6170 1 22.958 30.022 35.32 12 11.015446192 1.766 9.5898909706
6171 1 22.958 28.256 37.086 12 11.015446192 1.766 9.5074323082
6172 1 21.192 30.022 37.086 12 11.015446192 1.766 11.1272915889
6173 1 24.724 28.256 35.32 12 11.015446192 1.766 8.048488791
6174 1 26.49 30.022 35.32 12 11.015446192 1.766 9.5818221741
6175 1 26.49 28.256 37.086 12 11.015446192 1.766 9.4992934707
6176 1 24.724 30.022 37.086 12 11.015446192 1.766 10.5445199726
6177 1 28.256 28.256 35.32 12 11.015446192 1.766 8.7805753323
6178 1 30.022 30.022 35.32 12 11.015446192 1.766 10.7534153558
6179 1 30.022 28.256 37.086 12 11.015446192 1.766 10.7252940188
6180 1 28.256 30.022 37.086 12 11.015446192 1.766 11.1133807997
6181 1 31.788 28.256 35.32 12 11.015446192 1.766 10.5304583823
6182 1 33.554 30.022 35.32 12 11.015446192 1.766 12.4901136815
6183 1 33.554 28.256 37.086 12 11.015446192 1.766 12.7114025247
6184 1 31.788 30.022 37.086 12 11.015446192 1.766 12.6472293347
6185 1 35.32 28.256 35.32 12 11.015446192 1.766 12.679423095
6186 1 37.086 30.022 35.32 12 11.015446192 1.766 14.7639566046
6187 1 37.086 28.256 37.086 12 11.015446192 1.766 14.8739029911
6188 1 35.32 30.022 37.086 12 11.015446192 1.766 14.595002975
6189 1 38.852 28.256 35.32 12 11.015446192 1.766 15.0481691067
6190 1 40.618 30.022 35.32 12 11.015446192 1.766 17.2049347451
6191 1 40.618 28.256 37.086 12 11.015446192 1.766 17.2648393511
6192 1 38.852 30.022 37.086 12 11.015446192 1.766 16.869688559
6193 1 0.0 31.788 35.32 12 11.015446192 1.766 19.4170974612
6194 1 1.766 33.554 35.32 12 11.015446192 1.766 21.6442427721
6195 1 1.766 31.788 37.086 12 11.015446192 1.766 21.4976626185
6196 1 0.0 33.554 37.086 12 11.015446192 1.766 21.1779937768
6197 1 3.532 31.788 35.32 12 11.015446192 1.766 21.6461007437
6198 1 5.298 33.554 35.32 12 11.015446192 1.766 21.0254875536
6199 1 5.298 31.788 37.086 12 11.015446192 1.766 21.0447122455
6200 1 3.532 33.554 37.086 12 11.015446192 1.766 23.1538813138
6201 1 7.064 31.788 35.32 12 11.015446192 1.766 18.843734568
6202 1 8.83 33.554 35.32 12 11.015446192 1.766 18.4683189795
6203 1 8.83 31.788 37.086 12 11.015446192 1.766 18.4902026099
6204 1 7.064 33.554 37.086 12 11.015446192 1.766 20.5580853913
6205 1 10.596 31.788 35.32 12 11.015446192 1.766 16.3269420141
6206 1 12.362 33.554 35.32 12 11.015446192 1.766 16.2799426594
6207 1 12.362 31.788 37.086 12 11.015446192 1.766 16.2987932754
6208 1 10.596 33.554 37.086 12 11.015446192 1.766 18.2788833909
6209 1 14.128 31.788 35.32 12 11.015446192 1.766 14.2438860346
6210 1 15.894 33.554 35.32 12 11.015446192 1.766 14.5288648118
6211 1 15.894 31.788 37.086 12 11.015446192 1.766 14.3832363791
6212 1 14.128 33.554 37.086 12 11.015446192 1.766 16.3912091534
6213 1 17.66 31.788 35.32 12 11.015446192 1.766 12.5188687159
6214 1 19.426 33.554 35.32 12 11.015446192 1.766 13.0968038793
6215 1 19.426 31.788 37.086 12 11.015446192 1.766 12.9340700742
6216 1 17.66 33.554 37.086 12 11.015446192 1.766 14.7925247679
6217 1 21.192 31.788 35.32 12 11.015446192 1.766 11.2812337221
6218 1 22.958 33.554 35.32 12 11.015446192 1.766 12.1304015401
6219 1 22.958 31.788 37.086 12 11.015446192 1.766 12.0254833774
6220 1 21.192 33.554 37.086 12 11.015446192 1.766 13.7009761048
6221 1 24.724 31.788 35.32 12 11.015446192 1.766 10.7593829317
6222 1 26.49 33.554 35.32 12 11.015446192 1.766 12.1296103628
6223 1 26.49 31.788 37.086 12 11.015446192 1.766 12.0190497881
6224 1 24.724 33.554 37.086 12 11.015446192 1.766 13.2529012178
6225 1 28.256 31.788 35.32 12 11.015446192 1.766 11.3234337151
6226 1 30.022 33.554 35.32 12 11.015446192 1.766 13.1170995872
6227 1 30.022 31.788 37.086 12 11.015446192 1.766 13.0096922794
6228 1 28.256 33.554 37.086 12 11.015446192 1.766 13.7147811036
6229 1 31.788 31.788 35.32 12 11.015446192 1.766 12.7147930757
6230 1 33.554 33.554 35.32 12 11.015446192 1.766 14.7007365956
6231 1 33.554 31.788 37.086 12 11.015446192 1.766 14.6012076897
6232 1 31.788 33.554 37.086 12 11.015446192 1.766 14.9633789209
6233 1 35.32 31.788 35.32 12 11.015446192 1.766 14.6000776858
6234 1 37.086 33.554 35.32 12 11.015446192 1.766 16.7642075056
6235 1 37.086 31.788 37.086 12 11.015446192 1.766 16.6306290872
6236 1 35.32 33.554 37.086 12 11.015446192 1.766 16.6294562484
6237 1 38.852 31.788 35.32 12 11.015446192 1.766 16.9541719057
6238 1 40.618 33.554 35.32 12 11.015446192 1.766 19.1740009827
6239 1 40.618 31.788 37.086 12 11.015446192 1.766 18.9844548671
6240 1 38.852 33.554 37.086 12 11.015446192 1.766 18.7780852462
6241 1 0.0 35.32 35.32 12 11.015446192 1.766 21.4327683669
6242 1 1.766 37.086 35.32 12 11.015446192 1.766 23.7308082639
6243 1 1.766 35.32 37.086 12 11.015446192 1.766 23.3865733642
6244 1 0.0 37.086 37.086 12 11.015446192 1.766 23.1899833783
6245 1 3.532 35.32 35.32 12 11.015446192 1.766 23.2708174602
6246 1 5.298 37.086 35.32 12 11.015446192 1.766 22.9678779761
6247 1 5.298 35.32 37.086 12 11.015446192 1.766 22.7124895455
6248 1 3.532 37.086 37.086 12 11.015446192 1.766 24.9309950012
6249 1 7.064 35.32 35.32 12 11.015446192 1.766 20.6896979274
6250 1 8.83 37.086 35.32 12 11.015446192 1.766 20.652629319
6251 1 8.83 35.32 37.086 12 11.015446192 1.766 20.3682316467
6252 1 7.064 37.086 37.086 12 11.015446192 1.766 22.5407889572
6253 1 10.596 35.32 35.32 12 11.015446192 1.766 18.426782231
6254 1 12.362 37.086 35.32 12 11.015446192 1.766 18.6720972315
6255 1 12.362 35.32 37.086 12 11.015446192 1.766 18.4071341462
6256 1 10.596 37.086 37.086 12 11.015446192 1.766 20.4834047433
6257 1 14.128 35.32 35.32 12 11.015446192 1.766 16.5577790963
6258 1 15.894 37.086 35.32 12 11.015446192 1.766 16.9705976581
6259 1 15.894 35.32 37.086 12 11.015446192 1.766 16.7456801824
6260 1 14.128 37.086 37.086 12 11.015446192 1.766 18.7409093273
6261 1 17.66 35.32 35.32 12 11.015446192 1.766 15.020014918
6262 1 19.426 37.086 35.32 12 11.015446192 1.766 15.7260161045
6263 1 19.426 35.32 37.086 12 11.015446192 1.766 15.4290161177
6264 1 17.66 37.086 37.086 12 11.015446192 1.766 17.3279250058
6265 1 21.192 35.32 35.32 12 11.015446192 1.766 13.8204191679
6266 1 22.958 37.086 35.32 12 11.015446192 1.766 14.9119788243
6267 1 22.958 35.32 37.086 12 11.015446192 1.766 14.6033976575
6268 1 21.192 37.086 37.086 12 11.015446192 1.766 16.2281878099
6269 1 24.724 35.32 35.32 12 11.015446192 1.766 13.3607547693
6270 1 26.49 37.086 35.32 12 11.015446192 1.766 14.9113352348
6271 1 26.49 35.32 37.086 12 11.015446192 1.766 14.6027404678
6272 1 24.724 37.086 37.086 12 11.015446192 1.766 15.8385561723
6273 1 28.256 35.32 35.32 12 11.015446192 1.766 13.8190302856
6274 1 30.022 37.086 35.32 12 11.015446192 1.766 15.7251000796
6275 1 30.022 35.32 37.086 12 11.015446192 1.766 15.4327859831
6276 1 28.256 37.086 37.086 12 11.015446192 1.766 16.2270050117
6277 1 31.788 35.32 35.32 12 11.015446192 1.766 15.0863392952
6278 1 33.554 37.086 35.32 12 11.015446192 1.766 17.1105183826
6279 1 33.554 35.32 37.086 12 11.015446192 1.766 16.8980402478
6280 1 31.788 37.086 37.086 12 11.015446192 1.766 17.341325488
6281 1 35.32 35.32 35.32 12 11.015446192 1.766 16.7674348419
6282 1 37.086 37.086 35.32 12 11.015446192 1.766 18.9311223801
6283 1 37.086 35.32 37.086 12 11.015446192 1.766 18.7223580834
6284 1 35.32 37.086 37.086 12 11.015446192 1.766 18.8880150484
6285 1 38.852 35.32 35.32 12 11.015446192 1.766 18.9536131232
6286 1 40.618 37.086 35.32 12 11.015446192 1.766 21.1885581817
6287 1 40.618 35.32 37.086 12 11.015446192 1.766 20.9770201389
6288 1 38.852 37.086 37.086 12 11.015446192 1.766 20.853049938
6289 1 0.0 38.852 35.32 12 11.015446192 1.766 23.4764897123
6290 1 1.766 40.618 35.32 12 11.015446192 1.766 25.8033169303
6291 1 1.766 38.852 37.086 12 11.015446192 1.766 25.422832304
6292 1 0.0 40.618 37.086 12 11.015446192 1.766 25.2830147432
6293 1 3.532 38.852 35.32 12 11.015446192 1.766 25.28751196
6294 1 5.298 40.618 35.32 12 11.015446192 1.766 25.257192215
6295 1 5.298 38.852 37.086 12 11.015446192 1.766 24.7746745128
6296 1 3.532 40.618 37.086 12 11.015446192 1.766 27.0547011
6297 1 7.064 38.852 35.32 12 11.015446192 1.766 22.934491845
6298 1 8.83 40.618 35.32 12 11.015446192 1.766 23.1310657152
6299 1 8.83 38.852 37.086 12 11.015446192 1.766 22.6449150203
6300 1 7.064 40.618 37.086 12 11.015446192 1.766 24.8694492636
6301 1 10.596 38.852 35.32 12 11.015446192 1.766 20.8712545349
6302 1 12.362 40.618 35.32 12 11.015446192 1.766 21.1996742353
6303 1 12.362 38.852 37.086 12 11.015446192 1.766 20.7862165965
6304 1 10.596 40.618 37.086 12 11.015446192 1.766 22.9184276468
6305 1 14.128 38.852 35.32 12 11.015446192 1.766 19.0388070603
6306 1 15.894 40.618 35.32 12 11.015446192 1.766 19.704188913
6307 1 15.894 38.852 37.086 12 11.015446192 1.766 19.258560459
6308 1 14.128 40.618 37.086 12 11.015446192 1.766 21.2510746748
6309 1 17.66 38.852 35.32 12 11.015446192 1.766 17.7028128824
6310 1 19.426 40.618 35.32 12 11.015446192 1.766 18.6409215951
6311 1 19.426 38.852 37.086 12 11.015446192 1.766 18.0533642307
6312 1 17.66 40.618 37.086 12 11.015446192 1.766 20.0113690983
6313 1 21.192 38.852 35.32 12 11.015446192 1.766 16.6942948611
6314 1 22.958 40.618 35.32 12 11.015446192 1.766 17.95933271
6315 1 22.958 38.852 37.086 12 11.015446192 1.766 17.3480465204
6316 1 21.192 40.618 37.086 12 11.015446192 1.766 19.0663210538
6317 1 24.724 38.852 35.32 12 11.015446192 1.766 16.3157979559
6318 1 26.49 40.618 35.32 12 11.015446192 1.766 17.9587983289
6319 1 26.49 38.852 37.086 12 11.015446192 1.766 17.3474933089
6320 1 24.724 40.618 37.086 12 11.015446192 1.766 18.7358047747
6321 1 28.256 38.852 35.32 12 11.015446192 1.766 16.6931450891
6322 1 30.022 40.618 35.32 12 11.015446192 1.766 18.6399917234
6323 1 30.022 38.852 37.086 12 11.015446192 1.766 18.0517693906
6324 1 28.256 40.618 37.086 12 11.015446192 1.766 19.0653143322
6325 1 31.788 38.852 35.32 12 11.015446192 1.766 17.7713849717
6326 1 33.554 40.618 35.32 12 11.015446192 1.766 19.8521624731
6327 1 33.554 38.852 37.086 12 11.015446192 1.766 19.3511817182
6328 1 31.788 40.618 37.086 12 11.015446192 1.766 20.0222897944
6329 1 35.32 38.852 35.32 12 11.015446192 1.766 19.2356534257
6330 1 37.086 40.618 35.32 12 11.015446192 1.766 21.4412198838
6331 1 37.086 38.852 37.086 12 11.015446192 1.766 20.9817813319
6332 1 35.32 40.618 37.086 12 11.015446192 1.766 21.403168644
6333 1 38.852 38.852 35.32 12 11.015446192 1.766 21.1684421241
6334 1 40.618 40.618 35.32 12 11.015446192 1.766 23.4583356902
6335 1 40.618 38.852 37.086 12 11.015446192 1.766 23.0391569097
6336 1 38.852 40.618 37.086 12 11.015446192 1.766 23.1557381064
6337 1 0.0 0.0 38.852 12 11.015446192 1.766 27.1991015255
6338 1 1.766 1.766 38.852 12 11.015446192 1.766 27.3917119624
6339 1 1.766 0.0 40.618 12 11.015446192 1.766 29.1108395781
6340 1 0.0 1.766 40.618 12 11.015446192 1.766 27.0424095126
6341 1 3.532 0.0 38.852 12 11.015446192 1.766 28.9297505364
6342 1 5.298 1.766 38.852 12 11.015446192 1.766 26.918349097
6343 1 5.298 0.0 40.618 12 11.015446192 1.766 28.7007269278
6344 1 3.532 1.766 40.618 12 11.015446192 1.766 28.861393889
6345 1 7.064 0.0 38.852 12 11.015446192 1.766 26.8914018412
6346 1 8.83 1.766 38.852 12 11.015446192 1.766 24.8892878986
6347 1 8.83 0.0 40.618 12 11.015446192 1.766 26.8492861465
6348 1 7.064 1.766 40.618 12 11.015446192 1.766 26.8081615892
6349 1 10.596 0.0 38.852 12 11.015446192 1.766 25.0371993313
6350 1 12.362 1.766 38.852 12 11.015446192 1.766 23.0356320493
6351 1 12.362 0.0 40.618 12 11.015446192 1.766 25.204778307
6352 1 10.596 1.766 40.618 12 11.015446192 1.766 24.8747523601
6353 1 14.128 0.0 38.852 12 11.015446192 1.766 23.520527192
6354 1 15.894 1.766 38.852 12 11.015446192 1.766 21.4698176755
6355 1 15.894 0.0 40.618 12 11.015446192 1.766 23.7343996292
6356 1 14.128 1.766 40.618 12 11.015446192 1.766 23.1809144173
6357 1 17.66 0.0 38.852 12 11.015446192 1.766 22.2071500998
6358 1 19.426 1.766 38.852 12 11.015446192 1.766 20.2784869258
6359 1 19.426 0.0 40.618 12 11.015446192 1.766 22.6624289682
6360 1 17.66 1.766 40.618 12 11.015446192 1.766 21.7977918653
6361 1 21.192 0.0 38.852 12 11.015446192 1.766 21.3517329633
6362 1 22.958 1.766 38.852 12 11.015446192 1.766 19.6578493478
6363 1 22.958 0.0 40.618 12 11.015446192 1.766 22.1088148873
6364 1 21.192 1.766 40.618 12 11.015446192 1.766 20.9256473062
6365 1 24.724 0.0 38.852 12 11.015446192 1.766 21.0614703551
6366 1 26.49 1.766 38.852 12 11.015446192 1.766 19.6620217161
6367 1 26.49 0.0 40.618 12 11.015446192 1.766 22.1125247926
6368 1 24.724 1.766 40.618 12 11.015446192 1.766 20.6293903973
6369 1 28.256 0.0 38.852 12 11.015446192 1.766 21.3594151254
6370 1 30.022 1.766 38.852 12 11.015446192 1.766 20.2906185945
6371 1 30.022 0.0 40.618 12 11.015446192 1.766 22.6732851101
6372 1 28.256 1.766 40.618 12 11.015446192 1.766 20.9334858336
6373 1 31.788 0.0 38.852 12 11.015446192 1.766 22.2219203374
6374 1 33.554 1.766 38.852 12 11.015446192 1.766 21.4889123952
6375 1 33.554 0.0 40.618 12 11.015446192 1.766 23.7516738497
6376 1 31.788 1.766 40.618 12 11.015446192 1.766 21.8128392954
6377 1 35.32 0.0 38.852 12 11.015446192 1.766 23.5871346387
6378 1 37.086 1.766 38.852 12 11.015446192 1.766 23.168676201
6379 1 37.086 0.0 40.618 12 11.015446192 1.766 25.2815389493
6380 1 35.32 1.766 40.618 12 11.015446192 1.766 23.2021364342
6381 1 38.852 0.0 38.852 12 11.015446192 1.766 25.2338759715
6382 1 40.618 1.766 38.852 12 11.015446192 1.766 25.2046026068
6383 1 40.618 0.0 40.618 12 11.015446192 1.766 27.0540815718
6384 1 38.852 1.766 40.618 12 11.015446192 1.766 25.0153402928
6385 1 0.0 3.532 38.852 12 11.015446192 1.766 25.1103860738
6386 1 1.766 5.298 38.852 12 11.015446192 1.766 25.2047388703
6387 1 1.766 3.532 40.618 12 11.015446192 1.766 27.0392121758
6388 1 0.0 5.298 40.618 12 11.015446192 1.766 24.8507514576
6389 1 3.532 3.532 38.852 12 11.015446192 1.766 26.9469637365
6390 1 5.298 5.298 38.852 12 11.015446192 1.766 24.7875293746
6391 1 5.298 3.532 40.618 12 11.015446192 1.766 26.7397983993
6392 1 3.532 5.298 40.618 12 11.015446192 1.766 26.8850172327
6393 1 7.064 3.532 38.852 12 11.015446192 1.766 24.7564188846
6394 1 8.83 5.298 38.852 12 11.015446192 1.766 22.6410132105
6395 1 8.83 3.532 40.618 12 11.015446192 1.766 24.6873009436
6396 1 7.064 5.298 40.618 12 11.015446192 1.766 24.6508128485
6397 1 10.596 3.532 38.852 12 11.015446192 1.766 22.7674274736
6398 1 12.362 5.298 38.852 12 11.015446192 1.766 20.6649334044
6399 1 12.362 3.532 40.618 12 11.015446192 1.766 22.8158981023
6400 1 10.596 5.298 40.618 12 11.015446192 1.766 22.5678827968
6401 1 14.128 3.532 38.852 12 11.015446192 1.766 20.9892549038
6402 1 15.894 5.298 38.852 12 11.015446192 1.766 18.9538059636
6403 1 15.894 3.532 40.618 12 11.015446192 1.766 21.1937914887
6404 1 14.128 5.298 40.618 12 11.015446192 1.766 20.788750817
6405 1 17.66 3.532 38.852 12 11.015446192 1.766 19.4682456186
6406 1 19.426 5.298 38.852 12 11.015446192 1.766 17.5939514581
6407 1 19.426 3.532 40.618 12 11.015446192 1.766 19.9860140761
6408 1 17.66 5.298 40.618 12 11.015446192 1.766 19.3254709157
6409 1 21.192 3.532 38.852 12 11.015446192 1.766 18.4865240769
6410 1 22.958 5.298 38.852 12 11.015446192 1.766 16.8748670185
6411 1 22.958 3.532 40.618 12 11.015446192 1.766 19.3560008171
6412 1 21.192 5.298 40.618 12 11.015446192 1.766 18.3361067595
6413 1 24.724 3.532 38.852 12 11.015446192 1.766 18.1504987653
6414 1 26.49 5.298 38.852 12 11.015446192 1.766 16.8797273045
6415 1 26.49 3.532 40.618 12 11.015446192 1.766 19.3602382375
6416 1 24.724 5.298 40.618 12 11.015446192 1.766 17.99727324
6417 1 28.256 3.532 38.852 12 11.015446192 1.766 18.4953963572
6418 1 30.022 5.298 38.852 12 11.015446192 1.766 17.6079328388
6419 1 30.022 3.532 40.618 12 11.015446192 1.766 19.9983231695
6420 1 28.256 5.298 40.618 12 11.015446192 1.766 18.3450517867
6421 1 31.788 3.532 38.852 12 11.015446192 1.766 19.485092132
6422 1 33.554 5.298 38.852 12 11.015446192 1.766 18.9763919605
6423 1 33.554 3.532 40.618 12 11.015446192 1.766 21.2131346711
6424 1 31.788 5.298 40.618 12 11.015446192 1.766 19.3424417807
6425 1 35.32 3.532 38.852 12 11.015446192 1.766 21.028742054
6426 1 37.086 5.298 38.852 12 11.015446192 1.766 20.8208160072
6427 1 37.086 3.532 40.618 12 11.015446192 1.766 22.9111218179
6428 1 35.32 5.298 40.618 12 11.015446192 1.766 20.893553172
6429 1 38.852 3.532 38.852 12 11.015446192 1.766 22.9831321982
6430 1 40.618 5.298 38.852 12 11.015446192 1.766 22.8737809227
6431 1 40.618 3.532 40.618 12 11.015446192 1.766 24.8542303274
6432 1 38.852 5.298 40.618 12 11.015446192 1.766 22.729906337
6433 1 0.0 7.064 38.852 12 11.015446192 1.766 22.9979349634
6434 1 1.766 8.83 38.852 12 11.015446192 1.766 23.2177903416
6435 1 1.766 7.064 40.618 12 11.015446192 1.766 25.0541062924
6436 1 0.0 8.83 40.618 12 11.015446192 1.766 22.9527589829
6437 1 3.532 7.064 38.852 12 11.015446192 1.766 25.068665162
6438 1 5.298 8.83 38.852 12 11.015446192 1.766 23.0042551473
6439 1 5.298 7.064 40.618 12 11.015446192 1.766 24.8395946612
6440 1 3.532 8.83 40.618 12 11.015446192 1.766 25.2503127503
6441 1 7.064 7.064 38.852 12 11.015446192 1.766 22.6966489515
6442 1 8.83 8.83 38.852 12 11.015446192 1.766 20.6448614799
6443 1 8.83 7.064 40.618 12 11.015446192 1.766 22.5722391661
6444 1 7.064 8.83 40.618 12 11.015446192 1.766 22.8235875323
6445 1 10.596 7.064 38.852 12 11.015446192 1.766 20.5334028614
6446 1 12.362 8.83 38.852 12 11.015446192 1.766 18.4370390364
6447 1 12.362 7.064 40.618 12 11.015446192 1.766 20.50486461
6448 1 10.596 8.83 40.618 12 11.015446192 1.766 20.5184733518
6449 1 14.128 7.064 38.852 12 11.015446192 1.766 18.5904180808
6450 1 15.894 8.83 38.852 12 11.015446192 1.766 16.5968767893
6451 1 15.894 7.064 40.618 12 11.015446192 1.766 18.8651900699
6452 1 14.128 8.83 40.618 12 11.015446192 1.766 18.5489793632
6453 1 17.66 7.064 38.852 12 11.015446192 1.766 17.020675701
6454 1 19.426 8.83 38.852 12 11.015446192 1.766 15.2509566633
6455 1 19.426 7.064 40.618 12 11.015446192 1.766 17.6137979595
6456 1 17.66 8.83 40.618 12 11.015446192 1.766 17.0547863012
6457 1 21.192 7.064 38.852 12 11.015446192 1.766 15.8920323545
6458 1 22.958 8.83 38.852 12 11.015446192 1.766 14.4236361852
6459 1 22.958 7.064 40.618 12 11.015446192 1.766 16.8955582192
6460 1 21.192 8.83 40.618 12 11.015446192 1.766 15.9409615672
6461 1 24.724 7.064 38.852 12 11.015446192 1.766 15.4998621071
6462 1 26.49 8.83 38.852 12 11.015446192 1.766 14.4293221526
6463 1 26.49 7.064 40.618 12 11.015446192 1.766 16.9004125548
6464 1 24.724 8.83 40.618 12 11.015446192 1.766 15.5380961148
6465 1 28.256 7.064 38.852 12 11.015446192 1.766 15.902352226
6466 1 30.022 8.83 38.852 12 11.015446192 1.766 15.2747976342
6467 1 30.022 7.064 40.618 12 11.015446192 1.766 17.627763599
6468 1 28.256 8.83 40.618 12 11.015446192 1.766 15.9279833645
6469 1 31.788 7.064 38.852 12 11.015446192 1.766 17.0432959049
6470 1 33.554 8.83 38.852 12 11.015446192 1.766 16.7772712608
6471 1 33.554 7.064 40.618 12 11.015446192 1.766 18.990272077
6472 1 31.788 8.83 40.618 12 11.015446192 1.766 17.0563456006
6473 1 35.32 7.064 38.852 12 11.015446192 1.766 18.7418569245
6474 1 37.086 8.83 38.852 12 11.015446192 1.766 18.600850936
6475 1 37.086 7.064 40.618 12 11.015446192 1.766 20.6891165353
6476 1 35.32 8.83 40.618 12 11.015446192 1.766 18.737116057
6477 1 38.852 7.064 38.852 12 11.015446192 1.766 20.6969380011
6478 1 40.618 8.83 38.852 12 11.015446192 1.766 20.8360340091
6479 1 40.618 7.064 40.618 12 11.015446192 1.766 22.726102282
6480 1 38.852 8.83 40.618 12 11.015446192 1.766 20.6849371731
6481 1 0.0 10.596 38.852 12 11.015446192 1.766 21.0844289991
6482 1 1.766 12.362 38.852 12 11.015446192 1.766 21.5456593387
6483 1 1.766 10.596 40.618 12 11.015446192 1.766 23.2622113862
6484 1 0.0 12.362 40.618 12 11.015446192 1.766 21.280398221
6485 1 3.532 10.596 38.852 12 11.015446192 1.766 23.5730171889
6486 1 5.298 12.362 38.852 12 11.015446192 1.766 21.6135441512
6487 1 5.298 10.596 40.618 12 11.015446192 1.766 23.3111006204
6488 1 3.532 12.362 40.618 12 11.015446192 1.766 23.8123976259
6489 1 7.064 10.596 38.852 12 11.015446192 1.766 21.0231067867
6490 1 8.83 12.362 38.852 12 11.015446192 1.766 19.0841345741
6491 1 8.83 10.596 40.618 12 11.015446192 1.766 20.8332542821
6492 1 7.064 12.362 40.618 12 11.015446192 1.766 21.3814051119
6493 1 10.596 10.596 38.852 12 11.015446192 1.766 18.6139836858
6494 1 12.362 12.362 38.852 12 11.015446192 1.766 16.6304801851
6495 1 12.362 10.596 40.618 12 11.015446192 1.766 18.5640219627
6496 1 10.596 12.362 40.618 12 11.015446192 1.766 18.9118008514
6497 1 14.128 10.596 38.852 12 11.015446192 1.766 16.4248921815
6498 1 15.894 12.362 38.852 12 11.015446192 1.766 14.5638175599
6499 1 15.894 10.596 40.618 12 11.015446192 1.766 16.7365854412
6500 1 14.128 12.362 40.618 12 11.015446192 1.766 16.7544948648
6501 1 17.66 10.596 38.852 12 11.015446192 1.766 14.752631794
6502 1 19.426 12.362 38.852 12 11.015446192 1.766 12.9708260742
6503 1 19.426 10.596 40.618 12 11.015446192 1.766 15.2762838747
6504 1 17.66 12.362 40.618 12 11.015446192 1.766 15.0024774938
6505 1 21.192 10.596 38.852 12 11.015446192 1.766 13.5186620533
6506 1 22.958 12.362 38.852 12 11.015446192 1.766 11.9618343173
6507 1 22.958 10.596 40.618 12 11.015446192 1.766 14.4294144098
6508 1 21.192 12.362 40.618 12 11.015446192 1.766 13.6915519041
6509 1 24.724 10.596 38.852 12 11.015446192 1.766 13.0411808859
6510 1 26.49 12.362 38.852 12 11.015446192 1.766 11.9531869985
6511 1 26.49 10.596 40.618 12 11.015446192 1.766 14.4222466834
6512 1 24.724 12.362 40.618 12 11.015446192 1.766 13.220316514
6513 1 28.256 10.596 38.852 12 11.015446192 1.766 13.5033559565
6514 1 30.022 12.362 38.852 12 11.015446192 1.766 12.9468886845
6515 1 30.022 10.596 40.618 12 11.015446192 1.766 15.2559642954
6516 1 28.256 12.362 40.618 12 11.015446192 1.766 13.6764392997
6517 1 31.788 10.596 38.852 12 11.015446192 1.766 14.8175198085
6518 1 33.554 12.362 38.852 12 11.015446192 1.766 14.7158697416
6519 1 33.554 10.596 40.618 12 11.015446192 1.766 16.8058841413
6520 1 31.788 12.362 40.618 12 11.015446192 1.766 14.9754219675
6521 1 35.32 10.596 38.852 12 11.015446192 1.766 16.6161094262
6522 1 37.086 12.362 38.852 12 11.015446192 1.766 16.7930112705
6523 1 37.086 10.596 40.618 12 11.015446192 1.766 18.7545296101
6524 1 35.32 12.362 40.618 12 11.015446192 1.766 16.9049002417
6525 1 38.852 10.596 38.852 12 11.015446192 1.766 18.7574087997
6526 1 40.618 12.362 38.852 12 11.015446192 1.766 19.0398405479
6527 1 40.618 10.596 40.618 12 11.015446192 1.766 20.9383575942
6528 1 38.852 12.362 40.618 12 11.015446192 1.766 19.0385205192
6529 1 0.0 14.128 38.852 12 11.015446192 1.766 19.549368742
6530 1 1.766 15.894 38.852 12 11.015446192 1.766 20.3547324308
6531 1 1.766 14.128 40.618 12 11.015446192 1.766 21.8804741851
6532 1 0.0 15.894 40.618 12 11.015446192 1.766 20.0737401706
6533 1 3.532 14.128 38.852 12 11.015446192 1.766 22.2789755254
6534 1 5.298 15.894 38.852 12 11.015446192 1.766 20.4541548264
6535 1 5.298 14.128 40.618 12 11.015446192 1.766 22.0026766087
6536 1 3.532 15.894 40.618 12 11.015446192 1.766 22.7404920062
6537 1 7.064 14.128 38.852 12 11.015446192 1.766 19.6669810145
6538 1 8.83 15.894 38.852 12 11.015446192 1.766 17.8192669619
6539 1 8.83 14.128 40.618 12 11.015446192 1.766 19.5253697517
6540 1 7.064 15.894 40.618 12 11.015446192 1.766 20.2142622616
6541 1 10.596 14.128 38.852 12 11.015446192 1.766 17.1739364903
6542 1 12.362 15.894 38.852 12 11.015446192 1.766 15.4124965523
6543 1 12.362 14.128 40.618 12 11.015446192 1.766 17.1364009897
6544 1 10.596 15.894 40.618 12 11.015446192 1.766 17.8253004105
6545 1 14.128 14.128 38.852 12 11.015446192 1.766 14.7952887749
6546 1 15.894 15.894 38.852 12 11.015446192 1.766 13.0852481703
6547 1 15.894 14.128 40.618 12 11.015446192 1.766 15.0698772276
6548 1 14.128 15.894 40.618 12 11.015446192 1.766 15.4221445747
6549 1 17.66 14.128 38.852 12 11.015446192 1.766 12.8642932175
6550 1 19.426 15.894 38.852 12 11.015446192 1.766 11.233097956
6551 1 19.426 14.128 40.618 12 11.015446192 1.766 13.3859706737
6552 1 17.66 15.894 40.618 12 11.015446192 1.766 13.4314297551
6553 1 21.192 14.128 38.852 12 11.015446192 1.766 11.3390293045
6554 1 22.958 15.894 38.852 12 11.015446192 1.766 10.0687569288
6555 1 22.958 14.128 40.618 12 11.015446192 1.766 12.4107760461
6556 1 21.192 15.894 40.618 12 11.015446192 1.766 12.0728198612
6557 1 24.724 14.128 38.852 12 11.015446192 1.766 10.7653035608
6558 1 26.49 15.894 38.852 12 11.015446192 1.766 10.0584822552
6559 1 26.49 14.128 40.618 12 11.015446192 1.766 12.4024417456
6560 1 24.724 15.894 40.618 12 11.015446192 1.766 11.5356471248
6561 1 28.256 14.128 38.852 12 11.015446192 1.766 11.3207766493
6562 1 30.022 15.894 38.852 12 11.015446192 1.766 11.2212438021
6563 1 30.022 14.128 40.618 12 11.015446192 1.766 13.3627769734
6564 1 28.256 15.894 40.618 12 11.015446192 1.766 12.0556782379
6565 1 31.788 14.128 38.852 12 11.015446192 1.766 12.859947711
6566 1 33.554 15.894 38.852 12 11.015446192 1.766 13.1795533193
6567 1 33.554 14.128 40.618 12 11.015446192 1.766 15.1081800237
6568 1 31.788 15.894 40.618 12 11.015446192 1.766 13.500560875
6569 1 35.32 14.128 38.852 12 11.015446192 1.766 14.9734119637
6570 1 37.086 15.894 38.852 12 11.015446192 1.766 15.3579088366
6571 1 37.086 14.128 40.618 12 11.015446192 1.766 17.2804314141
6572 1 35.32 15.894 40.618 12 11.015446192 1.766 15.4966623599
6573 1 38.852 14.128 38.852 12 11.015446192 1.766 17.1158678997
6574 1 40.618 15.894 38.852 12 11.015446192 1.766 17.6809282585
6575 1 40.618 14.128 40.618 12 11.015446192 1.766 19.4179103489
6576 1 38.852 15.894 40.618 12 11.015446192 1.766 17.7124295394
6577 1 0.0 17.66 38.852 12 11.015446192 1.766 18.5675129784
6578 1 1.766 19.426 38.852 12 11.015446192 1.766 19.7323307372
6579 1 1.766 17.66 40.618 12 11.015446192 1.766 21.0078525927
6580 1 0.0 19.426 40.618 12 11.015446192 1.766 19.4423452399
6581 1 3.532 17.66 38.852 12 11.015446192 1.766 21.422592524
6582 1 5.298 19.426 38.852 12 11.015446192 1.766 19.8284117855
6583 1 5.298 17.66 40.618 12 11.015446192 1.766 21.1290373236
6584 1 3.532 19.426 40.618 12 11.015446192 1.766 22.1851238599
6585 1 7.064 17.66 38.852 12 11.015446192 1.766 18.6844476102
6586 1 8.83 19.426 38.852 12 11.015446192 1.766 17.0973605955
6587 1 8.83 17.66 40.618 12 11.015446192 1.766 18.5900522758
6588 1 7.064 19.426 40.618 12 11.015446192 1.766 19.5808545027
6589 1 10.596 17.66 38.852 12 11.015446192 1.766 16.1473660977
6590 1 12.362 19.426 38.852 12 11.015446192 1.766 14.7113429954
6591 1 12.362 17.66 40.618 12 11.015446192 1.766 16.1373771725
6592 1 10.596 19.426 40.618 12 11.015446192 1.766 17.1766909634
6593 1 14.128 17.66 38.852 12 11.015446192 1.766 13.7140782253
6594 1 15.894 19.426 38.852 12 11.015446192 1.766 12.1196747869
6595 1 15.894 17.66 40.618 12 11.015446192 1.766 13.8003728963
6596 1 14.128 19.426 40.618 12 11.015446192 1.766 14.5935706011
6597 1 17.66 17.66 38.852 12 11.015446192 1.766 11.4281239987
6598 1 19.426 19.426 38.852 12 11.015446192 1.766 10.0931617946
6599 1 19.426 17.66 40.618 12 11.015446192 1.766 12.059672058
6600 1 17.66 19.426 40.618 12 11.015446192 1.766 12.4692693034
6601 1 21.192 17.66 38.852 12 11.015446192 1.766 9.9001397959
6602 1 22.958 19.426 38.852 12 11.015446192 1.766 9.0447421789
6603 1 22.958 17.66 40.618 12 11.015446192 1.766 11.1609546595
6604 1 21.192 19.426 40.618 12 11.015446192 1.766 11.0879709158
6605 1 24.724 17.66 38.852 12 11.015446192 1.766 9.3091981724
6606 1 26.49 19.426 38.852 12 11.015446192 1.766 9.1573755612
6607 1 26.49 17.66 40.618 12 11.015446192 1.766 11.1619877759
6608 1 24.724 19.426 40.618 12 11.015446192 1.766 10.7349391593
6609 1 28.256 17.66 38.852 12 11.015446192 1.766 9.9451669856
6610 1 30.022 19.426 38.852 12 11.015446192 1.766 10.1989759475
6611 1 30.022 17.66 40.618 12 11.015446192 1.766 12.1671559729
6612 1 28.256 19.426 40.618 12 11.015446192 1.766 11.2125477766
6613 1 31.788 17.66 38.852 12 11.015446192 1.766 11.5161802767
6614 1 33.554 19.426 38.852 12 11.015446192 1.766 12.1968359609
6615 1 33.554 17.66 40.618 12 11.015446192 1.766 13.8863497907
6616 1 31.788 19.426 40.618 12 11.015446192 1.766 12.5694033558
6617 1 35.32 17.66 38.852 12 11.015446192 1.766 13.778284699
6618 1 37.086 19.426 38.852 12 11.015446192 1.766 14.5229166431
6619 1 37.086 17.66 40.618 12 11.015446192 1.766 16.2026064443
6620 1 35.32 19.426 40.618 12 11.015446192 1.766 14.6699905181
6621 1 38.852 17.66 38.852 12 11.015446192 1.766 15.9852323709
6622 1 40.618 19.426 38.852 12 11.015446192 1.766 16.9606889032
6623 1 40.618 17.66 40.618 12 11.015446192 1.766 18.4290521272
6624 1 38.852 19.426 40.618 12 11.015446192 1.766 16.9935253605
6625 1 0.0 21.192 38.852 12 11.015446192 1.766 18.2284751472
6626 1 1.766 22.958 38.852 12 11.015446192 1.766 19.7323254664
6627 1 1.766 21.192 40.618 12 11.015446192 1.766 20.7088058214
6628 1 0.0 22.958 40.618 12 11.015446192 1.766 19.4423398905
6629 1 3.532 21.192 38.852 12 11.015446192 1.766 21.1294164245
6630 1 5.298 22.958 38.852 12 11.015446192 1.766 19.8219430483
6631 1 5.298 21.192 40.618 12 11.015446192 1.766 20.8255781792
6632 1 3.532 22.958 40.618 12 11.015446192 1.766 22.1851191718
6633 1 7.064 21.192 38.852 12 11.015446192 1.766 18.3405853443
6634 1 8.83 22.958 38.852 12 11.015446192 1.766 17.0898581506
6635 1 8.83 21.192 40.618 12 11.015446192 1.766 18.2444109768
6636 1 7.064 22.958 40.618 12 11.015446192 1.766 19.5743039552
6637 1 10.596 21.192 38.852 12 11.015446192 1.766 15.7482037124
6638 1 12.362 22.958 38.852 12 11.015446192 1.766 14.7026230654
6639 1 12.362 21.192 40.618 12 11.015446192 1.766 15.747042189
6640 1 10.596 22.958 40.618 12 11.015446192 1.766 17.1692231836
6641 1 14.128 21.192 38.852 12 11.015446192 1.766 13.2531520686
6642 1 15.894 22.958 38.852 12 11.015446192 1.766 12.1208884425
6643 1 15.894 21.192 40.618 12 11.015446192 1.766 13.3418397446
6644 1 14.128 22.958 40.618 12 11.015446192 1.766 14.594578534
6645 1 17.66 21.192 38.852 12 11.015446192 1.766 10.8699776368
6646 1 19.426 22.958 38.852 12 11.015446192 1.766 10.0946190967
6647 1 19.426 21.192 40.618 12 11.015446192 1.766 11.5321327534
6648 1 17.66 22.958 40.618 12 11.015446192 1.766 12.4704489356
6649 1 21.192 21.192 38.852 12 11.015446192 1.766 9.2529366092
6650 1 22.958 22.958 38.852 12 11.015446192 1.766 9.0463683751
6651 1 22.958 21.192 40.618 12 11.015446192 1.766 10.6266425513
6652 1 21.192 22.958 40.618 12 11.015446192 1.766 11.0892974856
6653 1 24.724 21.192 38.852 12 11.015446192 1.766 8.8333066269
6654 1 26.49 22.958 38.852 12 11.015446192 1.766 9.1557504291
6655 1 26.49 21.192 40.618 12 11.015446192 1.766 10.7624358509
6656 1 24.724 22.958 40.618 12 11.015446192 1.766 10.7344714803
6657 1 28.256 21.192 38.852 12 11.015446192 1.766 9.3750112848
6658 1 30.022 22.958 38.852 12 11.015446192 1.766 10.1995703773
6659 1 30.022 21.192 40.618 12 11.015446192 1.766 11.6457766995
6660 1 28.256 22.958 40.618 12 11.015446192 1.766 11.2130884749
6661 1 31.788 21.192 38.852 12 11.015446192 1.766 10.9617293193
6662 1 33.554 22.958 38.852 12 11.015446192 1.766 12.1973330266
6663 1 33.554 21.192 40.618 12 11.015446192 1.766 13.430108414
6664 1 31.788 22.958 40.618 12 11.015446192 1.766 12.5698856886
6665 1 35.32 21.192 38.852 12 11.015446192 1.766 13.3183418919
6666 1 37.086 22.958 38.852 12 11.015446192 1.766 14.5229094817
6667 1 37.086 21.192 40.618 12 11.015446192 1.766 15.8133347872
6668 1 35.32 22.958 40.618 12 11.015446192 1.766 14.670403788
6669 1 38.852 21.192 38.852 12 11.015446192 1.766 15.5901386121
6670 1 40.618 22.958 38.852 12 11.015446192 1.766 16.9606827711
6671 1 40.618 21.192 40.618 12 11.015446192 1.766 18.0874191166
6672 1 38.852 22.958 40.618 12 11.015446192 1.766 16.9935192403
6673 1 0.0 24.724 38.852 12 11.015446192 1.766 18.5675017755
6674 1 1.766 26.49 38.852 12 11.015446192 1.766 20.354717102
6675 1 1.766 24.724 40.618 12 11.015446192 1.766 21.0078426912
6676 1 0.0 26.49 40.618 12 11.015446192 1.766 20.0737246272
6677 1 3.532 24.724 38.852 12 11.015446192 1.766 21.4225828142
6678 1 5.298 26.49 38.852 12 11.015446192 1.766 20.4318309821
6679 1 5.298 24.724 40.618 12 11.015446192 1.766 21.1168947237
6680 1 3.532 26.49 40.618 12 11.015446192 1.766 22.7404782856
6681 1 7.064 24.724 38.852 12 11.015446192 1.766 18.6707152259
6682 1 8.83 26.49 38.852 12 11.015446192 1.766 17.7928836442
6683 1 8.83 24.724 40.618 12 11.015446192 1.766 18.5762501104
6684 1 7.064 26.49 40.618 12 11.015446192 1.766 20.1952206129
6685 1 10.596 24.724 38.852 12 11.015446192 1.766 16.1314740939
6686 1 12.362 26.49 38.852 12 11.015446192 1.766 15.3913444759
6687 1 12.362 24.724 40.618 12 11.015446192 1.766 16.1392001473
6688 1 10.596 26.49 40.618 12 11.015446192 1.766 17.8053137439
6689 1 14.128 24.724 38.852 12 11.015446192 1.766 13.7140299082
6690 1 15.894 26.49 38.852 12 11.015446192 1.766 13.0799061057
6691 1 15.894 24.724 40.618 12 11.015446192 1.766 13.802504536
6692 1 14.128 26.49 40.618 12 11.015446192 1.766 15.4217697142
6693 1 17.66 24.724 38.852 12 11.015446192 1.766 11.4306980329
6694 1 19.426 26.49 38.852 12 11.015446192 1.766 11.2310134864
6695 1 19.426 24.724 40.618 12 11.015446192 1.766 12.0621113217
6696 1 17.66 26.49 40.618 12 11.015446192 1.766 13.4347148965
6697 1 21.192 24.724 38.852 12 11.015446192 1.766 9.9013384213
6698 1 22.958 26.49 38.852 12 11.015446192 1.766 10.0643704901
6699 1 22.958 24.724 40.618 12 11.015446192 1.766 11.1579337976
6700 1 21.192 26.49 40.618 12 11.015446192 1.766 12.0671946466
6701 1 24.724 24.724 38.852 12 11.015446192 1.766 9.3047697636
6702 1 26.49 26.49 38.852 12 11.015446192 1.766 10.0566823908
6703 1 26.49 24.724 40.618 12 11.015446192 1.766 11.1585020938
6704 1 24.724 26.49 40.618 12 11.015446192 1.766 11.5320193369
6705 1 28.256 24.724 38.852 12 11.015446192 1.766 9.9439096112
6706 1 30.022 26.49 38.852 12 11.015446192 1.766 11.2219524174
6707 1 30.022 24.724 40.618 12 11.015446192 1.766 12.1677824637
6708 1 28.256 26.49 40.618 12 11.015446192 1.766 12.0543685581
6709 1 31.788 24.724 38.852 12 11.015446192 1.766 11.5172331388
6710 1 33.554 26.49 38.852 12 11.015446192 1.766 13.1809372377
6711 1 33.554 24.724 40.618 12 11.015446192 1.766 13.8872229591
6712 1 31.788 26.49 40.618 12 11.015446192 1.766 13.5015145374
6713 1 35.32 24.724 38.852 12 11.015446192 1.766 13.7791647153
6714 1 37.086 26.49 38.852 12 11.015446192 1.766 15.3578885204
6715 1 37.086 24.724 40.618 12 11.015446192 1.766 16.2033547945
6716 1 35.32 26.49 40.618 12 11.015446192 1.766 15.497836004
6717 1 38.852 24.724 38.852 12 11.015446192 1.766 15.9852193583
6718 1 40.618 26.49 38.852 12 11.015446192 1.766 17.6809106116
6719 1 40.618 24.724 40.618 12 11.015446192 1.766 18.4290408402
6720 1 38.852 26.49 40.618 12 11.015446192 1.766 17.7124119239
6721 1 0.0 28.256 38.852 12 11.015446192 1.766 19.5493474616
6722 1 1.766 30.022 38.852 12 11.015446192 1.766 21.5456352029
6723 1 1.766 28.256 40.618 12 11.015446192 1.766 21.8804551719
6724 1 0.0 30.022 40.618 12 11.015446192 1.766 21.2803737843
6725 1 3.532 28.256 38.852 12 11.015446192 1.766 22.250769616
6726 1 5.298 30.022 38.852 12 11.015446192 1.766 21.3579897022
6727 1 5.298 28.256 40.618 12 11.015446192 1.766 21.9379523731
6728 1 3.532 30.022 40.618 12 11.015446192 1.766 23.7206627468
6729 1 7.064 28.256 38.852 12 11.015446192 1.766 19.5355799553
6730 1 8.83 30.022 38.852 12 11.015446192 1.766 18.8459917007
6731 1 8.83 28.256 40.618 12 11.015446192 1.766 19.4802607377
6732 1 7.064 30.022 40.618 12 11.015446192 1.766 21.1943977553
6733 1 10.596 28.256 38.852 12 11.015446192 1.766 17.0888921578
6734 1 12.362 30.022 38.852 12 11.015446192 1.766 16.5892630244
6735 1 12.362 28.256 40.618 12 11.015446192 1.766 17.1173654385
6736 1 10.596 30.022 40.618 12 11.015446192 1.766 18.876851319
6737 1 14.128 28.256 38.852 12 11.015446192 1.766 14.7744785279
6738 1 15.894 30.022 38.852 12 11.015446192 1.766 14.5452719157
6739 1 15.894 28.256 40.618 12 11.015446192 1.766 15.064447444
6740 1 14.128 30.022 40.618 12 11.015446192 1.766 16.7351058345
6741 1 17.66 28.256 38.852 12 11.015446192 1.766 12.8530593924
6742 1 19.426 30.022 38.852 12 11.015446192 1.766 12.9669301586
6743 1 19.426 28.256 40.618 12 11.015446192 1.766 13.3806776976
6744 1 17.66 30.022 40.618 12 11.015446192 1.766 14.9964745884
6745 1 21.192 28.256 38.852 12 11.015446192 1.766 11.3348749606
6746 1 22.958 30.022 38.852 12 11.015446192 1.766 11.9598290426
6747 1 22.958 28.256 40.618 12 11.015446192 1.766 12.4071670818
6748 1 21.192 30.022 40.618 12 11.015446192 1.766 13.688065751
6749 1 24.724 28.256 38.852 12 11.015446192 1.766 10.7633486295
6750 1 26.49 30.022 38.852 12 11.015446192 1.766 11.9533601165
6751 1 26.49 28.256 40.618 12 11.015446192 1.766 12.4009315111
6752 1 24.724 30.022 40.618 12 11.015446192 1.766 13.2186772164
6753 1 28.256 28.256 38.852 12 11.015446192 1.766 11.3212192394
6754 1 30.022 30.022 38.852 12 11.015446192 1.766 12.9490607159
6755 1 30.022 28.256 40.618 12 11.015446192 1.766 13.3633250986
6756 1 28.256 30.022 40.618 12 11.015446192 1.766 13.6767598027
6757 1 31.788 28.256 38.852 12 11.015446192 1.766 12.862363096
6758 1 33.554 30.022 38.852 12 11.015446192 1.766 14.7218236003
6759 1 33.554 28.256 40.618 12 11.015446192 1.766 15.1103891756
6760 1 31.788 30.022 40.618 12 11.015446192 1.766 14.9774543247
6761 1 35.32 28.256 38.852 12 11.015446192 1.766 14.9823875311
6762 1 37.086 30.022 38.852 12 11.015446192 1.766 16.8015085543
6763 1 37.086 28.256 40.618 12 11.015446192 1.766 17.2864403247
6764 1 35.32 30.022 40.618 12 11.015446192 1.766 16.9107948554
6765 1 38.852 28.256 38.852 12 11.015446192 1.766 17.1158435937
6766 1 40.618 30.022 38.852 12 11.015446192 1.766 19.0398132356
6767 1 40.618 28.256 40.618 12 11.015446192 1.766 19.4178889244
6768 1 38.852 30.022 40.618 12 11.015446192 1.766 19.0437863941
6769 1 0.0 31.788 38.852 12 11.015446192 1.766 21.0843994025
6770 1 1.766 33.554 38.852 12 11.015446192 1.766 23.217758985
6771 1 1.766 31.788 40.618 12 11.015446192 1.766 23.2621845604
6772 1 0.0 33.554 40.618 12 11.015446192 1.766 22.9549995802
6773 1 3.532 31.788 38.852 12 11.015446192 1.766 23.3055469474
6774 1 5.298 33.554 38.852 12 11.015446192 1.766 22.7302874593
6775 1 5.298 31.788 40.618 12 11.015446192 1.766 23.0206381016
6776 1 3.532 33.554 40.618 12 11.015446192 1.766 24.9634149308
6777 1 7.064 31.788 38.852 12 11.015446192 1.766 20.7287523402
6778 1 8.83 33.554 38.852 12 11.015446192 1.766 20.3880760996
6779 1 8.83 31.788 40.618 12 11.015446192 1.766 20.7010917821
6780 1 7.064 33.554 40.618 12 11.015446192 1.766 22.5766414701
6781 1 10.596 31.788 38.852 12 11.015446192 1.766 18.462564812
6782 1 12.362 33.554 38.852 12 11.015446192 1.766 18.3699748039
6783 1 12.362 31.788 40.618 12 11.015446192 1.766 18.5438710392
6784 1 10.596 33.554 40.618 12 11.015446192 1.766 20.4620007676
6785 1 14.128 31.788 38.852 12 11.015446192 1.766 16.4054505859
6786 1 15.894 33.554 38.852 12 11.015446192 1.766 16.5799141209
6787 1 15.894 31.788 40.618 12 11.015446192 1.766 16.7202844281
6788 1 14.128 33.554 40.618 12 11.015446192 1.766 18.5308495339
6789 1 17.66 31.788 38.852 12 11.015446192 1.766 14.7386361033
6790 1 19.426 33.554 38.852 12 11.015446192 1.766 15.3007237944
6791 1 19.426 31.788 40.618 12 11.015446192 1.766 15.27296687
6792 1 17.66 33.554 40.618 12 11.015446192 1.766 17.0456500211
6793 1 21.192 31.788 38.852 12 11.015446192 1.766 13.5166701423
6794 1 22.958 33.554 38.852 12 11.015446192 1.766 14.4821792591
6795 1 22.958 31.788 40.618 12 11.015446192 1.766 14.4277086317
6796 1 21.192 33.554 40.618 12 11.015446192 1.766 15.9392330233
6797 1 24.724 31.788 38.852 12 11.015446192 1.766 13.0411140277
6798 1 26.49 33.554 38.852 12 11.015446192 1.766 14.4768374806
6799 1 26.49 31.788 40.618 12 11.015446192 1.766 14.4223466783
6800 1 24.724 33.554 40.618 12 11.015446192 1.766 15.5379996369
6801 1 28.256 31.788 38.852 12 11.015446192 1.766 13.5052207102
6802 1 30.022 33.554 38.852 12 11.015446192 1.766 15.3092840717
6803 1 30.022 31.788 40.618 12 11.015446192 1.766 15.257766516
6804 1 28.256 33.554 40.618 12 11.015446192 1.766 15.9295249165
6805 1 31.788 31.788 38.852 12 11.015446192 1.766 14.8209772208
6806 1 33.554 33.554 38.852 12 11.015446192 1.766 16.7931431917
6807 1 33.554 31.788 40.618 12 11.015446192 1.766 16.8090702421
6808 1 31.788 33.554 40.618 12 11.015446192 1.766 17.0593125129
6809 1 35.32 31.788 38.852 12 11.015446192 1.766 16.6265460298
6810 1 37.086 33.554 38.852 12 11.015446192 1.766 18.6076643901
6811 1 37.086 31.788 40.618 12 11.015446192 1.766 18.7657428644
6812 1 35.32 33.554 40.618 12 11.015446192 1.766 18.7442790806
6813 1 38.852 31.788 38.852 12 11.015446192 1.766 18.7627868092
6814 1 40.618 33.554 38.852 12 11.015446192 1.766 20.8389870346
6815 1 40.618 31.788 40.618 12 11.015446192 1.766 20.941920558
6816 1 38.852 33.554 40.618 12 11.015446192 1.766 20.6931484825
6817 1 0.0 35.32 38.852 12 11.015446192 1.766 22.9990070449
6818 1 1.766 37.086 38.852 12 11.015446192 1.766 25.2084231534
6819 1 1.766 35.32 40.618 12 11.015446192 1.766 25.0553329141
6820 1 0.0 37.086 40.618 12 11.015446192 1.766 24.8537509868
6821 1 3.532 35.32 38.852 12 11.015446192 1.766 24.8218812014
6822 1 5.298 37.086 38.852 12 11.015446192 1.766 24.53809813
6823 1 5.298 35.32 40.618 12 11.015446192 1.766 24.5545728219
6824 1 3.532 37.086 40.618 12 11.015446192 1.766 26.6199995654
6825 1 7.064 35.32 38.852 12 11.015446192 1.766 22.4200455272
6826 1 8.83 37.086 38.852 12 11.015446192 1.766 22.3858423764
6827 1 8.83 35.32 40.618 12 11.015446192 1.766 22.4034405091
6828 1 7.064 37.086 40.618 12 11.015446192 1.766 24.3958404636
6829 1 10.596 35.32 38.852 12 11.015446192 1.766 20.3504204383
6830 1 12.362 37.086 38.852 12 11.015446192 1.766 20.5916730953
6831 1 12.362 35.32 40.618 12 11.015446192 1.766 20.484119236
6832 1 10.596 37.086 40.618 12 11.015446192 1.766 22.4830754887
6833 1 14.128 35.32 38.852 12 11.015446192 1.766 18.5684680156
6834 1 15.894 37.086 38.852 12 11.015446192 1.766 19.0239835611
6835 1 15.894 35.32 40.618 12 11.015446192 1.766 18.8516481979
6836 1 14.128 37.086 40.618 12 11.015446192 1.766 20.7766948672
6837 1 17.66 35.32 38.852 12 11.015446192 1.766 17.1143093773
6838 1 19.426 37.086 38.852 12 11.015446192 1.766 17.7992034074
6839 1 19.426 35.32 40.618 12 11.015446192 1.766 17.6752117245
6840 1 17.66 37.086 40.618 12 11.015446192 1.766 19.4723846605
6841 1 21.192 35.32 38.852 12 11.015446192 1.766 16.1368084555
6842 1 22.958 37.086 38.852 12 11.015446192 1.766 17.0835250683
6843 1 22.958 35.32 40.618 12 11.015446192 1.766 16.9508054595
6844 1 21.192 37.086 40.618 12 11.015446192 1.766 18.5824869137
6845 1 24.724 35.32 38.852 12 11.015446192 1.766 15.7476818709
6846 1 26.49 37.086 38.852 12 11.015446192 1.766 17.0829632906
6847 1 26.49 35.32 40.618 12 11.015446192 1.766 16.9462418569
6848 1 24.724 37.086 40.618 12 11.015446192 1.766 18.2432070077
6849 1 28.256 35.32 38.852 12 11.015446192 1.766 16.1383182004
6850 1 30.022 37.086 38.852 12 11.015446192 1.766 17.7977102128
6851 1 30.022 35.32 40.618 12 11.015446192 1.766 17.6626857647
6852 1 28.256 37.086 40.618 12 11.015446192 1.766 18.5814539785
6853 1 31.788 35.32 38.852 12 11.015446192 1.766 17.2480666041
6854 1 33.554 37.086 38.852 12 11.015446192 1.766 19.1412563387
6855 1 33.554 35.32 40.618 12 11.015446192 1.766 19.0123622654
6856 1 31.788 37.086 40.618 12 11.015446192 1.766 19.5618556578
6857 1 35.32 35.32 38.852 12 11.015446192 1.766 18.7718675914
6858 1 37.086 37.086 38.852 12 11.015446192 1.766 20.796210765
6859 1 37.086 35.32 40.618 12 11.015446192 1.766 20.6975251727
6860 1 35.32 37.086 40.618 12 11.015446192 1.766 20.9920901442
6861 1 38.852 35.32 38.852 12 11.015446192 1.766 20.7006428503
6862 1 40.618 37.086 38.852 12 11.015446192 1.766 22.8483477529
6863 1 40.618 35.32 40.618 12 11.015446192 1.766 22.7314793649
6864 1 38.852 37.086 40.618 12 11.015446192 1.766 22.7350916951
6865 1 0.0 38.852 38.852 12 11.015446192 1.766 25.0179623959
6866 1 1.766 40.618 38.852 12 11.015446192 1.766 27.2147603269
6867 1 1.766 38.852 40.618 12 11.015446192 1.766 27.0309556797
6868 1 0.0 40.618 40.618 12 11.015446192 1.766 26.9534637266
6869 1 3.532 38.852 38.852 12 11.015446192 1.766 26.721772064
6870 1 5.298 40.618 38.852 12 11.015446192 1.766 26.693081495
6871 1 5.298 38.852 40.618 12 11.015446192 1.766 26.4736541174
6872 1 3.532 40.618 40.618 12 11.015446192 1.766 28.6186428176
6873 1 7.064 38.852 38.852 12 11.015446192 1.766 24.5068512318
6874 1 8.83 40.618 38.852 12 11.015446192 1.766 24.7229037027
6875 1 8.83 38.852 40.618 12 11.015446192 1.766 24.4920811975
6876 1 7.064 40.618 40.618 12 11.015446192 1.766 26.5623675862
6877 1 10.596 38.852 38.852 12 11.015446192 1.766 22.6223634137
6878 1 12.362 40.618 38.852 12 11.015446192 1.766 22.9659816457
6879 1 12.362 38.852 40.618 12 11.015446192 1.766 22.7794306762
6880 1 10.596 40.618 40.618 12 11.015446192 1.766 24.8014299704
6881 1 14.128 38.852 38.852 12 11.015446192 1.766 20.9745037234
6882 1 15.894 40.618 38.852 12 11.015446192 1.766 21.5699138328
6883 1 15.894 38.852 40.618 12 11.015446192 1.766 21.3314651114
6884 1 14.128 40.618 40.618 12 11.015446192 1.766 23.2555667074
6885 1 17.66 38.852 38.852 12 11.015446192 1.766 19.6372977567
6886 1 19.426 40.618 38.852 12 11.015446192 1.766 20.4202495005
6887 1 19.426 38.852 40.618 12 11.015446192 1.766 20.1960070397
6888 1 17.66 40.618 40.618 12 11.015446192 1.766 21.9755228562
6889 1 21.192 38.852 38.852 12 11.015446192 1.766 18.6595604775
6890 1 22.958 40.618 38.852 12 11.015446192 1.766 19.7994279638
6891 1 22.958 38.852 40.618 12 11.015446192 1.766 19.5680724237
6892 1 21.192 40.618 40.618 12 11.015446192 1.766 21.1063814717
6893 1 24.724 38.852 38.852 12 11.015446192 1.766 18.3217078691
6894 1 26.49 40.618 38.852 12 11.015446192 1.766 19.7989432476
6895 1 26.49 38.852 40.618 12 11.015446192 1.766 19.5675819765
6896 1 24.724 40.618 40.618 12 11.015446192 1.766 20.8082945207
6897 1 28.256 38.852 38.852 12 11.015446192 1.766 18.6585318091
6898 1 30.022 40.618 38.852 12 11.015446192 1.766 20.41883953
6899 1 30.022 38.852 40.618 12 11.015446192 1.766 20.1945814127
6900 1 28.256 40.618 40.618 12 11.015446192 1.766 21.1054720603
6901 1 31.788 38.852 38.852 12 11.015446192 1.766 19.6353428108
6902 1 33.554 40.618 38.852 12 11.015446192 1.766 21.605709754
6903 1 33.554 38.852 40.618 12 11.015446192 1.766 21.3939715916
6904 1 31.788 40.618 40.618 12 11.015446192 1.766 21.9737759367
