ITEM: TIMESTEP
0
ITEM: NUMBER OF ATOMS
6895
ITEM: BOX BOUNDS abc origin pp pp pp
42.384 0.0 0.0 0.0
0.0 42.384 0.0 0.0
0.0 0.0 42.384 0.0
ITEM: ATOMS id type x y z Coordination AtomicVolume CavityRadius SurfaceDistance
1 1 0.0 0.0 0.0 12 11.015446192 1.766 26.9382945659
2 1 1.766 1.766 0.0 12 11.015446192 1.766 27.0689434297
3 1 1.766 0.0 1.766 12 11.015446192 1.766 25.0891224492
4 1 0.0 1.766 1.766 12 11.015446192 1.766 26.9291583783
5 1 3.532 0.0 0.0 12 11.015446192 1.766 25.1924357552
6 1 5.298 1.766 0.0 12 11.015446192 1.766 25.5279309353
7 1 5.298 0.0 1.766 12 11.015446192 1.766 23.4679505961
8 1 3.532 1.766 1.766 12 11.015446192 1.766 25.2836259234
9 1 7.064 0.0 0.0 12 11.015446192 1.766 23.8043837329
10 1 8.83 1.766 0.0 12 11.015446192 1.766 24.2846641843
11 1 8.83 0.0 1.766 12 11.015446192 1.766 22.1349228677
12 1 7.064 1.766 1.766 12 11.015446192 1.766 23.8307111378
13 1 10.596 0.0 0.0 12 11.015446192 1.766 22.7408084554
14 1 12.362 1.766 0.0 12 11.015446192 1.766 23.5109467962
15 1 12.362 0.0 1.766 12 11.015446192 1.766 21.28140375
16 1 10.596 1.766 1.766 12 11.015446192 1.766 22.7694416717
17 1 14.128 0.0 0.0 12 11.015446192 1.766 22.1937542659
18 1 15.894 1.766 0.0 12 11.015446192 1.766 23.2536958775
19 1 15.894 0.0 1.766 12 11.015446192 1.766 20.9950358128
20 1 14.128 1.766 1.766 12 11.015446192 1.766 22.2248105222
21 1 17.66 0.0 0.0 12 11.015446192 1.766 22.2020525093
22 1 19.426 1.766 0.0 12 11.015446192 1.766 23.5298570474
23 1 19.426 0.0 1.766 12 11.015446192 1.766 21.2987079419
24 1 17.66 1.766 1.766 12 11.015446192 1.766 22.2348145812
25 1 21.192 0.0 0.0 12 11.015446192 1.766 22.7650958891
26 1 22.958 1.766 0.0 12 11.015446192 1.766 24.3212668539
27 1 22.958 0.0 1.766 12 11.015446192 1.766 22.0839333706
28 1 21.192 1.766 1.766 12 11.015446192 1.766 22.7987237399
29 1 24.724 0.0 0.0 12 11.015446192 1.766 23.7316478924
30 1 26.49 1.766 0.0 12 11.015446192 1.766 25.4846559442
31 1 26.49 0.0 1.766 12 11.015446192 1.766 23.1758198033
32 1 24.724 1.766 1.766 12 11.015446192 1.766 23.823044998
33 1 28.256 0.0 0.0 12 11.015446192 1.766 24.996797618
34 1 30.022 1.766 0.0 12 11.015446192 1.766 26.8977824752
35 1 30.022 0.0 1.766 12 11.015446192 1.766 24.7229043619
36 1 28.256 1.766 1.766 12 11.015446192 1.766 25.0903480128
37 1 31.788 0.0 0.0 12 11.015446192 1.766 26.6252489923
38 1 33.554 1.766 0.0 12 11.015446192 1.766 28.600686095
39 1 33.554 0.0 1.766 12 11.015446192 1.766 26.530420898
40 1 31.788 1.766 1.766 12 11.015446192 1.766 26.7068443324
41 1 35.32 0.0 0.0 12 11.015446192 1.766 28.4266027782
42 1 37.086 1.766 0.0 12 11.015446192 1.766 30.4705169984
43 1 37.086 0.0 1.766 12 11.015446192 1.766 28.5337781626
44 1 35.32 1.766 1.766 12 11.015446192 1.766 28.489716606
45 1 38.852 0.0 0.0 12 11.015446192 1.766 29.0109402977
46 1 40.618 1.766 0.0 12 11.015446192 1.766 28.8249103321
47 1 40.618 0.0 1.766 12 11.015446192 1.766 27.0657688811
48 1 38.852 1.766 1.766 12 11.015446192 1.766 28.9102464918
49 1 0.0 3.532 0.0 12 11.015446192 1.766 26.7912667949
50 1 1.766 5.298 0.0 12 11.015446192 1.766 24.8423735037
51 1 1.766 3.532 1.766 12 11.015446192 1.766 24.8659124865
52 1 0.0 5.298 1.766 12 11.015446192 1.766 24.6899856999
53 1 3.532 3.532 0.0 12 11.015446192 1.766 25.1177108195
54 1 5.298 5.298 0.0 12 11.015446192 1.766 23.2021695022
55 1 5.298 3.532 1.766 12 11.015446192 1.766 23.2804659602
56 1 3.532 5.298 1.766 12 11.015446192 1.766 22.8893569287
57 1 7.064 3.532 0.0 12 11.015446192 1.766 23.6179016866
58 1 8.83 5.298 0.0 12 11.015446192 1.766 21.8268258416
59 1 8.83 3.532 1.766 12 11.015446192 1.766 21.9150707864
60 1 7.064 5.298 1.766 12 11.015446192 1.766 21.3206051768
61 1 10.596 3.532 0.0 12 11.015446192 1.766 22.5466175021
62 1 12.362 5.298 0.0 12 11.015446192 1.766 20.9625864584
63 1 12.362 3.532 1.766 12 11.015446192 1.766 21.0544539773
64 1 10.596 5.298 1.766 12 11.015446192 1.766 20.1274162727
65 1 14.128 3.532 0.0 12 11.015446192 1.766 21.9964699326
66 1 15.894 5.298 0.0 12 11.015446192 1.766 20.6736495021
67 1 15.894 3.532 1.766 12 11.015446192 1.766 20.7667952508
68 1 14.128 5.298 1.766 12 11.015446192 1.766 19.5091674482
69 1 17.66 3.532 0.0 12 11.015446192 1.766 22.006577794
70 1 19.426 5.298 0.0 12 11.015446192 1.766 20.983793376
71 1 19.426 3.532 1.766 12 11.015446192 1.766 21.0755684549
72 1 17.66 5.298 1.766 12 11.015446192 1.766 19.5205632919
73 1 21.192 3.532 0.0 12 11.015446192 1.766 22.5761885825
74 1 22.958 5.298 0.0 12 11.015446192 1.766 21.8675429153
75 1 22.958 3.532 1.766 12 11.015446192 1.766 21.9556163903
76 1 21.192 5.298 1.766 12 11.015446192 1.766 20.1605361025
77 1 24.724 3.532 0.0 12 11.015446192 1.766 23.6568737432
78 1 26.49 5.298 0.0 12 11.015446192 1.766 23.1686543066
79 1 26.49 3.532 1.766 12 11.015446192 1.766 23.1562824756
80 1 24.724 5.298 1.766 12 11.015446192 1.766 21.3235190335
81 1 28.256 3.532 0.0 12 11.015446192 1.766 24.9788119166
82 1 30.022 5.298 0.0 12 11.015446192 1.766 24.669257517
83 1 30.022 3.532 1.766 12 11.015446192 1.766 24.7002121559
84 1 28.256 5.298 1.766 12 11.015446192 1.766 22.7358681101
85 1 31.788 3.532 0.0 12 11.015446192 1.766 26.6141821942
86 1 33.554 5.298 0.0 12 11.015446192 1.766 26.3800859502
87 1 33.554 3.532 1.766 12 11.015446192 1.766 26.4454409396
88 1 31.788 5.298 1.766 12 11.015446192 1.766 24.4364457364
89 1 35.32 3.532 0.0 12 11.015446192 1.766 28.4148602576
90 1 37.086 5.298 0.0 12 11.015446192 1.766 28.4006138435
91 1 37.086 3.532 1.766 12 11.015446192 1.766 28.4568545971
92 1 35.32 5.298 1.766 12 11.015446192 1.766 26.3673039501
93 1 38.852 3.532 0.0 12 11.015446192 1.766 28.7818477122
94 1 40.618 5.298 0.0 12 11.015446192 1.766 26.7449299597
95 1 40.618 3.532 1.766 12 11.015446192 1.766 26.766795868
96 1 38.852 5.298 1.766 12 11.015446192 1.766 26.8368808752
97 1 0.0 7.064 0.0 12 11.015446192 1.766 24.7923944663
98 1 1.766 8.83 0.0 12 11.015446192 1.766 22.9290712272
99 1 1.766 7.064 1.766 12 11.015446192 1.766 22.6981155756
100 1 0.0 8.83 1.766 12 11.015446192 1.766 22.7807213397
101 1 3.532 7.064 0.0 12 11.015446192 1.766 22.9830111771
102 1 5.298 8.83 0.0 12 11.015446192 1.766 21.1374574849
103 1 5.298 7.064 1.766 12 11.015446192 1.766 20.9856362117
104 1 3.532 8.83 1.766 12 11.015446192 1.766 20.8116229044
105 1 7.064 7.064 0.0 12 11.015446192 1.766 21.376288636
106 1 8.83 8.83 0.0 12 11.015446192 1.766 19.696107965
107 1 8.83 7.064 1.766 12 11.015446192 1.766 19.4784692249
108 1 7.064 8.83 1.766 12 11.015446192 1.766 19.1332534066
109 1 10.596 7.064 0.0 12 11.015446192 1.766 20.1863913704
110 1 12.362 8.83 0.0 12 11.015446192 1.766 18.7362080155
111 1 12.362 7.064 1.766 12 11.015446192 1.766 18.5048768722
112 1 10.596 8.83 1.766 12 11.015446192 1.766 17.7968633637
113 1 14.128 7.064 0.0 12 11.015446192 1.766 19.5700057554
114 1 15.894 8.83 0.0 12 11.015446192 1.766 18.4123665918
115 1 15.894 7.064 1.766 12 11.015446192 1.766 18.1769145006
116 1 14.128 8.83 1.766 12 11.015446192 1.766 17.0945334624
117 1 17.66 7.064 0.0 12 11.015446192 1.766 19.5813661928
118 1 19.426 8.83 0.0 12 11.015446192 1.766 18.759931882
119 1 19.426 7.064 1.766 12 11.015446192 1.766 18.5288969308
120 1 17.66 8.83 1.766 12 11.015446192 1.766 17.1075378417
121 1 21.192 7.064 0.0 12 11.015446192 1.766 20.219414598
122 1 22.958 8.83 0.0 12 11.015446192 1.766 19.6993361342
123 1 22.958 7.064 1.766 12 11.015446192 1.766 19.5240843622
124 1 21.192 8.83 1.766 12 11.015446192 1.766 17.8343117533
125 1 24.724 7.064 0.0 12 11.015446192 1.766 21.4029340437
126 1 26.49 8.83 0.0 12 11.015446192 1.766 21.0215170518
127 1 26.49 7.064 1.766 12 11.015446192 1.766 20.8813841449
128 1 24.724 8.83 1.766 12 11.015446192 1.766 19.098005006
129 1 28.256 7.064 0.0 12 11.015446192 1.766 22.8280069647
130 1 30.022 8.83 0.0 12 11.015446192 1.766 22.5507899847
131 1 30.022 7.064 1.766 12 11.015446192 1.766 22.4567281228
132 1 28.256 8.83 1.766 12 11.015446192 1.766 20.5703783465
133 1 31.788 7.064 0.0 12 11.015446192 1.766 24.4128249049
134 1 33.554 8.83 0.0 12 11.015446192 1.766 24.3777360082
135 1 33.554 7.064 1.766 12 11.015446192 1.766 24.2936964337
136 1 31.788 8.83 1.766 12 11.015446192 1.766 22.2822414382
137 1 35.32 7.064 0.0 12 11.015446192 1.766 26.3476171178
138 1 37.086 8.83 0.0 12 11.015446192 1.766 26.5510818016
139 1 37.086 7.064 1.766 12 11.015446192 1.766 26.4626564199
140 1 35.32 8.83 1.766 12 11.015446192 1.766 24.3866601129
141 1 38.852 7.064 0.0 12 11.015446192 1.766 26.9268148385
142 1 40.618 8.83 0.0 12 11.015446192 1.766 24.9899498731
143 1 40.618 7.064 1.766 12 11.015446192 1.766 24.7659485571
144 1 38.852 8.83 1.766 12 11.015446192 1.766 25.0111536044
145 1 0.0 10.596 0.0 12 11.015446192 1.766 23.1460757892
146 1 1.766 12.362 0.0 12 11.015446192 1.766 21.3150638785
147 1 1.766 10.596 1.766 12 11.015446192 1.766 20.9017320329
148 1 0.0 12.362 1.766 12 11.015446192 1.766 21.2087451574
149 1 3.532 10.596 0.0 12 11.015446192 1.766 21.0790375912
150 1 5.298 12.362 0.0 12 11.015446192 1.766 19.3098180991
151 1 5.298 10.596 1.766 12 11.015446192 1.766 18.9607878602
152 1 3.532 12.362 1.766 12 11.015446192 1.766 19.0598599853
153 1 7.064 10.596 0.0 12 11.015446192 1.766 19.3736412852
154 1 8.83 12.362 0.0 12 11.015446192 1.766 17.7864063233
155 1 8.83 10.596 1.766 12 11.015446192 1.766 17.3918133479
156 1 7.064 12.362 1.766 12 11.015446192 1.766 17.1591440579
157 1 10.596 10.596 0.0 12 11.015446192 1.766 18.1823396443
158 1 12.362 12.362 0.0 12 11.015446192 1.766 16.8752010436
159 1 12.362 10.596 1.766 12 11.015446192 1.766 16.3254694214
160 1 10.596 12.362 1.766 12 11.015446192 1.766 15.8234979221
161 1 14.128 10.596 0.0 12 11.015446192 1.766 17.5235729531
162 1 15.894 12.362 0.0 12 11.015446192 1.766 16.5993645597
163 1 15.894 10.596 1.766 12 11.015446192 1.766 15.9527647929
164 1 14.128 12.362 1.766 12 11.015446192 1.766 15.1240726232
165 1 17.66 10.596 0.0 12 11.015446192 1.766 17.5362591721
166 1 19.426 12.362 0.0 12 11.015446192 1.766 16.8779161491
167 1 19.426 10.596 1.766 12 11.015446192 1.766 16.3526910704
168 1 17.66 12.362 1.766 12 11.015446192 1.766 15.1378798239
169 1 21.192 10.596 0.0 12 11.015446192 1.766 18.1745073606
170 1 22.958 12.362 0.0 12 11.015446192 1.766 17.685576497
171 1 22.958 10.596 1.766 12 11.015446192 1.766 17.3556223809
172 1 21.192 12.362 1.766 12 11.015446192 1.766 15.7890802559
173 1 24.724 10.596 0.0 12 11.015446192 1.766 19.2657811067
174 1 26.49 12.362 0.0 12 11.015446192 1.766 19.1078704786
175 1 26.49 10.596 1.766 12 11.015446192 1.766 18.7693290156
176 1 24.724 12.362 1.766 12 11.015446192 1.766 17.0095850854
177 1 28.256 10.596 0.0 12 11.015446192 1.766 20.8012233165
178 1 30.022 12.362 0.0 12 11.015446192 1.766 20.7810792569
179 1 30.022 10.596 1.766 12 11.015446192 1.766 20.3786139031
180 1 28.256 12.362 1.766 12 11.015446192 1.766 18.6159212205
181 1 31.788 10.596 0.0 12 11.015446192 1.766 22.5127990703
182 1 33.554 12.362 0.0 12 11.015446192 1.766 22.7505854656
183 1 33.554 10.596 1.766 12 11.015446192 1.766 22.3835606765
184 1 31.788 12.362 1.766 12 11.015446192 1.766 20.489348688
185 1 35.32 10.596 0.0 12 11.015446192 1.766 24.5975004814
186 1 37.086 12.362 0.0 12 11.015446192 1.766 25.0654158349
187 1 37.086 10.596 1.766 12 11.015446192 1.766 24.7325166618
188 1 35.32 12.362 1.766 12 11.015446192 1.766 22.7601475743
189 1 38.852 10.596 0.0 12 11.015446192 1.766 25.3055522434
190 1 40.618 12.362 0.0 12 11.015446192 1.766 23.5052655294
191 1 40.618 10.596 1.766 12 11.015446192 1.766 23.0531305008
192 1 38.852 12.362 1.766 12 11.015446192 1.766 23.4919877832
193 1 0.0 14.128 0.0 12 11.015446192 1.766 21.8360503415
194 1 1.766 15.894 0.0 12 11.015446192 1.766 20.133463283
195 1 1.766 14.128 1.766 12 11.015446192 1.766 19.4812746389
196 1 0.0 15.894 1.766 12 11.015446192 1.766 20.0268970271
197 1 3.532 14.128 0.0 12 11.015446192 1.766 19.5671969734
198 1 5.298 15.894 0.0 12 11.015446192 1.766 17.997040608
199 1 5.298 14.128 1.766 12 11.015446192 1.766 17.268608374
200 1 3.532 15.894 1.766 12 11.015446192 1.766 17.7326949319
201 1 7.064 14.128 0.0 12 11.015446192 1.766 17.7168662091
202 1 8.83 15.894 0.0 12 11.015446192 1.766 16.3517780539
203 1 8.83 14.128 1.766 12 11.015446192 1.766 15.5464468626
204 1 7.064 15.894 1.766 12 11.015446192 1.766 15.6671829129
205 1 10.596 14.128 0.0 12 11.015446192 1.766 16.4270979528
206 1 12.362 15.894 0.0 12 11.015446192 1.766 15.356362473
207 1 12.362 14.128 1.766 12 11.015446192 1.766 14.4958350201
208 1 10.596 15.894 1.766 12 11.015446192 1.766 14.1923507321
209 1 14.128 14.128 0.0 12 11.015446192 1.766 15.8354600195
210 1 15.894 15.894 0.0 12 11.015446192 1.766 15.119868784
211 1 15.894 14.128 1.766 12 11.015446192 1.766 14.2362208397
212 1 14.128 15.894 1.766 12 11.015446192 1.766 13.5031502318
213 1 17.66 14.128 0.0 12 11.015446192 1.766 15.8656185298
214 1 19.426 15.894 0.0 12 11.015446192 1.766 15.2781961236
215 1 19.426 14.128 1.766 12 11.015446192 1.766 14.4802366117
216 1 17.66 15.894 1.766 12 11.015446192 1.766 13.5082976984
217 1 21.192 14.128 0.0 12 11.015446192 1.766 16.3359705684
218 1 22.958 15.894 0.0 12 11.015446192 1.766 16.1529816324
219 1 22.958 14.128 1.766 12 11.015446192 1.766 15.4004152917
220 1 21.192 15.894 1.766 12 11.015446192 1.766 14.0532779641
221 1 24.724 14.128 0.0 12 11.015446192 1.766 17.5166919604
222 1 26.49 15.894 0.0 12 11.015446192 1.766 17.6207619288
223 1 26.49 14.128 1.766 12 11.015446192 1.766 16.970854205
224 1 24.724 15.894 1.766 12 11.015446192 1.766 15.3997035749
225 1 28.256 14.128 0.0 12 11.015446192 1.766 19.1790739896
226 1 30.022 15.894 0.0 12 11.015446192 1.766 19.4113377629
227 1 30.022 14.128 1.766 12 11.015446192 1.766 18.7370770067
228 1 28.256 15.894 1.766 12 11.015446192 1.766 17.1147770314
229 1 31.788 14.128 0.0 12 11.015446192 1.766 21.0384474742
230 1 33.554 15.894 0.0 12 11.015446192 1.766 21.5765358318
231 1 33.554 14.128 1.766 12 11.015446192 1.766 20.9000942271
232 1 31.788 15.894 1.766 12 11.015446192 1.766 19.1850474072
233 1 35.32 14.128 0.0 12 11.015446192 1.766 23.255691348
234 1 37.086 15.894 0.0 12 11.015446192 1.766 24.0112524688
235 1 37.086 14.128 1.766 12 11.015446192 1.766 23.3987151496
236 1 35.32 15.894 1.766 12 11.015446192 1.766 21.5937373271
237 1 38.852 14.128 0.0 12 11.015446192 1.766 24.0657782697
238 1 40.618 15.894 0.0 12 11.015446192 1.766 22.444670659
239 1 40.618 14.128 1.766 12 11.015446192 1.766 21.6849610391
240 1 38.852 15.894 1.766 12 11.015446192 1.766 22.4307651092
241 1 0.0 17.66 0.0 12 11.015446192 1.766 20.9836249047
242 1 1.766 19.426 0.0 12 11.015446192 1.766 19.5276928333
243 1 1.766 17.66 1.766 12 11.015446192 1.766 18.5247706577
244 1 0.0 19.426 1.766 12 11.015446192 1.766 19.4240157
245 1 3.532 17.66 0.0 12 11.015446192 1.766 18.6111422814
246 1 5.298 19.426 0.0 12 11.015446192 1.766 17.3166946693
247 1 5.298 17.66 1.766 12 11.015446192 1.766 16.177275877
248 1 3.532 19.426 1.766 12 11.015446192 1.766 17.0417990005
249 1 7.064 17.66 0.0 12 11.015446192 1.766 16.6549322394
250 1 8.83 19.426 0.0 12 11.015446192 1.766 15.5998426001
251 1 8.83 17.66 1.766 12 11.015446192 1.766 14.3245045177
252 1 7.064 19.426 1.766 12 11.015446192 1.766 14.8806943403
253 1 10.596 17.66 0.0 12 11.015446192 1.766 15.2757640325
254 1 12.362 19.426 0.0 12 11.015446192 1.766 14.5530859967
255 1 12.362 17.66 1.766 12 11.015446192 1.766 13.1768225515
256 1 10.596 19.426 1.766 12 11.015446192 1.766 13.3190563828
257 1 14.128 17.66 0.0 12 11.015446192 1.766 14.6376642144
258 1 15.894 19.426 0.0 12 11.015446192 1.766 14.2549735025
259 1 15.894 17.66 1.766 12 11.015446192 1.766 12.8863932926
260 1 14.128 19.426 1.766 12 11.015446192 1.766 12.5821107055
261 1 17.66 17.66 0.0 12 11.015446192 1.766 14.5759268374
262 1 19.426 19.426 0.0 12 11.015446192 1.766 14.3705436354
263 1 19.426 17.66 1.766 12 11.015446192 1.766 13.0495776144
264 1 17.66 19.426 1.766 12 11.015446192 1.766 12.4725039304
265 1 21.192 17.66 0.0 12 11.015446192 1.766 15.0823790562
266 1 22.958 19.426 0.0 12 11.015446192 1.766 15.2216652371
267 1 22.958 17.66 1.766 12 11.015446192 1.766 14.0557246679
268 1 21.192 19.426 1.766 12 11.015446192 1.766 13.0550964849
269 1 24.724 17.66 0.0 12 11.015446192 1.766 16.2746846512
270 1 26.49 19.426 0.0 12 11.015446192 1.766 16.5332745397
271 1 26.49 17.66 1.766 12 11.015446192 1.766 15.5465639341
272 1 24.724 19.426 1.766 12 11.015446192 1.766 14.2267506953
273 1 28.256 17.66 0.0 12 11.015446192 1.766 17.857264455
274 1 30.022 19.426 0.0 12 11.015446192 1.766 18.4258091593
275 1 30.022 17.66 1.766 12 11.015446192 1.766 17.54539492
276 1 28.256 19.426 1.766 12 11.015446192 1.766 16.0027087556
277 1 31.788 17.66 0.0 12 11.015446192 1.766 19.9378583099
278 1 33.554 19.426 0.0 12 11.015446192 1.766 20.7514280796
279 1 33.554 17.66 1.766 12 11.015446192 1.766 19.9254964101
280 1 31.788 19.426 1.766 12 11.015446192 1.766 18.2954362529
281 1 35.32 17.66 0.0 12 11.015446192 1.766 22.3651380142
282 1 37.086 19.426 0.0 12 11.015446192 1.766 23.3788384328
283 1 37.086 17.66 1.766 12 11.015446192 1.766 22.5400646658
284 1 35.32 19.426 1.766 12 11.015446192 1.766 20.9213517379
285 1 38.852 17.66 0.0 12 11.015446192 1.766 23.300266975
286 1 40.618 19.426 0.0 12 11.015446192 1.766 21.9084235483
287 1 40.618 17.66 1.766 12 11.015446192 1.766 20.8321456564
288 1 38.852 19.426 1.766 12 11.015446192 1.766 21.894177417
289 1 0.0 21.192 0.0 12 11.015446192 1.766 20.6571586006
290 1 1.766 22.958 0.0 12 11.015446192 1.766 19.378356413
291 1 1.766 21.192 1.766 12 11.015446192 1.766 18.1625428158
292 1 0.0 22.958 1.766 12 11.015446192 1.766 19.3239038336
293 1 3.532 21.192 0.0 12 11.015446192 1.766 18.2981989454
294 1 5.298 22.958 0.0 12 11.015446192 1.766 17.2268763683
295 1 5.298 21.192 1.766 12 11.015446192 1.766 15.8162486837
296 1 3.532 22.958 1.766 12 11.015446192 1.766 16.8971341228
297 1 7.064 21.192 0.0 12 11.015446192 1.766 16.2982552014
298 1 8.83 22.958 0.0 12 11.015446192 1.766 15.42353579
299 1 8.83 21.192 1.766 12 11.015446192 1.766 13.9037498399
300 1 7.064 22.958 1.766 12 11.015446192 1.766 14.7840017743
301 1 10.596 21.192 0.0 12 11.015446192 1.766 14.8454148644
302 1 12.362 22.958 0.0 12 11.015446192 1.766 14.2334132625
303 1 12.362 21.192 1.766 12 11.015446192 1.766 12.6634998902
304 1 10.596 22.958 1.766 12 11.015446192 1.766 13.0887791765
305 1 14.128 21.192 0.0 12 11.015446192 1.766 14.1067856674
306 1 15.894 22.958 0.0 12 11.015446192 1.766 13.8652333469
307 1 15.894 21.192 1.766 12 11.015446192 1.766 12.2684755893
308 1 14.128 22.958 1.766 12 11.015446192 1.766 12.1858835951
309 1 17.66 21.192 0.0 12 11.015446192 1.766 14.0554151628
310 1 19.426 22.958 0.0 12 11.015446192 1.766 14.2263283063
311 1 19.426 21.192 1.766 12 11.015446192 1.766 12.4806776684
312 1 17.66 22.958 1.766 12 11.015446192 1.766 12.2483572318
313 1 21.192 21.192 0.0 12 11.015446192 1.766 14.5255790668
314 1 22.958 22.958 0.0 12 11.015446192 1.766 14.8225768805
315 1 22.958 21.192 1.766 12 11.015446192 1.766 13.2506695881
316 1 21.192 22.958 1.766 12 11.015446192 1.766 12.6978375214
317 1 24.724 21.192 0.0 12 11.015446192 1.766 15.5013374969
318 1 26.49 22.958 0.0 12 11.015446192 1.766 16.1530187132
319 1 26.49 21.192 1.766 12 11.015446192 1.766 14.7238402838
320 1 24.724 22.958 1.766 12 11.015446192 1.766 13.7830069974
321 1 28.256 21.192 0.0 12 11.015446192 1.766 17.1457783831
322 1 30.022 22.958 0.0 12 11.015446192 1.766 18.0853888462
323 1 30.022 21.192 1.766 12 11.015446192 1.766 16.8211993886
324 1 28.256 22.958 1.766 12 11.015446192 1.766 15.609533435
325 1 31.788 21.192 0.0 12 11.015446192 1.766 19.3032125961
326 1 33.554 22.958 0.0 12 11.015446192 1.766 20.4497582844
327 1 33.554 21.192 1.766 12 11.015446192 1.766 19.3407361039
328 1 31.788 22.958 1.766 12 11.015446192 1.766 17.9525439487
329 1 35.32 21.192 0.0 12 11.015446192 1.766 21.8220155967
330 1 37.086 22.958 0.0 12 11.015446192 1.766 23.1139348891
331 1 37.086 21.192 1.766 12 11.015446192 1.766 22.0727316141
332 1 35.32 22.958 1.766 12 11.015446192 1.766 20.6368646456
333 1 38.852 21.192 0.0 12 11.015446192 1.766 23.0563060027
334 1 40.618 22.958 0.0 12 11.015446192 1.766 21.8201004922
335 1 40.618 21.192 1.766 12 11.015446192 1.766 20.5589150103
336 1 38.852 22.958 1.766 12 11.015446192 1.766 21.9105305181
337 1 0.0 24.724 0.0 12 11.015446192 1.766 20.5059043723
338 1 1.766 26.49 0.0 12 11.015446192 1.766 19.3472495902
339 1 1.766 24.724 1.766 12 11.015446192 1.766 18.0086801918
340 1 0.0 26.49 1.766 12 11.015446192 1.766 19.37490443
341 1 3.532 24.724 0.0 12 11.015446192 1.766 18.1515624475
342 1 5.298 26.49 0.0 12 11.015446192 1.766 17.1982032743
343 1 5.298 24.724 1.766 12 11.015446192 1.766 15.6772029205
344 1 3.532 26.49 1.766 12 11.015446192 1.766 16.8633930996
345 1 7.064 24.724 0.0 12 11.015446192 1.766 16.2295776333
346 1 8.83 26.49 0.0 12 11.015446192 1.766 15.562466804
347 1 8.83 24.724 1.766 12 11.015446192 1.766 13.8510651104
348 1 7.064 26.49 1.766 12 11.015446192 1.766 14.7753571866
349 1 10.596 24.724 0.0 12 11.015446192 1.766 14.774596025
350 1 12.362 26.49 0.0 12 11.015446192 1.766 14.5301517899
351 1 12.362 24.724 1.766 12 11.015446192 1.766 12.5680898148
352 1 10.596 26.49 1.766 12 11.015446192 1.766 13.3110797129
353 1 14.128 24.724 0.0 12 11.015446192 1.766 13.9809980461
354 1 15.894 26.49 0.0 12 11.015446192 1.766 14.1711532215
355 1 15.894 24.724 1.766 12 11.015446192 1.766 12.1495483149
356 1 14.128 26.49 1.766 12 11.015446192 1.766 12.532862676
357 1 17.66 24.724 0.0 12 11.015446192 1.766 14.0424497745
358 1 19.426 26.49 0.0 12 11.015446192 1.766 14.3960089716
359 1 19.426 24.724 1.766 12 11.015446192 1.766 12.4958883981
360 1 17.66 26.49 1.766 12 11.015446192 1.766 12.5225333982
361 1 21.192 24.724 0.0 12 11.015446192 1.766 14.5264901672
362 1 22.958 26.49 0.0 12 11.015446192 1.766 15.2087304343
363 1 22.958 24.724 1.766 12 11.015446192 1.766 13.2524003515
364 1 21.192 26.49 1.766 12 11.015446192 1.766 13.0305957122
365 1 24.724 24.724 0.0 12 11.015446192 1.766 15.5028169936
366 1 26.49 26.49 0.0 12 11.015446192 1.766 16.5360487449
367 1 26.49 24.724 1.766 12 11.015446192 1.766 14.7253978977
368 1 24.724 26.49 1.766 12 11.015446192 1.766 14.229974576
369 1 28.256 24.724 0.0 12 11.015446192 1.766 17.1471159938
370 1 30.022 26.49 0.0 12 11.015446192 1.766 18.4282984636
371 1 30.022 24.724 1.766 12 11.015446192 1.766 16.8225628076
372 1 28.256 26.49 1.766 12 11.015446192 1.766 16.0055749226
373 1 31.788 24.724 0.0 12 11.015446192 1.766 19.3044007179
374 1 33.554 26.49 0.0 12 11.015446192 1.766 20.7536384384
375 1 33.554 24.724 1.766 12 11.015446192 1.766 19.3419219207
376 1 31.788 26.49 1.766 12 11.015446192 1.766 18.2979432936
377 1 35.32 24.724 0.0 12 11.015446192 1.766 21.8230665867
378 1 37.086 26.49 0.0 12 11.015446192 1.766 23.3817710308
379 1 37.086 24.724 1.766 12 11.015446192 1.766 22.078012008
380 1 35.32 26.49 1.766 12 11.015446192 1.766 20.9259697614
381 1 38.852 24.724 0.0 12 11.015446192 1.766 23.1402902604
382 1 40.618 26.49 0.0 12 11.015446192 1.766 21.8587279031
383 1 40.618 24.724 1.766 12 11.015446192 1.766 20.6555680436
384 1 38.852 26.49 1.766 12 11.015446192 1.766 22.1640630586
385 1 0.0 28.256 0.0 12 11.015446192 1.766 20.7756573452
386 1 1.766 30.022 0.0 12 11.015446192 1.766 19.9481055417
387 1 1.766 28.256 1.766 12 11.015446192 1.766 18.3152501007
388 1 0.0 30.022 1.766 12 11.015446192 1.766 19.9749285273
389 1 3.532 28.256 0.0 12 11.015446192 1.766 18.4557590817
390 1 5.298 30.022 0.0 12 11.015446192 1.766 17.8714589182
391 1 5.298 28.256 1.766 12 11.015446192 1.766 16.0284283512
392 1 3.532 30.022 1.766 12 11.015446192 1.766 17.5494978512
393 1 7.064 28.256 0.0 12 11.015446192 1.766 16.5696166656
394 1 8.83 30.022 0.0 12 11.015446192 1.766 16.3034113309
395 1 8.83 28.256 1.766 12 11.015446192 1.766 14.2591266412
396 1 7.064 30.022 1.766 12 11.015446192 1.766 15.5538428689
397 1 10.596 28.256 0.0 12 11.015446192 1.766 15.2787236903
398 1 12.362 30.022 0.0 12 11.015446192 1.766 15.4001118887
399 1 12.362 28.256 1.766 12 11.015446192 1.766 13.2168421997
400 1 10.596 30.022 1.766 12 11.015446192 1.766 14.1707173125
401 1 14.128 28.256 0.0 12 11.015446192 1.766 14.6995302237
402 1 15.894 30.022 0.0 12 11.015446192 1.766 15.2395838708
403 1 15.894 28.256 1.766 12 11.015446192 1.766 12.9721626034
404 1 14.128 30.022 1.766 12 11.015446192 1.766 13.5884685786
405 1 17.66 28.256 0.0 12 11.015446192 1.766 14.6490716191
406 1 19.426 30.022 0.0 12 11.015446192 1.766 15.3145595183
407 1 19.426 28.256 1.766 12 11.015446192 1.766 13.0756862331
408 1 17.66 30.022 1.766 12 11.015446192 1.766 13.5801176183
409 1 21.192 28.256 0.0 12 11.015446192 1.766 15.0705366656
410 1 22.958 30.022 0.0 12 11.015446192 1.766 16.1081377095
411 1 22.958 28.256 1.766 12 11.015446192 1.766 13.9967831194
412 1 21.192 30.022 1.766 12 11.015446192 1.766 14.0387707277
413 1 24.724 28.256 0.0 12 11.015446192 1.766 16.2477200334
414 1 26.49 30.022 0.0 12 11.015446192 1.766 17.5803211334
415 1 26.49 28.256 1.766 12 11.015446192 1.766 15.5509890937
416 1 24.724 30.022 1.766 12 11.015446192 1.766 15.3133430306
417 1 28.256 28.256 0.0 12 11.015446192 1.766 17.8611171389
418 1 30.022 30.022 0.0 12 11.015446192 1.766 19.4179796564
419 1 30.022 28.256 1.766 12 11.015446192 1.766 17.5497731598
420 1 28.256 30.022 1.766 12 11.015446192 1.766 17.1265953203
421 1 31.788 28.256 0.0 12 11.015446192 1.766 19.9413090247
422 1 33.554 30.022 0.0 12 11.015446192 1.766 21.5912021625
423 1 33.554 28.256 1.766 12 11.015446192 1.766 19.9360469203
424 1 31.788 30.022 1.766 12 11.015446192 1.766 19.204243617
425 1 35.32 28.256 0.0 12 11.015446192 1.766 22.3727510335
426 1 37.086 30.022 0.0 12 11.015446192 1.766 24.0234804802
427 1 37.086 28.256 1.766 12 11.015446192 1.766 22.54990271
428 1 35.32 30.022 1.766 12 11.015446192 1.766 21.6040143906
429 1 38.852 28.256 0.0 12 11.015446192 1.766 23.4006598403
430 1 40.618 30.022 0.0 12 11.015446192 1.766 22.3922940661
431 1 40.618 28.256 1.766 12 11.015446192 1.766 20.9508067885
432 1 38.852 30.022 1.766 12 11.015446192 1.766 22.6927458125
433 1 0.0 31.788 0.0 12 11.015446192 1.766 21.6266920754
434 1 1.766 33.554 0.0 12 11.015446192 1.766 21.1302581788
435 1 1.766 31.788 1.766 12 11.015446192 1.766 19.2752239481
436 1 0.0 33.554 1.766 12 11.015446192 1.766 21.155582376
437 1 3.532 31.788 0.0 12 11.015446192 1.766 19.4087844875
438 1 5.298 33.554 0.0 12 11.015446192 1.766 19.1820212663
439 1 5.298 31.788 1.766 12 11.015446192 1.766 17.1171372434
440 1 3.532 33.554 1.766 12 11.015446192 1.766 18.8824196233
441 1 7.064 31.788 0.0 12 11.015446192 1.766 17.6249274734
442 1 8.83 33.554 0.0 12 11.015446192 1.766 17.7302599254
443 1 8.83 31.788 1.766 12 11.015446192 1.766 15.4728331139
444 1 7.064 33.554 1.766 12 11.015446192 1.766 17.0435596044
445 1 10.596 31.788 0.0 12 11.015446192 1.766 16.4172247839
446 1 12.362 33.554 0.0 12 11.015446192 1.766 16.9029477024
447 1 12.362 31.788 1.766 12 11.015446192 1.766 14.5179471597
448 1 10.596 33.554 1.766 12 11.015446192 1.766 15.7914573473
449 1 14.128 31.788 0.0 12 11.015446192 1.766 15.9121925158
450 1 15.894 33.554 0.0 12 11.015446192 1.766 16.6034822542
451 1 15.894 31.788 1.766 12 11.015446192 1.766 14.2394171621
452 1 14.128 33.554 1.766 12 11.015446192 1.766 15.1582824925
453 1 17.66 31.788 0.0 12 11.015446192 1.766 15.9125098766
454 1 19.426 33.554 0.0 12 11.015446192 1.766 16.9136380156
455 1 19.426 31.788 1.766 12 11.015446192 1.766 14.5156114204
456 1 17.66 33.554 1.766 12 11.015446192 1.766 15.1704296357
457 1 21.192 31.788 0.0 12 11.015446192 1.766 16.3366691317
458 1 22.958 33.554 0.0 12 11.015446192 1.766 17.6553903213
459 1 22.958 31.788 1.766 12 11.015446192 1.766 15.351730216
460 1 21.192 33.554 1.766 12 11.015446192 1.766 15.7901168608
461 1 24.724 31.788 0.0 12 11.015446192 1.766 17.4441437034
462 1 26.49 33.554 0.0 12 11.015446192 1.766 19.0157624781
463 1 26.49 31.788 1.766 12 11.015446192 1.766 16.8983811653
464 1 24.724 33.554 1.766 12 11.015446192 1.766 16.9333747878
465 1 28.256 31.788 0.0 12 11.015446192 1.766 19.1426127082
466 1 30.022 33.554 0.0 12 11.015446192 1.766 20.7997804911
467 1 30.022 31.788 1.766 12 11.015446192 1.766 18.7618689986
468 1 28.256 33.554 1.766 12 11.015446192 1.766 18.6173282487
469 1 31.788 31.788 0.0 12 11.015446192 1.766 21.0624614557
470 1 33.554 33.554 0.0 12 11.015446192 1.766 22.7662786885
471 1 33.554 31.788 1.766 12 11.015446192 1.766 20.9122297535
472 1 31.788 33.554 1.766 12 11.015446192 1.766 20.5032751709
473 1 35.32 31.788 0.0 12 11.015446192 1.766 23.2696802267
474 1 37.086 33.554 0.0 12 11.015446192 1.766 25.0712408601
475 1 37.086 31.788 1.766 12 11.015446192 1.766 23.4005347418
476 1 35.32 33.554 1.766 12 11.015446192 1.766 22.7634123469
477 1 38.852 31.788 0.0 12 11.015446192 1.766 24.1594029927
478 1 40.618 33.554 0.0 12 11.015446192 1.766 23.4515613455
479 1 40.618 31.788 1.766 12 11.015446192 1.766 21.7950034891
480 1 38.852 33.554 1.766 12 11.015446192 1.766 23.7386100795
481 1 0.0 35.32 0.0 12 11.015446192 1.766 22.9945587068
482 1 1.766 37.086 0.0 12 11.015446192 1.766 22.803481197
483 1 1.766 35.32 1.766 12 11.015446192 1.766 20.7983215248
484 1 0.0 37.086 1.766 12 11.015446192 1.766 22.8269491976
485 1 3.532 35.32 0.0 12 11.015446192 1.766 20.9221613435
486 1 5.298 37.086 0.0 12 11.015446192 1.766 21.0109705597
487 1 5.298 35.32 1.766 12 11.015446192 1.766 18.8157462623
488 1 3.532 37.086 1.766 12 11.015446192 1.766 20.7378088242
489 1 7.064 35.32 0.0 12 11.015446192 1.766 19.2788482136
490 1 8.83 37.086 0.0 12 11.015446192 1.766 19.6944931649
491 1 8.83 35.32 1.766 12 11.015446192 1.766 17.3333344908
492 1 7.064 37.086 1.766 12 11.015446192 1.766 19.0786233253
493 1 10.596 35.32 0.0 12 11.015446192 1.766 18.1813417987
494 1 12.362 37.086 0.0 12 11.015446192 1.766 18.8321726037
495 1 12.362 35.32 1.766 12 11.015446192 1.766 16.4091766742
496 1 10.596 37.086 1.766 12 11.015446192 1.766 17.9209761702
497 1 14.128 35.32 0.0 12 11.015446192 1.766 17.5762812327
498 1 15.894 37.086 0.0 12 11.015446192 1.766 18.507947163
499 1 15.894 35.32 1.766 12 11.015446192 1.766 16.0360363662
500 1 14.128 37.086 1.766 12 11.015446192 1.766 17.2232985616
501 1 17.66 35.32 0.0 12 11.015446192 1.766 17.5867583478
502 1 19.426 37.086 0.0 12 11.015446192 1.766 18.8517251041
503 1 19.426 35.32 1.766 12 11.015446192 1.766 16.4314744791
504 1 17.66 37.086 1.766 12 11.015446192 1.766 17.2339902679
505 1 21.192 35.32 0.0 12 11.015446192 1.766 18.2008357954
506 1 22.958 37.086 0.0 12 11.015446192 1.766 19.7181588582
507 1 22.958 35.32 1.766 12 11.015446192 1.766 17.33180174
508 1 21.192 37.086 1.766 12 11.015446192 1.766 17.9504694203
509 1 24.724 35.32 0.0 12 11.015446192 1.766 19.2097340033
510 1 26.49 37.086 0.0 12 11.015446192 1.766 20.947314328
511 1 26.49 35.32 1.766 12 11.015446192 1.766 18.7141795189
512 1 24.724 37.086 1.766 12 11.015446192 1.766 19.0657013703
513 1 28.256 35.32 0.0 12 11.015446192 1.766 20.7606145132
514 1 30.022 37.086 0.0 12 11.015446192 1.766 22.5651057912
515 1 30.022 35.32 1.766 12 11.015446192 1.766 20.3941721137
516 1 28.256 37.086 1.766 12 11.015446192 1.766 20.5736375756
517 1 31.788 35.32 0.0 12 11.015446192 1.766 22.5300665067
518 1 33.554 37.086 0.0 12 11.015446192 1.766 24.3863280797
519 1 33.554 35.32 1.766 12 11.015446192 1.766 22.3882978618
520 1 31.788 37.086 1.766 12 11.015446192 1.766 22.2884240048
521 1 35.32 35.32 0.0 12 11.015446192 1.766 24.6047260854
522 1 37.086 37.086 0.0 12 11.015446192 1.766 26.5510201339
523 1 37.086 35.32 1.766 12 11.015446192 1.766 24.7285170216
524 1 35.32 37.086 1.766 12 11.015446192 1.766 24.3836521785
525 1 38.852 35.32 0.0 12 11.015446192 1.766 25.3911928227
526 1 40.618 37.086 0.0 12 11.015446192 1.766 24.9697151273
527 1 40.618 35.32 1.766 12 11.015446192 1.766 23.1529284776
528 1 38.852 37.086 1.766 12 11.015446192 1.766 25.2395038087
529 1 0.0 38.852 0.0 12 11.015446192 1.766 24.7938641224
530 1 1.766 40.618 0.0 12 11.015446192 1.766 24.8688509325
531 1 1.766 38.852 1.766 12 11.015446192 1.766 22.7718279075
532 1 0.0 40.618 1.766 12 11.015446192 1.766 24.8903716659
533 1 3.532 38.852 0.0 12 11.015446192 1.766 22.8849907861
534 1 5.298 40.618 0.0 12 11.015446192 1.766 23.2362190526
535 1 5.298 38.852 1.766 12 11.015446192 1.766 20.9766125818
536 1 3.532 40.618 1.766 12 11.015446192 1.766 22.989512975
537 1 7.064 38.852 0.0 12 11.015446192 1.766 21.3929884879
538 1 8.83 40.618 0.0 12 11.015446192 1.766 21.9892228828
539 1 8.83 38.852 1.766 12 11.015446192 1.766 19.6309968971
540 1 7.064 40.618 1.766 12 11.015446192 1.766 21.4919476069
541 1 10.596 38.852 0.0 12 11.015446192 1.766 20.3187305702
542 1 12.362 40.618 0.0 12 11.015446192 1.766 21.129819171
543 1 12.362 38.852 1.766 12 11.015446192 1.766 18.6709557428
544 1 10.596 40.618 1.766 12 11.015446192 1.766 20.3234393584
545 1 14.128 38.852 0.0 12 11.015446192 1.766 19.7045469675
546 1 15.894 40.618 0.0 12 11.015446192 1.766 20.841368511
547 1 15.894 38.852 1.766 12 11.015446192 1.766 18.3438810386
548 1 14.128 40.618 1.766 12 11.015446192 1.766 19.7094024913
549 1 17.66 38.852 0.0 12 11.015446192 1.766 19.7138930302
550 1 19.426 40.618 0.0 12 11.015446192 1.766 21.1472474006
551 1 19.426 38.852 1.766 12 11.015446192 1.766 18.6906768944
552 1 17.66 40.618 1.766 12 11.015446192 1.766 19.7187462526
553 1 21.192 38.852 0.0 12 11.015446192 1.766 20.3459095058
554 1 22.958 40.618 0.0 12 11.015446192 1.766 22.0166355897
555 1 22.958 38.852 1.766 12 11.015446192 1.766 19.6417925522
556 1 21.192 40.618 1.766 12 11.015446192 1.766 20.3501312583
557 1 24.724 38.852 0.0 12 11.015446192 1.766 21.4060638644
558 1 26.49 40.618 0.0 12 11.015446192 1.766 23.1715521569
559 1 26.49 38.852 1.766 12 11.015446192 1.766 20.8812484136
560 1 24.724 40.618 1.766 12 11.015446192 1.766 21.3568915066
561 1 28.256 38.852 0.0 12 11.015446192 1.766 22.8078885853
562 1 30.022 40.618 0.0 12 11.015446192 1.766 24.683498856
563 1 30.022 38.852 1.766 12 11.015446192 1.766 22.4656903555
564 1 28.256 40.618 1.766 12 11.015446192 1.766 22.7540508822
565 1 31.788 38.852 0.0 12 11.015446192 1.766 24.4227040411
566 1 33.554 40.618 0.0 12 11.015446192 1.766 26.3824297042
567 1 33.554 38.852 1.766 12 11.015446192 1.766 24.2919833902
568 1 31.788 40.618 1.766 12 11.015446192 1.766 24.4550294685
569 1 35.32 38.852 0.0 12 11.015446192 1.766 26.3487593944
570 1 37.086 40.618 0.0 12 11.015446192 1.766 28.3953564872
571 1 37.086 38.852 1.766 12 11.015446192 1.766 26.4643936257
572 1 35.32 40.618 1.766 12 11.015446192 1.766 26.3799562821
573 1 38.852 38.852 0.0 12 11.015446192 1.766 27.0314380113
574 1 40.618 40.618 0.0 12 11.015446192 1.766 26.869083824
575 1 40.618 38.852 1.766 12 11.015446192 1.766 24.9408112356
576 1 38.852 40.618 1.766 12 11.015446192 1.766 27.1199842276
577 1 0.0 0.0 3.532 12 11.015446192 1.766 25.166353147
578 1 1.766 1.766 3.532 12 11.015446192 1.766 25.138788958
579 1 1.766 0.0 5.298 12 11.015446192 1.766 23.3642655156
580 1 0.0 1.766 5.298 12 11.015446192 1.766 25.2365926154
581 1 3.532 0.0 3.532 12 11.015446192 1.766 23.3190301464
582 1 5.298 1.766 3.532 12 11.015446192 1.766 23.6091272615
583 1 5.298 0.0 5.298 12 11.015446192 1.766 21.6518491209
584 1 3.532 1.766 5.298 12 11.015446192 1.766 23.4779231106
585 1 7.064 0.0 3.532 12 11.015446192 1.766 21.8000063191
586 1 8.83 1.766 3.532 12 11.015446192 1.766 22.2846438793
587 1 8.83 0.0 5.298 12 11.015446192 1.766 20.2729882326
588 1 7.064 1.766 5.298 12 11.015446192 1.766 22.0699482475
589 1 10.596 0.0 3.532 12 11.015446192 1.766 20.6327067232
590 1 12.362 1.766 3.532 12 11.015446192 1.766 21.4388679164
591 1 12.362 0.0 5.298 12 11.015446192 1.766 19.3374607198
592 1 10.596 1.766 5.298 12 11.015446192 1.766 20.923263042
593 1 14.128 0.0 3.532 12 11.015446192 1.766 20.0281538324
594 1 15.894 1.766 3.532 12 11.015446192 1.766 21.156436615
595 1 15.894 0.0 5.298 12 11.015446192 1.766 19.0218498128
596 1 14.128 1.766 5.298 12 11.015446192 1.766 20.3292317866
597 1 17.66 0.0 3.532 12 11.015446192 1.766 20.0373489551
598 1 19.426 1.766 3.532 12 11.015446192 1.766 21.4596041658
599 1 19.426 0.0 5.298 12 11.015446192 1.766 19.3207087959
600 1 17.66 1.766 5.298 12 11.015446192 1.766 20.3401681837
601 1 21.192 0.0 3.532 12 11.015446192 1.766 20.6009628904
602 1 22.958 1.766 3.532 12 11.015446192 1.766 22.3016680075
603 1 22.958 0.0 5.298 12 11.015446192 1.766 19.9775163708
604 1 21.192 1.766 5.298 12 11.015446192 1.766 20.9510968069
605 1 24.724 0.0 3.532 12 11.015446192 1.766 21.4912163441
606 1 26.49 1.766 3.532 12 11.015446192 1.766 23.4101569564
607 1 26.49 0.0 5.298 12 11.015446192 1.766 21.1720674807
608 1 24.724 1.766 5.298 12 11.015446192 1.766 21.8865337147
609 1 28.256 0.0 3.532 12 11.015446192 1.766 22.8801810529
610 1 30.022 1.766 3.532 12 11.015446192 1.766 24.9089049367
611 1 30.022 0.0 5.298 12 11.015446192 1.766 22.8361161506
612 1 28.256 1.766 5.298 12 11.015446192 1.766 23.2338295911
613 1 31.788 0.0 3.532 12 11.015446192 1.766 24.6732113496
614 1 33.554 1.766 3.532 12 11.015446192 1.766 26.5914748276
615 1 33.554 0.0 5.298 12 11.015446192 1.766 24.7027995292
616 1 31.788 1.766 5.298 12 11.015446192 1.766 24.7996802141
617 1 35.32 0.0 3.532 12 11.015446192 1.766 26.6068755001
618 1 37.086 1.766 3.532 12 11.015446192 1.766 28.5917874234
619 1 37.086 0.0 5.298 12 11.015446192 1.766 26.8402156629
620 1 35.32 1.766 5.298 12 11.015446192 1.766 26.700803158
621 1 38.852 0.0 3.532 12 11.015446192 1.766 27.3469694015
622 1 40.618 1.766 3.532 12 11.015446192 1.766 27.0204823703
623 1 40.618 0.0 5.298 12 11.015446192 1.766 25.4543765158
624 1 38.852 1.766 5.298 12 11.015446192 1.766 27.3405996293
625 1 0.0 3.532 3.532 12 11.015446192 1.766 24.8395448499
626 1 1.766 5.298 3.532 12 11.015446192 1.766 22.7238758396
627 1 1.766 3.532 5.298 12 11.015446192 1.766 23.0221554087
628 1 0.0 5.298 5.298 12 11.015446192 1.766 22.8320264045
629 1 3.532 3.532 3.532 12 11.015446192 1.766 23.050602055
630 1 5.298 5.298 3.532 12 11.015446192 1.766 21.0411490705
631 1 5.298 3.532 5.298 12 11.015446192 1.766 21.3732842975
632 1 3.532 5.298 5.298 12 11.015446192 1.766 20.8717200174
633 1 7.064 3.532 3.532 12 11.015446192 1.766 21.5561062894
634 1 8.83 5.298 3.532 12 11.015446192 1.766 19.577302281
635 1 8.83 3.532 5.298 12 11.015446192 1.766 19.990142317
636 1 7.064 5.298 5.298 12 11.015446192 1.766 19.3157933214
637 1 10.596 3.532 3.532 12 11.015446192 1.766 20.3767121751
638 1 12.362 5.298 3.532 12 11.015446192 1.766 18.6088814631
639 1 12.362 3.532 5.298 12 11.015446192 1.766 19.0427281282
640 1 10.596 5.298 5.298 12 11.015446192 1.766 18.0124498083
641 1 14.128 3.532 3.532 12 11.015446192 1.766 19.7662623623
642 1 15.894 5.298 3.532 12 11.015446192 1.766 18.282784854
643 1 15.894 3.532 5.298 12 11.015446192 1.766 18.7241888282
644 1 14.128 5.298 5.298 12 11.015446192 1.766 17.3188647666
645 1 17.66 3.532 3.532 12 11.015446192 1.766 19.7775100679
646 1 19.426 5.298 3.532 12 11.015446192 1.766 18.6327674468
647 1 19.426 3.532 5.298 12 11.015446192 1.766 19.0660705962
648 1 17.66 5.298 5.298 12 11.015446192 1.766 17.3317008257
649 1 21.192 3.532 3.532 12 11.015446192 1.766 20.4094274588
650 1 22.958 5.298 3.532 12 11.015446192 1.766 19.6042739886
651 1 22.958 3.532 5.298 12 11.015446192 1.766 19.9497958215
652 1 21.192 5.298 5.298 12 11.015446192 1.766 18.0477087695
653 1 24.724 3.532 3.532 12 11.015446192 1.766 21.46999803
654 1 26.49 5.298 3.532 12 11.015446192 1.766 20.8669495625
655 1 26.49 3.532 5.298 12 11.015446192 1.766 21.1483241577
656 1 24.724 5.298 5.298 12 11.015446192 1.766 19.141956362
657 1 28.256 3.532 3.532 12 11.015446192 1.766 22.8583511513
658 1 30.022 5.298 3.532 12 11.015446192 1.766 22.5194937275
659 1 30.022 3.532 5.298 12 11.015446192 1.766 22.7023494937
660 1 28.256 5.298 5.298 12 11.015446192 1.766 20.6565748131
661 1 31.788 3.532 3.532 12 11.015446192 1.766 24.5202274728
662 1 33.554 5.298 3.532 12 11.015446192 1.766 24.3550182673
663 1 33.554 3.532 5.298 12 11.015446192 1.766 24.5118420176
664 1 31.788 5.298 5.298 12 11.015446192 1.766 22.3875620135
665 1 35.32 3.532 3.532 12 11.015446192 1.766 26.4414505253
666 1 37.086 5.298 3.532 12 11.015446192 1.766 26.5007100526
667 1 37.086 3.532 5.298 12 11.015446192 1.766 26.6685990194
668 1 35.32 5.298 5.298 12 11.015446192 1.766 24.4767580261
669 1 38.852 3.532 3.532 12 11.015446192 1.766 26.9745392843
670 1 40.618 5.298 3.532 12 11.015446192 1.766 24.7895601095
671 1 40.618 3.532 5.298 12 11.015446192 1.766 25.0632678817
672 1 38.852 5.298 5.298 12 11.015446192 1.766 25.1344819359
673 1 0.0 7.064 3.532 12 11.015446192 1.766 22.6692266133
674 1 1.766 8.83 3.532 12 11.015446192 1.766 20.6334777503
675 1 1.766 7.064 5.298 12 11.015446192 1.766 20.6618122767
676 1 0.0 8.83 5.298 12 11.015446192 1.766 20.7508750907
677 1 3.532 7.064 3.532 12 11.015446192 1.766 20.6935038598
678 1 5.298 8.83 3.532 12 11.015446192 1.766 18.7753825417
679 1 5.298 7.064 5.298 12 11.015446192 1.766 18.8072533164
680 1 3.532 8.83 5.298 12 11.015446192 1.766 18.5740293793
681 1 7.064 7.064 3.532 12 11.015446192 1.766 19.0714024899
682 1 8.83 8.83 3.532 12 11.015446192 1.766 17.1722515814
683 1 8.83 7.064 5.298 12 11.015446192 1.766 17.2842768327
684 1 7.064 8.83 5.298 12 11.015446192 1.766 16.8393319003
685 1 10.596 7.064 3.532 12 11.015446192 1.766 17.7299417608
686 1 12.362 8.83 3.532 12 11.015446192 1.766 16.0594498375
687 1 12.362 7.064 5.298 12 11.015446192 1.766 16.1791820046
688 1 10.596 8.83 5.298 12 11.015446192 1.766 15.3643681246
689 1 14.128 7.064 3.532 12 11.015446192 1.766 17.0248513518
690 1 15.894 8.83 3.532 12 11.015446192 1.766 15.6804235208
691 1 15.894 7.064 5.298 12 11.015446192 1.766 15.8030276544
692 1 14.128 8.83 5.298 12 11.015446192 1.766 14.545051962
693 1 17.66 7.064 3.532 12 11.015446192 1.766 17.0379089168
694 1 19.426 8.83 3.532 12 11.015446192 1.766 16.087121635
695 1 19.426 7.064 5.298 12 11.015446192 1.766 16.2066493685
696 1 17.66 8.83 5.298 12 11.015446192 1.766 14.5603335568
697 1 21.192 7.064 3.532 12 11.015446192 1.766 17.7675312007
698 1 22.958 8.83 3.532 12 11.015446192 1.766 17.2101571846
699 1 22.958 7.064 5.298 12 11.015446192 1.766 17.2539482067
700 1 21.192 8.83 5.298 12 11.015446192 1.766 15.4074629721
701 1 24.724 7.064 3.532 12 11.015446192 1.766 18.9955251237
702 1 26.49 8.83 3.532 12 11.015446192 1.766 18.6260099316
703 1 26.49 7.064 5.298 12 11.015446192 1.766 18.6311774721
704 1 24.724 8.83 5.298 12 11.015446192 1.766 16.6960677012
705 1 28.256 7.064 3.532 12 11.015446192 1.766 20.5340342998
706 1 30.022 8.83 3.532 12 11.015446192 1.766 20.2780072527
707 1 30.022 7.064 5.298 12 11.015446192 1.766 20.3460557147
708 1 28.256 8.83 5.298 12 11.015446192 1.766 18.3542176947
709 1 31.788 7.064 3.532 12 11.015446192 1.766 22.3032669191
710 1 33.554 8.83 3.532 12 11.015446192 1.766 22.2920044431
711 1 33.554 7.064 5.298 12 11.015446192 1.766 22.3478453949
712 1 31.788 8.83 5.298 12 11.015446192 1.766 20.2530309086
713 1 35.32 7.064 3.532 12 11.015446192 1.766 24.3954113566
714 1 37.086 8.83 3.532 12 11.015446192 1.766 24.5771850054
715 1 37.086 7.064 5.298 12 11.015446192 1.766 24.5775933254
716 1 35.32 8.83 5.298 12 11.015446192 1.766 22.4527329062
717 1 38.852 7.064 3.532 12 11.015446192 1.766 24.9600082272
718 1 40.618 8.83 3.532 12 11.015446192 1.766 22.8597848096
719 1 40.618 7.064 5.298 12 11.015446192 1.766 22.9115645497
720 1 38.852 8.83 5.298 12 11.015446192 1.766 23.124060512
721 1 0.0 10.596 3.532 12 11.015446192 1.766 20.8470365129
722 1 1.766 12.362 3.532 12 11.015446192 1.766 18.9496575217
723 1 1.766 10.596 5.298 12 11.015446192 1.766 18.6740264253
724 1 0.0 12.362 5.298 12 11.015446192 1.766 18.9466419476
725 1 3.532 10.596 3.532 12 11.015446192 1.766 18.7099437972
726 1 5.298 12.362 3.532 12 11.015446192 1.766 16.8601884366
727 1 5.298 10.596 5.298 12 11.015446192 1.766 16.5998094027
728 1 3.532 12.362 5.298 12 11.015446192 1.766 16.7123046832
729 1 7.064 10.596 3.532 12 11.015446192 1.766 16.9277175422
730 1 8.83 12.362 3.532 12 11.015446192 1.766 15.1151540032
731 1 8.83 10.596 5.298 12 11.015446192 1.766 14.9272107511
732 1 7.064 12.362 5.298 12 11.015446192 1.766 14.7406679667
733 1 10.596 10.596 3.532 12 11.015446192 1.766 15.4415452146
734 1 12.362 12.362 3.532 12 11.015446192 1.766 13.9431115414
735 1 12.362 10.596 5.298 12 11.015446192 1.766 13.6329165665
736 1 10.596 12.362 5.298 12 11.015446192 1.766 13.1361053597
737 1 14.128 10.596 3.532 12 11.015446192 1.766 14.6265528175
738 1 15.894 12.362 3.532 12 11.015446192 1.766 13.5070792388
739 1 15.894 10.596 5.298 12 11.015446192 1.766 13.184315182
740 1 14.128 12.362 5.298 12 11.015446192 1.766 12.1706221842
741 1 17.66 10.596 3.532 12 11.015446192 1.766 14.6417493501
742 1 19.426 12.362 3.532 12 11.015446192 1.766 13.9605306343
743 1 19.426 10.596 5.298 12 11.015446192 1.766 13.6655028274
744 1 17.66 12.362 5.298 12 11.015446192 1.766 12.1888810421
745 1 21.192 10.596 3.532 12 11.015446192 1.766 15.4798324486
746 1 22.958 12.362 3.532 12 11.015446192 1.766 15.0300296306
747 1 22.958 10.596 5.298 12 11.015446192 1.766 14.9049235363
748 1 21.192 12.362 5.298 12 11.015446192 1.766 13.1449079241
749 1 24.724 10.596 3.532 12 11.015446192 1.766 16.8162563137
750 1 26.49 12.362 3.532 12 11.015446192 1.766 16.5352747752
751 1 26.49 10.596 5.298 12 11.015446192 1.766 16.3913696597
752 1 24.724 12.362 5.298 12 11.015446192 1.766 14.5578573192
753 1 28.256 10.596 3.532 12 11.015446192 1.766 18.3364312569
754 1 30.022 12.362 3.532 12 11.015446192 1.766 18.2896884688
755 1 30.022 10.596 5.298 12 11.015446192 1.766 18.1775239737
756 1 28.256 12.362 5.298 12 11.015446192 1.766 16.1767432728
757 1 31.788 10.596 3.532 12 11.015446192 1.766 20.2357498301
758 1 33.554 12.362 3.532 12 11.015446192 1.766 20.4999655666
759 1 33.554 10.596 5.298 12 11.015446192 1.766 20.3697996123
760 1 31.788 12.362 5.298 12 11.015446192 1.766 18.3015814306
761 1 35.32 10.596 3.532 12 11.015446192 1.766 22.5238634452
762 1 37.086 12.362 3.532 12 11.015446192 1.766 23.0091318142
763 1 37.086 10.596 5.298 12 11.015446192 1.766 22.7620902194
764 1 35.32 12.362 5.298 12 11.015446192 1.766 20.7404846787
765 1 38.852 10.596 3.532 12 11.015446192 1.766 23.1745619222
766 1 40.618 12.362 3.532 12 11.015446192 1.766 21.1940287239
767 1 40.618 10.596 5.298 12 11.015446192 1.766 20.9907407165
768 1 38.852 12.362 5.298 12 11.015446192 1.766 21.4717921922
769 1 0.0 14.128 3.532 12 11.015446192 1.766 19.3336083236
770 1 1.766 15.894 3.532 12 11.015446192 1.766 17.6313638745
771 1 1.766 14.128 5.298 12 11.015446192 1.766 17.0239334572
772 1 0.0 15.894 5.298 12 11.015446192 1.766 17.6136587474
773 1 3.532 14.128 3.532 12 11.015446192 1.766 17.1542411659
774 1 5.298 15.894 3.532 12 11.015446192 1.766 15.3627998531
775 1 5.298 14.128 5.298 12 11.015446192 1.766 14.8677357027
776 1 3.532 15.894 5.298 12 11.015446192 1.766 15.2685429435
777 1 7.064 14.128 3.532 12 11.015446192 1.766 15.033612239
778 1 8.83 15.894 3.532 12 11.015446192 1.766 13.3978652854
779 1 8.83 14.128 5.298 12 11.015446192 1.766 12.8953163099
780 1 7.064 15.894 5.298 12 11.015446192 1.766 13.0406208865
781 1 10.596 14.128 3.532 12 11.015446192 1.766 13.4896885002
782 1 12.362 15.894 3.532 12 11.015446192 1.766 12.163059528
783 1 12.362 14.128 5.298 12 11.015446192 1.766 11.5746418523
784 1 10.596 15.894 5.298 12 11.015446192 1.766 11.2258626388
785 1 14.128 14.128 3.532 12 11.015446192 1.766 12.7315533146
786 1 15.894 15.894 3.532 12 11.015446192 1.766 11.87513077
787 1 15.894 14.128 5.298 12 11.015446192 1.766 11.0845251856
788 1 14.128 15.894 5.298 12 11.015446192 1.766 10.3393197721
789 1 17.66 14.128 3.532 12 11.015446192 1.766 12.7463751948
790 1 19.426 15.894 3.532 12 11.015446192 1.766 12.1055958736
791 1 19.426 14.128 5.298 12 11.015446192 1.766 11.5710138152
792 1 17.66 15.894 5.298 12 11.015446192 1.766 10.3581165834
793 1 21.192 14.128 3.532 12 11.015446192 1.766 13.4158901708
794 1 22.958 15.894 3.532 12 11.015446192 1.766 13.1924595994
795 1 22.958 14.128 5.298 12 11.015446192 1.766 12.7571022245
796 1 21.192 15.894 5.298 12 11.015446192 1.766 11.0946753085
797 1 24.724 14.128 3.532 12 11.015446192 1.766 14.8136783028
798 1 26.49 15.894 3.532 12 11.015446192 1.766 14.8699232956
799 1 26.49 14.128 5.298 12 11.015446192 1.766 14.332714049
800 1 24.724 15.894 5.298 12 11.015446192 1.766 12.6631674953
801 1 28.256 14.128 3.532 12 11.015446192 1.766 16.4928730482
802 1 30.022 15.894 3.532 12 11.015446192 1.766 16.8160006669
803 1 30.022 14.128 5.298 12 11.015446192 1.766 16.316020592
804 1 28.256 15.894 5.298 12 11.015446192 1.766 14.4897272941
805 1 31.788 14.128 3.532 12 11.015446192 1.766 18.5815963074
806 1 33.554 15.894 3.532 12 11.015446192 1.766 19.1967122804
807 1 33.554 14.128 5.298 12 11.015446192 1.766 18.7549623887
808 1 31.788 15.894 5.298 12 11.015446192 1.766 16.8289351121
809 1 35.32 14.128 3.532 12 11.015446192 1.766 21.0591222343
810 1 37.086 15.894 3.532 12 11.015446192 1.766 21.8832406611
811 1 37.086 14.128 5.298 12 11.015446192 1.766 21.3801618139
812 1 35.32 15.894 5.298 12 11.015446192 1.766 19.5008755033
813 1 38.852 14.128 3.532 12 11.015446192 1.766 21.8140099401
814 1 40.618 15.894 3.532 12 11.015446192 1.766 20.0113114745
815 1 40.618 14.128 5.298 12 11.015446192 1.766 19.4782418408
816 1 38.852 15.894 5.298 12 11.015446192 1.766 20.3052602378
817 1 0.0 17.66 3.532 12 11.015446192 1.766 18.3719669114
818 1 1.766 19.426 3.532 12 11.015446192 1.766 16.9434581316
819 1 1.766 17.66 5.298 12 11.015446192 1.766 15.9234125656
820 1 0.0 19.426 5.298 12 11.015446192 1.766 16.9250334077
821 1 3.532 17.66 3.532 12 11.015446192 1.766 16.0778346086
822 1 5.298 19.426 3.532 12 11.015446192 1.766 14.5598785349
823 1 5.298 17.66 5.298 12 11.015446192 1.766 13.649228091
824 1 3.532 19.426 5.298 12 11.015446192 1.766 14.468731285
825 1 7.064 17.66 3.532 12 11.015446192 1.766 13.7662237588
826 1 8.83 19.426 3.532 12 11.015446192 1.766 12.4690512001
827 1 8.83 17.66 5.298 12 11.015446192 1.766 11.3924800793
828 1 7.064 19.426 5.298 12 11.015446192 1.766 12.0843798654
829 1 10.596 17.66 3.532 12 11.015446192 1.766 12.0611407195
830 1 12.362 19.426 3.532 12 11.015446192 1.766 11.1316872355
831 1 12.362 17.66 5.298 12 11.015446192 1.766 9.9108942702
832 1 10.596 19.426 5.298 12 11.015446192 1.766 10.0992294562
833 1 14.128 17.66 3.532 12 11.015446192 1.766 11.2420355067
834 1 15.894 19.426 3.532 12 11.015446192 1.766 10.7655548389
835 1 15.894 17.66 5.298 12 11.015446192 1.766 9.5413670035
836 1 14.128 19.426 5.298 12 11.015446192 1.766 9.105310675
837 1 17.66 17.66 3.532 12 11.015446192 1.766 11.2062401293
838 1 19.426 19.426 3.532 12 11.015446192 1.766 10.9377648101
839 1 19.426 17.66 5.298 12 11.015446192 1.766 9.7922762716
840 1 17.66 19.426 5.298 12 11.015446192 1.766 9.0089151933
841 1 21.192 17.66 3.532 12 11.015446192 1.766 11.8575011137
842 1 22.958 19.426 3.532 12 11.015446192 1.766 11.9916363622
843 1 22.958 17.66 5.298 12 11.015446192 1.766 11.0805353468
844 1 21.192 19.426 5.298 12 11.015446192 1.766 9.7828440242
845 1 24.724 17.66 3.532 12 11.015446192 1.766 13.300826486
846 1 26.49 19.426 3.532 12 11.015446192 1.766 13.6065409218
847 1 26.49 17.66 5.298 12 11.015446192 1.766 12.8427461358
848 1 24.724 19.426 5.298 12 11.015446192 1.766 11.2545212336
849 1 28.256 17.66 3.532 12 11.015446192 1.766 15.1771793215
850 1 30.022 19.426 3.532 12 11.015446192 1.766 15.8524203839
851 1 30.022 17.66 5.298 12 11.015446192 1.766 15.0649502523
852 1 28.256 19.426 5.298 12 11.015446192 1.766 13.4236110311
853 1 31.788 17.66 3.532 12 11.015446192 1.766 17.4909943363
854 1 33.554 19.426 3.532 12 11.015446192 1.766 18.4640000408
855 1 33.554 17.66 5.298 12 11.015446192 1.766 17.6809873376
856 1 31.788 19.426 5.298 12 11.015446192 1.766 16.0068455156
857 1 35.32 17.66 3.532 12 11.015446192 1.766 20.1023656636
858 1 37.086 19.426 3.532 12 11.015446192 1.766 21.1274783771
859 1 37.086 17.66 5.298 12 11.015446192 1.766 20.4433119783
860 1 35.32 19.426 5.298 12 11.015446192 1.766 18.6811879831
861 1 38.852 17.66 3.532 12 11.015446192 1.766 20.966444311
862 1 40.618 19.426 3.532 12 11.015446192 1.766 19.4079460096
863 1 40.618 17.66 5.298 12 11.015446192 1.766 18.5241103049
864 1 38.852 19.426 5.298 12 11.015446192 1.766 19.7108948226
865 1 0.0 21.192 3.532 12 11.015446192 1.766 18.0615278536
866 1 1.766 22.958 3.532 12 11.015446192 1.766 16.8277094643
867 1 1.766 21.192 5.298 12 11.015446192 1.766 15.5641407001
868 1 0.0 22.958 5.298 12 11.015446192 1.766 16.9442271177
869 1 3.532 21.192 3.532 12 11.015446192 1.766 15.6680594764
870 1 5.298 22.958 3.532 12 11.015446192 1.766 14.4210838158
871 1 5.298 21.192 5.298 12 11.015446192 1.766 13.173783819
872 1 3.532 22.958 5.298 12 11.015446192 1.766 14.3315185804
873 1 7.064 21.192 3.532 12 11.015446192 1.766 13.340104355
874 1 8.83 22.958 3.532 12 11.015446192 1.766 12.3397657973
875 1 8.83 21.192 5.298 12 11.015446192 1.766 10.8734704177
876 1 7.064 22.958 5.298 12 11.015446192 1.766 11.9534199226
877 1 10.596 21.192 3.532 12 11.015446192 1.766 11.5516758591
878 1 12.362 22.958 3.532 12 11.015446192 1.766 10.8269038152
879 1 12.362 21.192 5.298 12 11.015446192 1.766 9.274372714
880 1 10.596 22.958 5.298 12 11.015446192 1.766 9.9136846084
881 1 14.128 21.192 3.532 12 11.015446192 1.766 10.620166429
882 1 15.894 22.958 3.532 12 11.015446192 1.766 10.3381085739
883 1 15.894 21.192 5.298 12 11.015446192 1.766 8.7704411754
884 1 14.128 22.958 5.298 12 11.015446192 1.766 8.6949741872
885 1 17.66 21.192 3.532 12 11.015446192 1.766 10.5348716288
886 1 19.426 22.958 3.532 12 11.015446192 1.766 10.7155361196
887 1 19.426 21.192 5.298 12 11.015446192 1.766 9.0049671503
888 1 17.66 22.958 5.298 12 11.015446192 1.766 8.7472318994
889 1 21.192 21.192 3.532 12 11.015446192 1.766 11.0971312789
890 1 22.958 22.958 3.532 12 11.015446192 1.766 11.4672391721
891 1 22.958 21.192 5.298 12 11.015446192 1.766 9.9921998271
892 1 21.192 22.958 5.298 12 11.015446192 1.766 9.2465610133
893 1 24.724 21.192 3.532 12 11.015446192 1.766 12.3320822671
894 1 26.49 22.958 3.532 12 11.015446192 1.766 13.1418721041
895 1 26.49 21.192 5.298 12 11.015446192 1.766 11.8766698007
896 1 24.724 22.958 5.298 12 11.015446192 1.766 10.6880819019
897 1 28.256 21.192 3.532 12 11.015446192 1.766 14.3445636118
898 1 30.022 22.958 3.532 12 11.015446192 1.766 15.4554223032
899 1 30.022 21.192 5.298 12 11.015446192 1.766 14.3950186427
900 1 28.256 22.958 5.298 12 11.015446192 1.766 12.9584469329
901 1 31.788 21.192 3.532 12 11.015446192 1.766 16.8642463628
902 1 33.554 22.958 3.532 12 11.015446192 1.766 18.1653902447
903 1 33.554 21.192 5.298 12 11.015446192 1.766 17.1008526861
904 1 31.788 22.958 5.298 12 11.015446192 1.766 15.7021542179
905 1 35.32 21.192 3.532 12 11.015446192 1.766 19.5853212828
906 1 37.086 22.958 3.532 12 11.015446192 1.766 20.835749372
907 1 37.086 21.192 5.298 12 11.015446192 1.766 19.8316240778
908 1 35.32 22.958 5.298 12 11.015446192 1.766 18.350621045
909 1 38.852 21.192 3.532 12 11.015446192 1.766 20.6949895489
910 1 40.618 22.958 3.532 12 11.015446192 1.766 19.4255539802
911 1 40.618 21.192 5.298 12 11.015446192 1.766 18.2162967688
912 1 38.852 22.958 5.298 12 11.015446192 1.766 19.7404458939
913 1 0.0 24.724 3.532 12 11.015446192 1.766 18.1739930019
914 1 1.766 26.49 3.532 12 11.015446192 1.766 16.8951141398
915 1 1.766 24.724 5.298 12 11.015446192 1.766 15.6970578334
916 1 0.0 26.49 5.298 12 11.015446192 1.766 17.2845825134
917 1 3.532 24.724 3.532 12 11.015446192 1.766 15.5115451963
918 1 5.298 26.49 3.532 12 11.015446192 1.766 14.3842626143
919 1 5.298 24.724 5.298 12 11.015446192 1.766 13.0145507224
920 1 3.532 26.49 5.298 12 11.015446192 1.766 14.4214377204
921 1 7.064 24.724 3.532 12 11.015446192 1.766 13.2115550765
922 1 8.83 26.49 3.532 12 11.015446192 1.766 12.3822125696
923 1 8.83 24.724 5.298 12 11.015446192 1.766 10.760609075
924 1 7.064 26.49 5.298 12 11.015446192 1.766 11.9128090342
925 1 10.596 24.724 3.532 12 11.015446192 1.766 11.5056144653
926 1 12.362 26.49 3.532 12 11.015446192 1.766 11.1518329496
927 1 12.362 24.724 5.298 12 11.015446192 1.766 9.2184960137
928 1 10.596 26.49 5.298 12 11.015446192 1.766 10.0400308887
929 1 14.128 24.724 3.532 12 11.015446192 1.766 10.4928594523
930 1 15.894 26.49 3.532 12 11.015446192 1.766 10.7438317518
931 1 15.894 24.724 5.298 12 11.015446192 1.766 8.6439771736
932 1 14.128 26.49 5.298 12 11.015446192 1.766 9.1441925913
933 1 17.66 24.724 3.532 12 11.015446192 1.766 10.5389332651
934 1 19.426 26.49 3.532 12 11.015446192 1.766 10.9492662628
935 1 19.426 24.724 5.298 12 11.015446192 1.766 9.009252186
936 1 17.66 26.49 5.298 12 11.015446192 1.766 9.0758660701
937 1 21.192 24.724 3.532 12 11.015446192 1.766 11.0950484993
938 1 22.958 26.49 3.532 12 11.015446192 1.766 11.9781378005
939 1 22.958 24.724 5.298 12 11.015446192 1.766 9.9944948811
940 1 21.192 26.49 5.298 12 11.015446192 1.766 9.7414550842
941 1 24.724 24.724 3.532 12 11.015446192 1.766 12.3339419322
942 1 26.49 26.49 3.532 12 11.015446192 1.766 13.609911717
943 1 26.49 24.724 5.298 12 11.015446192 1.766 11.8786007635
944 1 24.724 26.49 5.298 12 11.015446192 1.766 11.2585962396
945 1 28.256 24.724 3.532 12 11.015446192 1.766 14.3461624053
946 1 30.022 26.49 3.532 12 11.015446192 1.766 15.8553137186
947 1 30.022 24.724 5.298 12 11.015446192 1.766 14.396611833
948 1 28.256 26.49 5.298 12 11.015446192 1.766 13.4290944086
949 1 31.788 24.724 3.532 12 11.015446192 1.766 16.8656063018
950 1 33.554 26.49 3.532 12 11.015446192 1.766 18.4703675792
951 1 33.554 24.724 5.298 12 11.015446192 1.766 17.1076677519
952 1 31.788 26.49 5.298 12 11.015446192 1.766 16.0150560631
953 1 35.32 24.724 3.532 12 11.015446192 1.766 19.5912721146
954 1 37.086 26.49 3.532 12 11.015446192 1.766 21.1385100991
955 1 37.086 24.724 5.298 12 11.015446192 1.766 19.8375010241
956 1 35.32 26.49 5.298 12 11.015446192 1.766 18.693433735
957 1 38.852 24.724 3.532 12 11.015446192 1.766 20.9783142329
958 1 40.618 26.49 3.532 12 11.015446192 1.766 19.7172565455
959 1 40.618 24.724 5.298 12 11.015446192 1.766 18.5357856883
960 1 38.852 26.49 5.298 12 11.015446192 1.766 20.2856361731
961 1 0.0 28.256 3.532 12 11.015446192 1.766 18.5136909669
962 1 1.766 30.022 3.532 12 11.015446192 1.766 17.5799809385
963 1 1.766 28.256 5.298 12 11.015446192 1.766 16.0950994201
964 1 0.0 30.022 5.298 12 11.015446192 1.766 17.9611137952
965 1 3.532 28.256 3.532 12 11.015446192 1.766 15.8664381125
966 1 5.298 30.022 3.532 12 11.015446192 1.766 15.1828145927
967 1 5.298 28.256 5.298 12 11.015446192 1.766 13.4355630513
968 1 3.532 30.022 5.298 12 11.015446192 1.766 15.2180390959
969 1 7.064 28.256 3.532 12 11.015446192 1.766 13.6264819942
970 1 8.83 30.022 3.532 12 11.015446192 1.766 13.3015050321
971 1 8.83 28.256 5.298 12 11.015446192 1.766 11.2661675678
972 1 7.064 30.022 5.298 12 11.015446192 1.766 12.8656856438
973 1 10.596 28.256 3.532 12 11.015446192 1.766 12.0236522196
974 1 12.362 30.022 3.532 12 11.015446192 1.766 12.1775310009
975 1 12.362 28.256 5.298 12 11.015446192 1.766 9.9140686313
976 1 10.596 30.022 5.298 12 11.015446192 1.766 11.1540606169
977 1 14.128 28.256 3.532 12 11.015446192 1.766 11.3311576748
978 1 15.894 30.022 3.532 12 11.015446192 1.766 11.9283467367
979 1 15.894 28.256 5.298 12 11.015446192 1.766 9.6588616284
980 1 14.128 30.022 5.298 12 11.015446192 1.766 10.3884870993
981 1 17.66 28.256 3.532 12 11.015446192 1.766 11.2827784497
982 1 19.426 30.022 3.532 12 11.015446192 1.766 12.1316565491
983 1 19.426 28.256 5.298 12 11.015446192 1.766 9.8025482325
984 1 17.66 30.022 5.298 12 11.015446192 1.766 10.3945763156
985 1 21.192 28.256 3.532 12 11.015446192 1.766 11.822116256
986 1 22.958 30.022 3.532 12 11.015446192 1.766 13.1192018755
987 1 22.958 28.256 5.298 12 11.015446192 1.766 11.0011962566
988 1 21.192 30.022 5.298 12 11.015446192 1.766 11.0545676048
989 1 24.724 28.256 3.532 12 11.015446192 1.766 13.275836288
990 1 26.49 30.022 3.532 12 11.015446192 1.766 14.8603872534
991 1 26.49 28.256 5.298 12 11.015446192 1.766 12.856634148
992 1 24.724 30.022 5.298 12 11.015446192 1.766 12.6155079106
993 1 28.256 28.256 3.532 12 11.015446192 1.766 15.1858204945
994 1 30.022 30.022 3.532 12 11.015446192 1.766 16.8374778473
995 1 30.022 28.256 5.298 12 11.015446192 1.766 15.0819675514
996 1 28.256 30.022 5.298 12 11.015446192 1.766 14.5097055679
997 1 31.788 28.256 3.532 12 11.015446192 1.766 17.5048912863
998 1 33.554 30.022 3.532 12 11.015446192 1.766 19.2045381407
999 1 33.554 28.256 5.298 12 11.015446192 1.766 17.685210699
1000 1 31.788 30.022 5.298 12 11.015446192 1.766 16.8336020093
1001 1 35.32 28.256 3.532 12 11.015446192 1.766 20.1098870245
1002 1 37.086 30.022 3.532 12 11.015446192 1.766 21.8877863921
1003 1 37.086 28.256 5.298 12 11.015446192 1.766 20.4604859915
1004 1 35.32 30.022 5.298 12 11.015446192 1.766 19.5232887995
1005 1 38.852 28.256 3.532 12 11.015446192 1.766 21.4177425528
1006 1 40.618 30.022 3.532 12 11.015446192 1.766 20.3111705383
1007 1 40.618 28.256 5.298 12 11.015446192 1.766 19.0404869734
1008 1 38.852 30.022 5.298 12 11.015446192 1.766 20.9419328526
1009 1 0.0 31.788 3.532 12 11.015446192 1.766 19.4638800144
1010 1 1.766 33.554 3.532 12 11.015446192 1.766 18.9107542366
1011 1 1.766 31.788 5.298 12 11.015446192 1.766 17.179583736
1012 1 0.0 33.554 5.298 12 11.015446192 1.766 19.2655782359
1013 1 3.532 31.788 3.532 12 11.015446192 1.766 16.9655453899
1014 1 5.298 33.554 3.532 12 11.015446192 1.766 16.7056503901
1015 1 5.298 31.788 5.298 12 11.015446192 1.766 14.7173444107
1016 1 3.532 33.554 5.298 12 11.015446192 1.766 16.7376703852
1017 1 7.064 31.788 3.532 12 11.015446192 1.766 14.8918394947
1018 1 8.83 33.554 3.532 12 11.015446192 1.766 15.0163554872
1019 1 8.83 31.788 5.298 12 11.015446192 1.766 12.7676310905
1020 1 7.064 33.554 5.298 12 11.015446192 1.766 14.631704039
1021 1 10.596 31.788 3.532 12 11.015446192 1.766 13.4407620579
1022 1 12.362 33.554 3.532 12 11.015446192 1.766 13.9987270857
1023 1 12.362 31.788 5.298 12 11.015446192 1.766 11.588388193
1024 1 10.596 33.554 5.298 12 11.015446192 1.766 13.1519556756
1025 1 14.128 31.788 3.532 12 11.015446192 1.766 12.7665624195
1026 1 15.894 33.554 3.532 12 11.015446192 1.766 13.5734977249
1027 1 15.894 31.788 5.298 12 11.015446192 1.766 11.12655574
1028 1 14.128 33.554 5.298 12 11.015446192 1.766 12.2805850692
1029 1 17.66 31.788 3.532 12 11.015446192 1.766 12.7773029234
1030 1 19.426 33.554 3.532 12 11.015446192 1.766 14.0203272609
1031 1 19.426 31.788 5.298 12 11.015446192 1.766 11.6093722188
1032 1 17.66 33.554 5.298 12 11.015446192 1.766 12.295575499
1033 1 21.192 31.788 3.532 12 11.015446192 1.766 13.3988102346
1034 1 22.958 33.554 3.532 12 11.015446192 1.766 14.9784566889
1035 1 22.958 31.788 5.298 12 11.015446192 1.766 12.6803786224
1036 1 21.192 33.554 5.298 12 11.015446192 1.766 13.1849215123
1037 1 24.724 31.788 3.532 12 11.015446192 1.766 14.7288664509
1038 1 26.49 33.554 3.532 12 11.015446192 1.766 16.516021733
1039 1 26.49 31.788 5.298 12 11.015446192 1.766 14.3503253309
1040 1 24.724 33.554 5.298 12 11.015446192 1.766 14.5291658165
1041 1 28.256 31.788 3.532 12 11.015446192 1.766 16.5166919106
1042 1 30.022 33.554 3.532 12 11.015446192 1.766 18.3013705537
1043 1 30.022 31.788 5.298 12 11.015446192 1.766 16.3227784424
1044 1 28.256 33.554 5.298 12 11.015446192 1.766 16.1855200581
1045 1 31.788 31.788 3.532 12 11.015446192 1.766 18.5913881319
1046 1 33.554 33.554 3.532 12 11.015446192 1.766 20.5000924165
1047 1 33.554 31.788 5.298 12 11.015446192 1.766 18.7549119172
1048 1 31.788 33.554 5.298 12 11.015446192 1.766 18.2978047999
1049 1 35.32 31.788 3.532 12 11.015446192 1.766 21.0577387583
1050 1 37.086 33.554 3.532 12 11.015446192 1.766 23.0329646817
1051 1 37.086 31.788 5.298 12 11.015446192 1.766 21.4785088116
1052 1 35.32 33.554 5.298 12 11.015446192 1.766 20.7976761447
1053 1 38.852 31.788 3.532 12 11.015446192 1.766 22.2442254991
1054 1 40.618 33.554 3.532 12 11.015446192 1.766 21.4733449801
1055 1 40.618 31.788 5.298 12 11.015446192 1.766 19.9656208564
1056 1 38.852 33.554 5.298 12 11.015446192 1.766 22.0709185944
1057 1 0.0 35.32 3.532 12 11.015446192 1.766 20.9732816988
1058 1 1.766 37.086 3.532 12 11.015446192 1.766 20.7636116751
1059 1 1.766 35.32 5.298 12 11.015446192 1.766 18.8725731511
1060 1 0.0 37.086 5.298 12 11.015446192 1.766 21.0771240022
1061 1 3.532 35.32 3.532 12 11.015446192 1.766 18.6779455609
1062 1 5.298 37.086 3.532 12 11.015446192 1.766 18.7773719928
1063 1 5.298 35.32 5.298 12 11.015446192 1.766 16.6624171867
1064 1 3.532 37.086 5.298 12 11.015446192 1.766 18.805089891
1065 1 7.064 35.32 3.532 12 11.015446192 1.766 16.8167417634
1066 1 8.83 37.086 3.532 12 11.015446192 1.766 17.287631691
1067 1 8.83 35.32 5.298 12 11.015446192 1.766 14.9682438403
1068 1 7.064 37.086 5.298 12 11.015446192 1.766 16.9587059377
1069 1 10.596 35.32 3.532 12 11.015446192 1.766 15.5324410352
1070 1 12.362 37.086 3.532 12 11.015446192 1.766 16.2239003479
1071 1 12.362 35.32 5.298 12 11.015446192 1.766 13.7949382255
1072 1 10.596 37.086 5.298 12 11.015446192 1.766 15.5647966788
1073 1 14.128 35.32 3.532 12 11.015446192 1.766 14.7475380824
1074 1 15.894 37.086 3.532 12 11.015446192 1.766 15.846397878
1075 1 15.894 35.32 5.298 12 11.015446192 1.766 13.3489214492
1076 1 14.128 37.086 5.298 12 11.015446192 1.766 14.7540250394
1077 1 17.66 35.32 3.532 12 11.015446192 1.766 14.7600232623
1078 1 19.426 37.086 3.532 12 11.015446192 1.766 16.2465921633
1079 1 19.426 35.32 5.298 12 11.015446192 1.766 13.8216183954
1080 1 17.66 37.086 5.298 12 11.015446192 1.766 14.7665047345
1081 1 21.192 35.32 3.532 12 11.015446192 1.766 15.5632829244
1082 1 22.958 37.086 3.532 12 11.015446192 1.766 17.2681781711
1083 1 22.958 35.32 5.298 12 11.015446192 1.766 14.908266308
1084 1 21.192 37.086 5.298 12 11.015446192 1.766 15.5405546535
1085 1 24.724 35.32 3.532 12 11.015446192 1.766 16.7706977071
1086 1 26.49 37.086 3.532 12 11.015446192 1.766 18.6376661772
1087 1 26.49 35.32 5.298 12 11.015446192 1.766 16.404740781
1088 1 24.724 37.086 5.298 12 11.015446192 1.766 16.7139565718
1089 1 28.256 35.32 3.532 12 11.015446192 1.766 18.3498130676
1090 1 30.022 37.086 3.532 12 11.015446192 1.766 20.2812651486
1091 1 30.022 35.32 5.298 12 11.015446192 1.766 18.1754676409
1092 1 28.256 37.086 5.298 12 11.015446192 1.766 18.3723176304
1093 1 31.788 35.32 3.532 12 11.015446192 1.766 20.237446493
1094 1 33.554 37.086 3.532 12 11.015446192 1.766 22.285496202
1095 1 33.554 35.32 5.298 12 11.015446192 1.766 20.3877720437
1096 1 31.788 37.086 5.298 12 11.015446192 1.766 20.2780475485
1097 1 35.32 35.32 3.532 12 11.015446192 1.766 22.5242733401
1098 1 37.086 37.086 3.532 12 11.015446192 1.766 24.6350632077
1099 1 37.086 35.32 5.298 12 11.015446192 1.766 22.8915066277
1100 1 35.32 37.086 5.298 12 11.015446192 1.766 22.5470216605
1101 1 38.852 35.32 3.532 12 11.015446192 1.766 23.5762908036
1102 1 40.618 37.086 3.532 12 11.015446192 1.766 23.1217535804
1103 1 40.618 35.32 5.298 12 11.015446192 1.766 21.4397279876
1104 1 38.852 37.086 5.298 12 11.015446192 1.766 23.6503910983
1105 1 0.0 38.852 3.532 12 11.015446192 1.766 22.9316119649
1106 1 1.766 40.618 3.532 12 11.015446192 1.766 23.0006753113
1107 1 1.766 38.852 5.298 12 11.015446192 1.766 20.9857695495
1108 1 0.0 40.618 5.298 12 11.015446192 1.766 23.1935692695
1109 1 3.532 38.852 3.532 12 11.015446192 1.766 20.853096134
1110 1 5.298 40.618 3.532 12 11.015446192 1.766 21.2363262125
1111 1 5.298 38.852 5.298 12 11.015446192 1.766 19.0502804018
1112 1 3.532 40.618 5.298 12 11.015446192 1.766 21.1749922959
1113 1 7.064 38.852 3.532 12 11.015446192 1.766 19.2036667055
1114 1 8.83 40.618 3.532 12 11.015446192 1.766 19.801266134
1115 1 8.83 38.852 5.298 12 11.015446192 1.766 17.512866546
1116 1 7.064 40.618 5.298 12 11.015446192 1.766 19.5701148724
1117 1 10.596 38.852 3.532 12 11.015446192 1.766 17.9280514698
1118 1 12.362 40.618 3.532 12 11.015446192 1.766 18.8423320138
1119 1 12.362 38.852 5.298 12 11.015446192 1.766 16.4208352366
1120 1 10.596 40.618 5.298 12 11.015446192 1.766 18.2778945416
1121 1 14.128 38.852 3.532 12 11.015446192 1.766 17.2288533778
1122 1 15.894 40.618 3.532 12 11.015446192 1.766 18.5182844489
1123 1 15.894 38.852 5.298 12 11.015446192 1.766 16.0479660107
1124 1 14.128 40.618 5.298 12 11.015446192 1.766 17.5926060629
1125 1 17.66 38.852 3.532 12 11.015446192 1.766 17.2395416391
1126 1 19.426 40.618 3.532 12 11.015446192 1.766 18.8618739828
1127 1 19.426 38.852 5.298 12 11.015446192 1.766 16.4389882523
1128 1 17.66 40.618 5.298 12 11.015446192 1.766 17.6030734616
1129 1 21.192 38.852 3.532 12 11.015446192 1.766 17.9431093206
1130 1 22.958 40.618 3.532 12 11.015446192 1.766 19.6750624705
1131 1 22.958 38.852 5.298 12 11.015446192 1.766 17.2837451945
1132 1 21.192 40.618 5.298 12 11.015446192 1.766 18.1795734497
1133 1 24.724 38.852 3.532 12 11.015446192 1.766 19.0131288207
1134 1 26.49 40.618 3.532 12 11.015446192 1.766 20.8869184966
1135 1 26.49 38.852 5.298 12 11.015446192 1.766 18.6516253719
1136 1 24.724 40.618 5.298 12 11.015446192 1.766 19.1638887671
1137 1 28.256 38.852 3.532 12 11.015446192 1.766 20.5487808484
1138 1 30.022 40.618 3.532 12 11.015446192 1.766 22.5707779644
1139 1 30.022 38.852 5.298 12 11.015446192 1.766 20.4545355929
1140 1 28.256 40.618 5.298 12 11.015446192 1.766 20.7095373618
1141 1 31.788 38.852 3.532 12 11.015446192 1.766 22.3252954391
1142 1 33.554 40.618 3.532 12 11.015446192 1.766 24.4509240925
1143 1 33.554 38.852 5.298 12 11.015446192 1.766 22.4519932808
1144 1 31.788 40.618 5.298 12 11.015446192 1.766 22.5701713382
1145 1 35.32 38.852 3.532 12 11.015446192 1.766 24.4173599184
1146 1 37.086 40.618 3.532 12 11.015446192 1.766 26.6037870628
1147 1 37.086 38.852 5.298 12 11.015446192 1.766 24.7195236692
1148 1 35.32 40.618 5.298 12 11.015446192 1.766 24.6435391366
1149 1 38.852 38.852 3.532 12 11.015446192 1.766 25.328143315
1150 1 40.618 40.618 3.532 12 11.015446192 1.766 25.130910669
1151 1 40.618 38.852 5.298 12 11.015446192 1.766 23.2909731835
1152 1 38.852 40.618 5.298 12 11.015446192 1.766 25.5431607321
1153 1 0.0 0.0 7.064 12 11.015446192 1.766 23.6742234544
1154 1 1.766 1.766 7.064 12 11.015446192 1.766 23.5826158462
1155 1 1.766 0.0 8.83 12 11.015446192 1.766 22.0337798058
1156 1 0.0 1.766 8.83 12 11.015446192 1.766 23.9487304614
1157 1 3.532 0.0 7.064 12 11.015446192 1.766 21.7004032092
1158 1 5.298 1.766 7.064 12 11.015446192 1.766 21.9759427761
1159 1 5.298 0.0 8.83 12 11.015446192 1.766 20.2089366322
1160 1 3.532 1.766 8.83 12 11.015446192 1.766 22.0877558267
1161 1 7.064 0.0 7.064 12 11.015446192 1.766 20.1565345779
1162 1 8.83 1.766 7.064 12 11.015446192 1.766 20.6982085966
1163 1 8.83 0.0 8.83 12 11.015446192 1.766 18.8647415496
1164 1 7.064 1.766 8.83 12 11.015446192 1.766 20.6670203562
1165 1 10.596 0.0 7.064 12 11.015446192 1.766 18.9531752549
1166 1 12.362 1.766 7.064 12 11.015446192 1.766 19.7847300669
1167 1 12.362 0.0 8.83 12 11.015446192 1.766 17.8864942515
1168 1 10.596 1.766 8.83 12 11.015446192 1.766 19.5465712237
1169 1 14.128 0.0 7.064 12 11.015446192 1.766 18.2932012359
1170 1 15.894 1.766 7.064 12 11.015446192 1.766 19.4783288946
1171 1 15.894 0.0 8.83 12 11.015446192 1.766 17.5397176008
1172 1 14.128 1.766 8.83 12 11.015446192 1.766 18.909340954
1173 1 17.66 0.0 7.064 12 11.015446192 1.766 18.2857994688
1174 1 19.426 1.766 7.064 12 11.015446192 1.766 19.8071981167
1175 1 19.426 0.0 8.83 12 11.015446192 1.766 17.6347325791
1176 1 17.66 1.766 8.83 12 11.015446192 1.766 18.921098066
1177 1 21.192 0.0 7.064 12 11.015446192 1.766 18.6763209637
1178 1 22.958 1.766 7.064 12 11.015446192 1.766 20.5543253688
1179 1 22.958 0.0 8.83 12 11.015446192 1.766 18.3081682918
1180 1 21.192 1.766 8.83 12 11.015446192 1.766 19.4528522772
1181 1 24.724 0.0 7.064 12 11.015446192 1.766 19.6337775734
1182 1 26.49 1.766 7.064 12 11.015446192 1.766 21.7100762589
1183 1 26.49 0.0 8.83 12 11.015446192 1.766 19.5788229823
1184 1 24.724 1.766 8.83 12 11.015446192 1.766 20.3716289541
1185 1 28.256 0.0 7.064 12 11.015446192 1.766 21.122808782
1186 1 30.022 1.766 7.064 12 11.015446192 1.766 23.1390744831
1187 1 30.022 0.0 8.83 12 11.015446192 1.766 21.1407561815
1188 1 28.256 1.766 8.83 12 11.015446192 1.766 21.6398803405
1189 1 31.788 0.0 7.064 12 11.015446192 1.766 22.8555695196
1190 1 33.554 1.766 7.064 12 11.015446192 1.766 24.9168716836
1191 1 33.554 0.0 8.83 12 11.015446192 1.766 23.0743999041
1192 1 31.788 1.766 8.83 12 11.015446192 1.766 23.2646324646
1193 1 35.32 0.0 7.064 12 11.015446192 1.766 24.9067950784
1194 1 37.086 1.766 7.064 12 11.015446192 1.766 27.0413436992
1195 1 37.086 0.0 8.83 12 11.015446192 1.766 25.327073308
1196 1 35.32 1.766 8.83 12 11.015446192 1.766 25.2814531678
1197 1 38.852 0.0 7.064 12 11.015446192 1.766 25.9803822315
1198 1 40.618 1.766 7.064 12 11.015446192 1.766 25.5790446929
1199 1 40.618 0.0 8.83 12 11.015446192 1.766 24.2388909246
1200 1 38.852 1.766 8.83 12 11.015446192 1.766 26.0712766274
1201 1 0.0 3.532 7.064 12 11.015446192 1.766 23.2633627884
1202 1 1.766 5.298 7.064 12 11.015446192 1.766 20.989416215
1203 1 1.766 3.532 8.83 12 11.015446192 1.766 21.6026786194
1204 1 0.0 5.298 8.83 12 11.015446192 1.766 21.3929857149
1205 1 3.532 3.532 7.064 12 11.015446192 1.766 21.3427110502
1206 1 5.298 5.298 7.064 12 11.015446192 1.766 19.1665824757
1207 1 5.298 3.532 8.83 12 11.015446192 1.766 19.8362802532
1208 1 3.532 5.298 8.83 12 11.015446192 1.766 19.2946826965
1209 1 7.064 3.532 7.064 12 11.015446192 1.766 19.8553683117
1210 1 8.83 5.298 7.064 12 11.015446192 1.766 17.7491510908
1211 1 8.83 3.532 8.83 12 11.015446192 1.766 18.5261057782
1212 1 7.064 5.298 8.83 12 11.015446192 1.766 17.6511216388
1213 1 10.596 3.532 7.064 12 11.015446192 1.766 18.6284965939
1214 1 12.362 5.298 7.064 12 11.015446192 1.766 16.6763591827
1215 1 12.362 3.532 8.83 12 11.015446192 1.766 17.518875673
1216 1 10.596 5.298 8.83 12 11.015446192 1.766 16.3931039885
1217 1 14.128 3.532 7.064 12 11.015446192 1.766 17.9587197222
1218 1 15.894 5.298 7.064 12 11.015446192 1.766 16.3116739883
1219 1 15.894 3.532 8.83 12 11.015446192 1.766 17.1720924047
1220 1 14.128 5.298 8.83 12 11.015446192 1.766 15.6278145333
1221 1 17.66 3.532 7.064 12 11.015446192 1.766 17.9710987635
1222 1 19.426 5.298 7.064 12 11.015446192 1.766 16.7030089807
1223 1 19.426 3.532 8.83 12 11.015446192 1.766 17.5324548373
1224 1 17.66 5.298 8.83 12 11.015446192 1.766 15.6420383517
1225 1 21.192 3.532 7.064 12 11.015446192 1.766 18.6228916576
1226 1 22.958 5.298 7.064 12 11.015446192 1.766 17.6032504579
1227 1 22.958 3.532 8.83 12 11.015446192 1.766 18.2803578007
1228 1 21.192 5.298 8.83 12 11.015446192 1.766 16.3024057283
1229 1 24.724 3.532 7.064 12 11.015446192 1.766 19.6080094859
1230 1 26.49 5.298 7.064 12 11.015446192 1.766 18.9318375652
1231 1 26.49 3.532 8.83 12 11.015446192 1.766 19.5085803149
1232 1 24.724 5.298 8.83 12 11.015446192 1.766 17.3866082246
1233 1 28.256 3.532 7.064 12 11.015446192 1.766 21.0216446204
1234 1 30.022 5.298 7.064 12 11.015446192 1.766 20.5327923606
1235 1 30.022 3.532 8.83 12 11.015446192 1.766 21.0146534001
1236 1 28.256 5.298 8.83 12 11.015446192 1.766 18.8271935067
1237 1 31.788 3.532 7.064 12 11.015446192 1.766 22.6932923197
1238 1 33.554 5.298 7.064 12 11.015446192 1.766 22.5173108671
1239 1 33.554 3.532 8.83 12 11.015446192 1.766 22.9575561436
1240 1 31.788 5.298 8.83 12 11.015446192 1.766 20.6741848183
1241 1 35.32 3.532 7.064 12 11.015446192 1.766 24.7567014538
1242 1 37.086 5.298 7.064 12 11.015446192 1.766 24.8170495922
1243 1 37.086 3.532 8.83 12 11.015446192 1.766 25.2474386552
1244 1 35.32 5.298 8.83 12 11.015446192 1.766 22.9200168923
1245 1 38.852 3.532 7.064 12 11.015446192 1.766 25.5075190733
1246 1 40.618 5.298 7.064 12 11.015446192 1.766 23.2080336317
1247 1 40.618 3.532 8.83 12 11.015446192 1.766 23.7288880766
1248 1 38.852 5.298 8.83 12 11.015446192 1.766 23.6950608575
1249 1 0.0 7.064 7.064 12 11.015446192 1.766 20.9302387736
1250 1 1.766 8.83 7.064 12 11.015446192 1.766 18.7061878517
1251 1 1.766 7.064 8.83 12 11.015446192 1.766 19.0674217038
1252 1 0.0 8.83 8.83 12 11.015446192 1.766 19.1279776689
1253 1 3.532 7.064 7.064 12 11.015446192 1.766 18.7723776297
1254 1 5.298 8.83 7.064 12 11.015446192 1.766 16.6350159211
1255 1 5.298 7.064 8.83 12 11.015446192 1.766 17.0402130615
1256 1 3.532 8.83 8.83 12 11.015446192 1.766 16.7824506928
1257 1 7.064 7.064 7.064 12 11.015446192 1.766 17.0769174699
1258 1 8.83 8.83 7.064 12 11.015446192 1.766 15.0390752205
1259 1 8.83 7.064 8.83 12 11.015446192 1.766 15.5331982096
1260 1 7.064 8.83 8.83 12 11.015446192 1.766 14.8636457844
1261 1 10.596 7.064 7.064 12 11.015446192 1.766 15.6895290281
1262 1 12.362 8.83 7.064 12 11.015446192 1.766 13.773758215
1263 1 12.362 7.064 8.83 12 11.015446192 1.766 14.3544920014
1264 1 10.596 8.83 8.83 12 11.015446192 1.766 13.4293351848
1265 1 14.128 7.064 7.064 12 11.015446192 1.766 14.8881177397
1266 1 15.894 8.83 7.064 12 11.015446192 1.766 13.3298975267
1267 1 15.894 7.064 8.83 12 11.015446192 1.766 13.9291490525
1268 1 14.128 8.83 8.83 12 11.015446192 1.766 12.4837513136
1269 1 17.66 7.064 7.064 12 11.015446192 1.766 14.9030475588
1270 1 19.426 8.83 7.064 12 11.015446192 1.766 13.806012052
1271 1 19.426 7.064 8.83 12 11.015446192 1.766 14.3773325564
1272 1 17.66 8.83 8.83 12 11.015446192 1.766 12.5015528463
1273 1 21.192 7.064 7.064 12 11.015446192 1.766 15.6947328999
1274 1 22.958 8.83 7.064 12 11.015446192 1.766 14.906998692
1275 1 22.958 7.064 8.83 12 11.015446192 1.766 15.2983868639
1276 1 21.192 8.83 8.83 12 11.015446192 1.766 13.342495731
1277 1 24.724 7.064 7.064 12 11.015446192 1.766 16.8624789197
1278 1 26.49 8.83 7.064 12 11.015446192 1.766 16.4414116481
1279 1 26.49 7.064 8.83 12 11.015446192 1.766 16.7198152517
1280 1 24.724 8.83 8.83 12 11.015446192 1.766 14.6425238886
1281 1 28.256 7.064 7.064 12 11.015446192 1.766 18.457335718
1282 1 30.022 8.83 7.064 12 11.015446192 1.766 18.2397001905
1283 1 30.022 7.064 8.83 12 11.015446192 1.766 18.4463946535
1284 1 28.256 8.83 8.83 12 11.015446192 1.766 16.2969953527
1285 1 31.788 7.064 7.064 12 11.015446192 1.766 20.3381251471
1286 1 33.554 8.83 7.064 12 11.015446192 1.766 20.4009403551
1287 1 33.554 7.064 8.83 12 11.015446192 1.766 20.6320931696
1288 1 31.788 8.83 8.83 12 11.015446192 1.766 18.39839433
1289 1 35.32 7.064 7.064 12 11.015446192 1.766 22.5790031521
1290 1 37.086 8.83 7.064 12 11.015446192 1.766 22.7562194456
1291 1 37.086 7.064 8.83 12 11.015446192 1.766 23.0228868684
1292 1 35.32 8.83 8.83 12 11.015446192 1.766 20.7393784706
1293 1 38.852 7.064 7.064 12 11.015446192 1.766 23.3392365418
1294 1 40.618 8.83 7.064 12 11.015446192 1.766 21.0834191275
1295 1 40.618 7.064 8.83 12 11.015446192 1.766 21.3976748601
1296 1 38.852 8.83 8.83 12 11.015446192 1.766 21.6311839058
1297 1 0.0 10.596 7.064 12 11.015446192 1.766 18.8848377109
1298 1 1.766 12.362 7.064 12 11.015446192 1.766 16.7701715147
1299 1 1.766 10.596 8.83 12 11.015446192 1.766 16.8685002692
1300 1 0.0 12.362 8.83 12 11.015446192 1.766 17.1198615365
1301 1 3.532 10.596 7.064 12 11.015446192 1.766 16.560285528
1302 1 5.298 12.362 7.064 12 11.015446192 1.766 14.5272046035
1303 1 5.298 10.596 8.83 12 11.015446192 1.766 14.5674210511
1304 1 3.532 12.362 8.83 12 11.015446192 1.766 14.6714579969
1305 1 7.064 10.596 7.064 12 11.015446192 1.766 14.6123362785
1306 1 8.83 12.362 7.064 12 11.015446192 1.766 12.7185366198
1307 1 8.83 10.596 8.83 12 11.015446192 1.766 12.798041614
1308 1 7.064 12.362 8.83 12 11.015446192 1.766 12.4596904016
1309 1 10.596 10.596 7.064 12 11.015446192 1.766 13.0480575143
1310 1 12.362 12.362 7.064 12 11.015446192 1.766 11.2375229983
1311 1 12.362 10.596 8.83 12 11.015446192 1.766 11.4079763495
1312 1 10.596 12.362 8.83 12 11.015446192 1.766 10.7987325924
1313 1 14.128 10.596 7.064 12 11.015446192 1.766 12.0725529034
1314 1 15.894 12.362 7.064 12 11.015446192 1.766 10.6888575557
1315 1 15.894 10.596 8.83 12 11.015446192 1.766 10.8679196307
1316 1 14.128 12.362 8.83 12 11.015446192 1.766 9.6129888501
1317 1 17.66 10.596 7.064 12 11.015446192 1.766 12.0909598591
1318 1 19.426 12.362 7.064 12 11.015446192 1.766 11.277033145
1319 1 19.426 10.596 8.83 12 11.015446192 1.766 11.4423423848
1320 1 17.66 12.362 8.83 12 11.015446192 1.766 9.6360952331
1321 1 21.192 10.596 7.064 12 11.015446192 1.766 13.0665977555
1322 1 22.958 12.362 7.064 12 11.015446192 1.766 12.6110941407
1323 1 22.958 10.596 8.83 12 11.015446192 1.766 12.6039615977
1324 1 21.192 12.362 8.83 12 11.015446192 1.766 10.7319495495
1325 1 24.724 10.596 7.064 12 11.015446192 1.766 14.4602638382
1326 1 26.49 12.362 7.064 12 11.015446192 1.766 14.1890017264
1327 1 26.49 10.596 8.83 12 11.015446192 1.766 14.259529228
1328 1 24.724 12.362 8.83 12 11.015446192 1.766 12.2730253272
1329 1 28.256 10.596 7.064 12 11.015446192 1.766 16.1948259223
1330 1 30.022 12.362 7.064 12 11.015446192 1.766 16.186921512
1331 1 30.022 10.596 8.83 12 11.015446192 1.766 16.2413087659
1332 1 28.256 12.362 8.83 12 11.015446192 1.766 14.1400510591
1333 1 31.788 10.596 7.064 12 11.015446192 1.766 18.2887954984
1334 1 33.554 12.362 7.064 12 11.015446192 1.766 18.5173575397
1335 1 33.554 10.596 8.83 12 11.015446192 1.766 18.5112220813
1336 1 31.788 12.362 8.83 12 11.015446192 1.766 16.3610479658
1337 1 35.32 10.596 7.064 12 11.015446192 1.766 20.5949395495
1338 1 37.086 12.362 7.064 12 11.015446192 1.766 21.0802088449
1339 1 37.086 10.596 8.83 12 11.015446192 1.766 21.0738695365
1340 1 35.32 12.362 8.83 12 11.015446192 1.766 18.8852191101
1341 1 38.852 10.596 7.064 12 11.015446192 1.766 21.4172760692
1342 1 40.618 12.362 7.064 12 11.015446192 1.766 19.2568493655
1343 1 40.618 10.596 8.83 12 11.015446192 1.766 19.3578308125
1344 1 38.852 12.362 8.83 12 11.015446192 1.766 19.8784375111
1345 1 0.0 14.128 7.064 12 11.015446192 1.766 17.1880134032
1346 1 1.766 15.894 7.064 12 11.015446192 1.766 15.2480945044
1347 1 1.766 14.128 8.83 12 11.015446192 1.766 14.964248337
1348 1 0.0 15.894 8.83 12 11.015446192 1.766 15.6318710464
1349 1 3.532 14.128 7.064 12 11.015446192 1.766 14.7754174905
1350 1 5.298 15.894 7.064 12 11.015446192 1.766 12.95568996
1351 1 5.298 14.128 8.83 12 11.015446192 1.766 12.5864402101
1352 1 3.532 15.894 8.83 12 11.015446192 1.766 12.9322396187
1353 1 7.064 14.128 7.064 12 11.015446192 1.766 12.6437647242
1354 1 8.83 15.894 7.064 12 11.015446192 1.766 10.7963528331
1355 1 8.83 14.128 8.83 12 11.015446192 1.766 10.5220556168
1356 1 7.064 15.894 8.83 12 11.015446192 1.766 10.6792646544
1357 1 10.596 14.128 7.064 12 11.015446192 1.766 10.8777909538
1358 1 12.362 15.894 7.064 12 11.015446192 1.766 9.2189215755
1359 1 12.362 14.128 8.83 12 11.015446192 1.766 8.898452459
1360 1 10.596 15.894 8.83 12 11.015446192 1.766 8.6730945974
1361 1 14.128 14.128 7.064 12 11.015446192 1.766 9.7358649014
1362 1 15.894 15.894 7.064 12 11.015446192 1.766 8.7022360804
1363 1 15.894 14.128 8.83 12 11.015446192 1.766 8.1946451341
1364 1 14.128 15.894 8.83 12 11.015446192 1.766 7.3401638252
1365 1 17.66 14.128 7.064 12 11.015446192 1.766 9.7586803455
1366 1 19.426 15.894 7.064 12 11.015446192 1.766 9.1861923198
1367 1 19.426 14.128 8.83 12 11.015446192 1.766 8.9461218038
1368 1 17.66 15.894 8.83 12 11.015446192 1.766 7.3600869427
1369 1 21.192 14.128 7.064 12 11.015446192 1.766 10.8342742357
1370 1 22.958 15.894 7.064 12 11.015446192 1.766 10.5318741016
1371 1 22.958 14.128 8.83 12 11.015446192 1.766 10.3525965811
1372 1 21.192 15.894 8.83 12 11.015446192 1.766 8.5461066682
1373 1 24.724 14.128 7.064 12 11.015446192 1.766 12.2996214949
1374 1 26.49 15.894 7.064 12 11.015446192 1.766 12.2311708224
1375 1 26.49 14.128 8.83 12 11.015446192 1.766 12.0621158499
1376 1 24.724 15.894 8.83 12 11.015446192 1.766 10.0859261505
1377 1 28.256 14.128 7.064 12 11.015446192 1.766 14.1288484523
1378 1 30.022 15.894 7.064 12 11.015446192 1.766 14.5047363173
1379 1 30.022 14.128 8.83 12 11.015446192 1.766 14.2901984634
1380 1 28.256 15.894 8.83 12 11.015446192 1.766 12.2478729693
1381 1 31.788 14.128 7.064 12 11.015446192 1.766 16.4921362875
1382 1 33.554 15.894 7.064 12 11.015446192 1.766 17.1367831472
1383 1 33.554 14.128 8.83 12 11.015446192 1.766 16.7830285834
1384 1 31.788 15.894 8.83 12 11.015446192 1.766 14.7997228201
1385 1 35.32 14.128 7.064 12 11.015446192 1.766 19.0566586929
1386 1 37.086 15.894 7.064 12 11.015446192 1.766 19.8961034987
1387 1 37.086 14.128 8.83 12 11.015446192 1.766 19.5732644883
1388 1 35.32 15.894 8.83 12 11.015446192 1.766 17.5536671475
1389 1 38.852 14.128 7.064 12 11.015446192 1.766 19.9371618744
1390 1 40.618 15.894 7.064 12 11.015446192 1.766 17.9469212086
1391 1 40.618 14.128 8.83 12 11.015446192 1.766 17.706392155
1392 1 38.852 15.894 8.83 12 11.015446192 1.766 18.6123080585
1393 1 0.0 17.66 7.064 12 11.015446192 1.766 16.0987130582
1394 1 1.766 19.426 7.064 12 11.015446192 1.766 14.44715084
1395 1 1.766 17.66 8.83 12 11.015446192 1.766 13.6992512815
1396 1 0.0 19.426 8.83 12 11.015446192 1.766 14.8516387578
1397 1 3.532 17.66 7.064 12 11.015446192 1.766 13.4928125785
1398 1 5.298 19.426 7.064 12 11.015446192 1.766 12.0034420289
1399 1 5.298 17.66 8.83 12 11.015446192 1.766 11.0919763262
1400 1 3.532 19.426 8.83 12 11.015446192 1.766 11.9774205461
1401 1 7.064 17.66 7.064 12 11.015446192 1.766 11.2501906259
1402 1 8.83 19.426 7.064 12 11.015446192 1.766 9.6202616654
1403 1 8.83 17.66 8.83 12 11.015446192 1.766 8.8875396753
1404 1 7.064 19.426 8.83 12 11.015446192 1.766 9.5548982247
1405 1 10.596 17.66 7.064 12 11.015446192 1.766 9.0853350041
1406 1 12.362 19.426 7.064 12 11.015446192 1.766 7.809395456
1407 1 12.362 17.66 8.83 12 11.015446192 1.766 6.9118048234
1408 1 10.596 19.426 8.83 12 11.015446192 1.766 7.1792517918
1409 1 14.128 17.66 7.064 12 11.015446192 1.766 7.9658997618
1410 1 15.894 19.426 7.064 12 11.015446192 1.766 7.3103798792
1411 1 15.894 17.66 8.83 12 11.015446192 1.766 6.3409177137
1412 1 14.128 19.426 8.83 12 11.015446192 1.766 5.6968327313
1413 1 17.66 17.66 7.064 12 11.015446192 1.766 7.9760203864
1414 1 19.426 19.426 7.064 12 11.015446192 1.766 7.5965072043
1415 1 19.426 17.66 8.83 12 11.015446192 1.766 6.8143907464
1416 1 17.66 19.426 8.83 12 11.015446192 1.766 5.6309679119
1417 1 21.192 17.66 7.064 12 11.015446192 1.766 8.8697550883
1418 1 22.958 19.426 7.064 12 11.015446192 1.766 8.9812541474
1419 1 22.958 17.66 8.83 12 11.015446192 1.766 8.3571936786
1420 1 21.192 19.426 8.83 12 11.015446192 1.766 6.7628295513
1421 1 24.724 17.66 7.064 12 11.015446192 1.766 10.5645137771
1422 1 26.49 19.426 7.064 12 11.015446192 1.766 11.0078617103
1423 1 26.49 17.66 8.83 12 11.015446192 1.766 10.3078325249
1424 1 24.724 19.426 8.83 12 11.015446192 1.766 8.6160415877
1425 1 28.256 17.66 7.064 12 11.015446192 1.766 12.6635128117
1426 1 30.022 19.426 7.064 12 11.015446192 1.766 13.5477859258
1427 1 30.022 17.66 8.83 12 11.015446192 1.766 12.9005555077
1428 1 28.256 19.426 8.83 12 11.015446192 1.766 11.1006884312
1429 1 31.788 17.66 7.064 12 11.015446192 1.766 15.2821700472
1430 1 33.554 19.426 7.064 12 11.015446192 1.766 16.2501900169
1431 1 33.554 17.66 8.83 12 11.015446192 1.766 15.667194699
1432 1 31.788 19.426 8.83 12 11.015446192 1.766 13.8424053018
1433 1 35.32 17.66 7.064 12 11.015446192 1.766 18.053405733
1434 1 37.086 19.426 7.064 12 11.015446192 1.766 19.1032248385
1435 1 37.086 17.66 8.83 12 11.015446192 1.766 18.6216927514
1436 1 35.32 19.426 8.83 12 11.015446192 1.766 16.7339494464
1437 1 38.852 17.66 7.064 12 11.015446192 1.766 19.0060827365
1438 1 40.618 19.426 7.064 12 11.015446192 1.766 17.2715882955
1439 1 40.618 17.66 8.83 12 11.015446192 1.766 16.6510384219
1440 1 38.852 19.426 8.83 12 11.015446192 1.766 17.9620097051
1441 1 0.0 21.192 7.064 12 11.015446192 1.766 15.7435500289
1442 1 1.766 22.958 7.064 12 11.015446192 1.766 14.468427804
1443 1 1.766 21.192 8.83 12 11.015446192 1.766 13.2800711992
1444 1 0.0 22.958 8.83 12 11.015446192 1.766 14.8908362147
1445 1 3.532 21.192 7.064 12 11.015446192 1.766 13.0667535519
1446 1 5.298 22.958 7.064 12 11.015446192 1.766 11.8353333875
1447 1 5.298 21.192 8.83 12 11.015446192 1.766 10.5693664126
1448 1 3.532 22.958 8.83 12 11.015446192 1.766 12.0015773525
1449 1 7.064 21.192 7.064 12 11.015446192 1.766 10.6798613565
1450 1 8.83 22.958 7.064 12 11.015446192 1.766 9.4962194626
1451 1 8.83 21.192 8.83 12 11.015446192 1.766 8.1866148811
1452 1 7.064 22.958 8.83 12 11.015446192 1.766 9.3391584485
1453 1 10.596 21.192 7.064 12 11.015446192 1.766 8.4234316986
1454 1 12.362 22.958 7.064 12 11.015446192 1.766 7.5324819042
1455 1 12.362 21.192 8.83 12 11.015446192 1.766 6.0101466517
1456 1 10.596 22.958 8.83 12 11.015446192 1.766 7.0376800942
1457 1 14.128 21.192 7.064 12 11.015446192 1.766 7.1437092508
1458 1 15.894 22.958 7.064 12 11.015446192 1.766 6.8156624237
1459 1 15.894 21.192 8.83 12 11.015446192 1.766 5.2735613291
1460 1 14.128 22.958 8.83 12 11.015446192 1.766 5.2574940134
1461 1 17.66 21.192 7.064 12 11.015446192 1.766 7.014443291
1462 1 19.426 22.958 7.064 12 11.015446192 1.766 7.204743933
1463 1 19.426 21.192 8.83 12 11.015446192 1.766 5.5834474166
1464 1 17.66 22.958 8.83 12 11.015446192 1.766 5.2462659021
1465 1 21.192 21.192 7.064 12 11.015446192 1.766 7.7500665402
1466 1 22.958 22.958 7.064 12 11.015446192 1.766 8.2605333413
1467 1 22.958 21.192 8.83 12 11.015446192 1.766 7.0041357952
1468 1 21.192 22.958 8.83 12 11.015446192 1.766 5.8917528312
1469 1 24.724 21.192 7.064 12 11.015446192 1.766 9.4243880383
1470 1 26.49 22.958 7.064 12 11.015446192 1.766 10.4617225758
1471 1 26.49 21.192 8.83 12 11.015446192 1.766 9.4776205975
1472 1 24.724 22.958 8.83 12 11.015446192 1.766 7.9654852705
1473 1 28.256 21.192 7.064 12 11.015446192 1.766 11.9354629446
1474 1 30.022 22.958 7.064 12 11.015446192 1.766 13.2517514096
1475 1 30.022 21.192 8.83 12 11.015446192 1.766 12.1473303131
1476 1 28.256 22.958 8.83 12 11.015446192 1.766 10.7689789278
1477 1 31.788 21.192 7.064 12 11.015446192 1.766 14.6207656518
1478 1 33.554 22.958 7.064 12 11.015446192 1.766 15.8693779834
1479 1 33.554 21.192 8.83 12 11.015446192 1.766 14.9491485794
1480 1 31.788 22.958 8.83 12 11.015446192 1.766 13.3941795726
1481 1 35.32 21.192 7.064 12 11.015446192 1.766 17.3823953012
1482 1 37.086 22.958 7.064 12 11.015446192 1.766 18.7800774372
1483 1 37.086 21.192 8.83 12 11.015446192 1.766 18.0091974896
1484 1 35.32 22.958 8.83 12 11.015446192 1.766 16.3640818072
1485 1 38.852 21.192 7.064 12 11.015446192 1.766 18.7062018156
1486 1 40.618 22.958 7.064 12 11.015446192 1.766 17.305305303
1487 1 40.618 21.192 8.83 12 11.015446192 1.766 16.3079086921
1488 1 38.852 22.958 8.83 12 11.015446192 1.766 17.9944330844
1489 1 0.0 24.724 7.064 12 11.015446192 1.766 16.1100875056
1490 1 1.766 26.49 7.064 12 11.015446192 1.766 14.8729772475
1491 1 1.766 24.724 8.83 12 11.015446192 1.766 13.7101558385
1492 1 0.0 26.49 8.83 12 11.015446192 1.766 15.6036689841
1493 1 3.532 24.724 7.064 12 11.015446192 1.766 13.2273693598
1494 1 5.298 26.49 7.064 12 11.015446192 1.766 11.957670093
1495 1 5.298 24.724 8.83 12 11.015446192 1.766 10.769914034
1496 1 3.532 26.49 8.83 12 11.015446192 1.766 12.4946462258
1497 1 7.064 24.724 7.064 12 11.015446192 1.766 10.5177968526
1498 1 8.83 26.49 7.064 12 11.015446192 1.766 9.4550542681
1499 1 8.83 24.724 8.83 12 11.015446192 1.766 8.0214820332
1500 1 7.064 26.49 8.83 12 11.015446192 1.766 9.5115143999
1501 1 10.596 24.724 7.064 12 11.015446192 1.766 8.3372784832
1502 1 12.362 26.49 7.064 12 11.015446192 1.766 7.7948878358
1503 1 12.362 24.724 8.83 12 11.015446192 1.766 5.9562221381
1504 1 10.596 26.49 8.83 12 11.015446192 1.766 7.0253901913
1505 1 14.128 24.724 7.064 12 11.015446192 1.766 7.0485417362
1506 1 15.894 26.49 7.064 12 11.015446192 1.766 7.391440361
1507 1 15.894 24.724 8.83 12 11.015446192 1.766 5.1729919421
1508 1 14.128 26.49 8.83 12 11.015446192 1.766 5.7613409818
1509 1 17.66 24.724 7.064 12 11.015446192 1.766 7.0365178645
1510 1 19.426 26.49 7.064 12 11.015446192 1.766 7.5814139233
1511 1 19.426 24.724 8.83 12 11.015446192 1.766 5.5709161914
1512 1 17.66 26.49 8.83 12 11.015446192 1.766 5.7024452612
1513 1 21.192 24.724 7.064 12 11.015446192 1.766 7.7479268193
1514 1 22.958 26.49 7.064 12 11.015446192 1.766 8.9719102247
1515 1 22.958 24.724 8.83 12 11.015446192 1.766 7.0074095628
1516 1 21.192 26.49 8.83 12 11.015446192 1.766 6.6972791892
1517 1 24.724 24.724 7.064 12 11.015446192 1.766 9.4268213328
1518 1 26.49 26.49 7.064 12 11.015446192 1.766 11.0171123356
1519 1 26.49 24.724 8.83 12 11.015446192 1.766 9.481721496
1520 1 24.724 26.49 8.83 12 11.015446192 1.766 8.6303085653
1521 1 28.256 24.724 7.064 12 11.015446192 1.766 11.9379464269
1522 1 30.022 26.49 7.064 12 11.015446192 1.766 13.559971107
1523 1 30.022 24.724 8.83 12 11.015446192 1.766 12.1568003972
1524 1 28.256 26.49 8.83 12 11.015446192 1.766 11.1090233877
1525 1 31.788 24.724 7.064 12 11.015446192 1.766 14.6287785245
1526 1 33.554 26.49 7.064 12 11.015446192 1.766 16.2635271124
1527 1 33.554 24.724 8.83 12 11.015446192 1.766 14.9569440918
1528 1 31.788 26.49 8.83 12 11.015446192 1.766 13.8567615586
1529 1 35.32 24.724 7.064 12 11.015446192 1.766 17.3891000262
1530 1 37.086 26.49 7.064 12 11.015446192 1.766 19.1154248152
1531 1 37.086 24.724 8.83 12 11.015446192 1.766 18.015668945
1532 1 35.32 26.49 8.83 12 11.015446192 1.766 16.7478754088
1533 1 38.852 24.724 7.064 12 11.015446192 1.766 19.0673238748
1534 1 40.618 26.49 7.064 12 11.015446192 1.766 17.9237195937
1535 1 40.618 24.724 8.83 12 11.015446192 1.766 16.7209072508
1536 1 38.852 26.49 8.83 12 11.015446192 1.766 18.697299339
1537 1 0.0 28.256 7.064 12 11.015446192 1.766 16.6983716665
1538 1 1.766 30.022 7.064 12 11.015446192 1.766 15.6567746644
1539 1 1.766 28.256 8.83 12 11.015446192 1.766 14.4085430366
1540 1 0.0 30.022 8.83 12 11.015446192 1.766 16.4667998062
1541 1 3.532 28.256 7.064 12 11.015446192 1.766 13.7048429933
1542 1 5.298 30.022 7.064 12 11.015446192 1.766 12.9072352598
1543 1 5.298 28.256 8.83 12 11.015446192 1.766 11.3608204633
1544 1 3.532 30.022 8.83 12 11.015446192 1.766 13.421721239
1545 1 7.064 28.256 7.064 12 11.015446192 1.766 11.0344856986
1546 1 8.83 30.022 7.064 12 11.015446192 1.766 10.6305643882
1547 1 8.83 28.256 8.83 12 11.015446192 1.766 8.6879467516
1548 1 7.064 30.022 8.83 12 11.015446192 1.766 10.6808124306
1549 1 10.596 28.256 7.064 12 11.015446192 1.766 8.9803716957
1550 1 12.362 30.022 7.064 12 11.015446192 1.766 9.1853755705
1551 1 12.362 28.256 8.83 12 11.015446192 1.766 6.8441686069
1552 1 10.596 30.022 8.83 12 11.015446192 1.766 8.5420697339
1553 1 14.128 28.256 7.064 12 11.015446192 1.766 8.030213257
1554 1 15.894 30.022 7.064 12 11.015446192 1.766 8.7083677452
1555 1 15.894 28.256 8.83 12 11.015446192 1.766 6.3518594863
1556 1 14.128 30.022 8.83 12 11.015446192 1.766 7.406505223
1557 1 17.66 28.256 7.064 12 11.015446192 1.766 8.0291149845
1558 1 19.426 30.022 7.064 12 11.015446192 1.766 9.1987604598
1559 1 19.426 28.256 8.83 12 11.015446192 1.766 6.7938487791
1560 1 17.66 30.022 8.83 12 11.015446192 1.766 7.4288074333
1561 1 21.192 28.256 7.064 12 11.015446192 1.766 8.7951030781
1562 1 22.958 30.022 7.064 12 11.015446192 1.766 10.4694136309
1563 1 22.958 28.256 8.83 12 11.015446192 1.766 8.3339392563
1564 1 21.192 30.022 8.83 12 11.015446192 1.766 8.4901728682
1565 1 24.724 28.256 7.064 12 11.015446192 1.766 10.5781617986
1566 1 26.49 30.022 7.064 12 11.015446192 1.766 12.2489785319
1567 1 26.49 28.256 8.83 12 11.015446192 1.766 10.3189367191
1568 1 24.724 30.022 8.83 12 11.015446192 1.766 10.1004167481
1569 1 28.256 28.256 7.064 12 11.015446192 1.766 12.6782105837
1570 1 30.022 30.022 7.064 12 11.015446192 1.766 14.5052077551
1571 1 30.022 28.256 8.83 12 11.015446192 1.766 12.9168119888
1572 1 28.256 30.022 8.83 12 11.015446192 1.766 12.2436502493
1573 1 31.788 28.256 7.064 12 11.015446192 1.766 15.2831762479
1574 1 33.554 30.022 7.064 12 11.015446192 1.766 17.193282169
1575 1 33.554 28.256 8.83 12 11.015446192 1.766 15.7586188741
1576 1 31.788 30.022 8.83 12 11.015446192 1.766 14.8932018042
1577 1 35.32 28.256 7.064 12 11.015446192 1.766 18.0944806036
1578 1 37.086 30.022 7.064 12 11.015446192 1.766 20.0302458603
1579 1 37.086 28.256 8.83 12 11.015446192 1.766 18.6857489592
1580 1 35.32 30.022 8.83 12 11.015446192 1.766 17.6974471588
1581 1 38.852 28.256 7.064 12 11.015446192 1.766 19.8339729373
1582 1 40.618 30.022 7.064 12 11.015446192 1.766 18.6714357169
1583 1 40.618 28.256 8.83 12 11.015446192 1.766 17.592163828
1584 1 38.852 30.022 8.83 12 11.015446192 1.766 19.6628334218
1585 1 0.0 31.788 7.064 12 11.015446192 1.766 17.7460273952
1586 1 1.766 33.554 7.064 12 11.015446192 1.766 17.1373663326
1587 1 1.766 31.788 8.83 12 11.015446192 1.766 15.5967822316
1588 1 0.0 33.554 8.83 12 11.015446192 1.766 17.7912505734
1589 1 3.532 31.788 7.064 12 11.015446192 1.766 14.9635755577
1590 1 5.298 33.554 7.064 12 11.015446192 1.766 14.6682520448
1591 1 5.298 31.788 8.83 12 11.015446192 1.766 12.8500542818
1592 1 3.532 33.554 8.83 12 11.015446192 1.766 15.064454476
1593 1 7.064 31.788 7.064 12 11.015446192 1.766 12.5636677221
1594 1 8.83 33.554 7.064 12 11.015446192 1.766 12.7110107864
1595 1 8.83 31.788 8.83 12 11.015446192 1.766 10.5624945329
1596 1 7.064 33.554 8.83 12 11.015446192 1.766 12.7250335135
1597 1 10.596 31.788 7.064 12 11.015446192 1.766 10.8043022816
1598 1 12.362 33.554 7.064 12 11.015446192 1.766 11.3956449048
1599 1 12.362 31.788 8.83 12 11.015446192 1.766 9.0384661285
1600 1 10.596 33.554 8.83 12 11.015446192 1.766 10.9928891685
1601 1 14.128 31.788 7.064 12 11.015446192 1.766 9.8290733943
1602 1 15.894 33.554 7.064 12 11.015446192 1.766 10.8514564003
1603 1 15.894 31.788 8.83 12 11.015446192 1.766 8.3540129372
1604 1 14.128 33.554 8.83 12 11.015446192 1.766 9.8388037464
1605 1 17.66 31.788 7.064 12 11.015446192 1.766 9.847796251
1606 1 19.426 33.554 7.064 12 11.015446192 1.766 11.4264403867
1607 1 19.426 31.788 8.83 12 11.015446192 1.766 9.0510629643
1608 1 17.66 33.554 8.83 12 11.015446192 1.766 9.8575081218
1609 1 21.192 31.788 7.064 12 11.015446192 1.766 10.812582334
1610 1 22.958 33.554 7.064 12 11.015446192 1.766 12.600709346
1611 1 22.958 31.788 8.83 12 11.015446192 1.766 10.3589434084
1612 1 21.192 33.554 8.83 12 11.015446192 1.766 10.7617708896
1613 1 24.724 31.788 7.064 12 11.015446192 1.766 12.2988854234
1614 1 26.49 33.554 7.064 12 11.015446192 1.766 14.1942531955
1615 1 26.49 31.788 8.83 12 11.015446192 1.766 12.0600553439
1616 1 24.724 33.554 8.83 12 11.015446192 1.766 12.2898829357
1617 1 28.256 31.788 7.064 12 11.015446192 1.766 14.1315782377
1618 1 30.022 33.554 7.064 12 11.015446192 1.766 16.1814880621
1619 1 30.022 31.788 8.83 12 11.015446192 1.766 14.3411006496
1620 1 28.256 33.554 8.83 12 11.015446192 1.766 14.1883926687
1621 1 31.788 31.788 7.064 12 11.015446192 1.766 16.5087887027
1622 1 33.554 33.554 7.064 12 11.015446192 1.766 18.6113812059
1623 1 33.554 31.788 8.83 12 11.015446192 1.766 16.9308476547
1624 1 31.788 33.554 8.83 12 11.015446192 1.766 16.4885040065
1625 1 35.32 31.788 7.064 12 11.015446192 1.766 19.187663569
1626 1 37.086 33.554 7.064 12 11.015446192 1.766 21.2267609996
1627 1 37.086 31.788 8.83 12 11.015446192 1.766 19.6871158014
1628 1 35.32 33.554 8.83 12 11.015446192 1.766 19.0139658757
1629 1 38.852 31.788 7.064 12 11.015446192 1.766 20.7577559276
1630 1 40.618 33.554 7.064 12 11.015446192 1.766 19.9215288528
1631 1 40.618 31.788 8.83 12 11.015446192 1.766 18.5977802284
1632 1 38.852 33.554 8.83 12 11.015446192 1.766 20.7615028765
1633 1 0.0 35.32 7.064 12 11.015446192 1.766 19.3503473974
1634 1 1.766 37.086 7.064 12 11.015446192 1.766 19.0720190816
1635 1 1.766 35.32 8.83 12 11.015446192 1.766 17.3068135885
1636 1 0.0 37.086 8.83 12 11.015446192 1.766 19.6101855406
1637 1 3.532 35.32 7.064 12 11.015446192 1.766 16.8636404012
1638 1 5.298 37.086 7.064 12 11.015446192 1.766 16.9307198628
1639 1 5.298 35.32 8.83 12 11.015446192 1.766 14.9144045761
1640 1 3.532 37.086 8.83 12 11.015446192 1.766 17.1755064033
1641 1 7.064 35.32 7.064 12 11.015446192 1.766 14.7922575447
1642 1 8.83 37.086 7.064 12 11.015446192 1.766 15.277590729
1643 1 8.83 35.32 8.83 12 11.015446192 1.766 13.0500260204
1644 1 7.064 37.086 8.83 12 11.015446192 1.766 15.1784950335
1645 1 10.596 35.32 7.064 12 11.015446192 1.766 13.2506302025
1646 1 12.362 37.086 7.064 12 11.015446192 1.766 14.0260189654
1647 1 12.362 35.32 8.83 12 11.015446192 1.766 11.6743141197
1648 1 10.596 37.086 8.83 12 11.015446192 1.766 13.7201591072
1649 1 14.128 35.32 7.064 12 11.015446192 1.766 12.2883743844
1650 1 15.894 37.086 7.064 12 11.015446192 1.766 13.5875896033
1651 1 15.894 35.32 8.83 12 11.015446192 1.766 11.1437423417
1652 1 14.128 37.086 8.83 12 11.015446192 1.766 12.7933789275
1653 1 17.66 35.32 7.064 12 11.015446192 1.766 12.3033553238
1654 1 19.426 37.086 7.064 12 11.015446192 1.766 14.0175963441
1655 1 19.426 35.32 8.83 12 11.015446192 1.766 11.5962069989
1656 1 17.66 37.086 8.83 12 11.015446192 1.766 12.7932690529
1657 1 21.192 35.32 7.064 12 11.015446192 1.766 13.144916994
1658 1 22.958 37.086 7.064 12 11.015446192 1.766 14.9272447786
1659 1 22.958 35.32 8.83 12 11.015446192 1.766 12.6250722536
1660 1 21.192 37.086 8.83 12 11.015446192 1.766 13.3702637624
1661 1 24.724 35.32 7.064 12 11.015446192 1.766 14.4777927689
1662 1 26.49 37.086 7.064 12 11.015446192 1.766 16.4887664454
1663 1 26.49 35.32 8.83 12 11.015446192 1.766 14.3787247969
1664 1 24.724 37.086 8.83 12 11.015446192 1.766 14.6780179227
1665 1 28.256 35.32 7.064 12 11.015446192 1.766 16.2362566922
1666 1 30.022 37.086 7.064 12 11.015446192 1.766 18.3649627141
1667 1 30.022 35.32 8.83 12 11.015446192 1.766 16.3740854433
1668 1 28.256 37.086 8.83 12 11.015446192 1.766 16.4936341615
1669 1 31.788 35.32 7.064 12 11.015446192 1.766 18.3404812144
1670 1 33.554 37.086 7.064 12 11.015446192 1.766 20.530394757
1671 1 33.554 35.32 8.83 12 11.015446192 1.766 18.6527700009
1672 1 31.788 37.086 8.83 12 11.015446192 1.766 18.5706288621
1673 1 35.32 35.32 7.064 12 11.015446192 1.766 20.7400557833
1674 1 37.086 37.086 7.064 12 11.015446192 1.766 22.8883991173
1675 1 37.086 35.32 8.83 12 11.015446192 1.766 21.1745779115
1676 1 35.32 37.086 8.83 12 11.015446192 1.766 20.8515261665
1677 1 38.852 35.32 7.064 12 11.015446192 1.766 22.113765056
1678 1 40.618 37.086 7.064 12 11.015446192 1.766 21.5818973349
1679 1 40.618 35.32 8.83 12 11.015446192 1.766 20.0390163759
1680 1 38.852 37.086 8.83 12 11.015446192 1.766 22.3398921587
1681 1 0.0 38.852 7.064 12 11.015446192 1.766 21.3310338286
1682 1 1.766 40.618 7.064 12 11.015446192 1.766 21.3710725005
1683 1 1.766 38.852 8.83 12 11.015446192 1.766 19.49439921
1684 1 0.0 40.618 8.83 12 11.015446192 1.766 21.8526933102
1685 1 3.532 38.852 7.064 12 11.015446192 1.766 19.1167896748
1686 1 5.298 40.618 7.064 12 11.015446192 1.766 19.4842604964
1687 1 5.298 38.852 8.83 12 11.015446192 1.766 17.4053229741
1688 1 3.532 40.618 8.83 12 11.015446192 1.766 19.6971786858
1689 1 7.064 38.852 7.064 12 11.015446192 1.766 17.3447496017
1690 1 8.83 40.618 7.064 12 11.015446192 1.766 18.0424962876
1691 1 8.83 38.852 8.83 12 11.015446192 1.766 15.8345768711
1692 1 7.064 40.618 8.83 12 11.015446192 1.766 17.9824230696
1693 1 10.596 38.852 7.064 12 11.015446192 1.766 15.9665054105
1694 1 12.362 40.618 7.064 12 11.015446192 1.766 16.9866930637
1695 1 12.362 38.852 8.83 12 11.015446192 1.766 14.6844516203
1696 1 10.596 40.618 8.83 12 11.015446192 1.766 16.7353135134
1697 1 14.128 38.852 7.064 12 11.015446192 1.766 15.1772083808
1698 1 15.894 40.618 7.064 12 11.015446192 1.766 16.6265187111
1699 1 15.894 38.852 8.83 12 11.015446192 1.766 14.2662715031
1700 1 14.128 40.618 8.83 12 11.015446192 1.766 15.9840257008
1701 1 17.66 38.852 7.064 12 11.015446192 1.766 15.1893403887
1702 1 19.426 40.618 7.064 12 11.015446192 1.766 16.9140773569
1703 1 19.426 38.852 8.83 12 11.015446192 1.766 14.5123593631
1704 1 17.66 40.618 8.83 12 11.015446192 1.766 15.9331632869
1705 1 21.192 38.852 7.064 12 11.015446192 1.766 15.7617147654
1706 1 22.958 40.618 7.064 12 11.015446192 1.766 17.6272778691
1707 1 22.958 38.852 8.83 12 11.015446192 1.766 15.3236977849
1708 1 21.192 40.618 8.83 12 11.015446192 1.766 16.3297961246
1709 1 24.724 38.852 7.064 12 11.015446192 1.766 16.8852571614
1710 1 26.49 40.618 7.064 12 11.015446192 1.766 18.9704034258
1711 1 26.49 38.852 8.83 12 11.015446192 1.766 16.8232866944
1712 1 24.724 40.618 8.83 12 11.015446192 1.766 17.4167304203
1713 1 28.256 38.852 7.064 12 11.015446192 1.766 18.5974005535
1714 1 30.022 40.618 7.064 12 11.015446192 1.766 20.7173571512
1715 1 30.022 38.852 8.83 12 11.015446192 1.766 18.6210041154
1716 1 28.256 40.618 8.83 12 11.015446192 1.766 18.9747422548
1717 1 31.788 38.852 7.064 12 11.015446192 1.766 20.5202286648
1718 1 33.554 40.618 7.064 12 11.015446192 1.766 22.6942800886
1719 1 33.554 38.852 8.83 12 11.015446192 1.766 20.779349065
1720 1 31.788 40.618 8.83 12 11.015446192 1.766 20.8169966758
1721 1 35.32 38.852 7.064 12 11.015446192 1.766 22.725842889
1722 1 37.086 40.618 7.064 12 11.015446192 1.766 24.9407924082
1723 1 37.086 38.852 8.83 12 11.015446192 1.766 23.1104525893
1724 1 35.32 40.618 8.83 12 11.015446192 1.766 23.0419533818
1725 1 38.852 38.852 7.064 12 11.015446192 1.766 23.8647105351
1726 1 40.618 40.618 7.064 12 11.015446192 1.766 23.6380862285
1727 1 40.618 38.852 8.83 12 11.015446192 1.766 21.9560465769
1728 1 38.852 40.618 8.83 12 11.015446192 1.766 24.3321106695
1729 1 0.0 0.0 10.596 12 11.015446192 1.766 22.6393999394
1730 1 1.766 1.766 10.596 12 11.015446192 1.766 22.4776960165
1731 1 1.766 0.0 12.362 12 11.015446192 1.766 21.2140531247
1732 1 0.0 1.766 12.362 12 11.015446192 1.766 22.9920952039
1733 1 3.532 0.0 10.596 12 11.015446192 1.766 20.5665036623
1734 1 5.298 1.766 10.596 12 11.015446192 1.766 20.7863697834
1735 1 5.298 0.0 12.362 12 11.015446192 1.766 19.3100189843
1736 1 3.532 1.766 12.362 12 11.015446192 1.766 21.1970569044
1737 1 7.064 0.0 10.596 12 11.015446192 1.766 18.9306567283
1738 1 8.83 1.766 10.596 12 11.015446192 1.766 19.5743486896
1739 1 8.83 0.0 12.362 12 11.015446192 1.766 17.8112263298
1740 1 7.064 1.766 12.362 12 11.015446192 1.766 19.7168051186
1741 1 10.596 0.0 10.596 12 11.015446192 1.766 17.7694700781
1742 1 12.362 1.766 10.596 12 11.015446192 1.766 18.659134206
1743 1 12.362 0.0 12.362 12 11.015446192 1.766 16.8016501421
1744 1 10.596 1.766 12.362 12 11.015446192 1.766 18.6420228223
1745 1 14.128 0.0 10.596 12 11.015446192 1.766 17.0847949302
1746 1 15.894 1.766 10.596 12 11.015446192 1.766 18.3346466317
1747 1 15.894 0.0 12.362 12 11.015446192 1.766 16.449350962
1748 1 14.128 1.766 12.362 12 11.015446192 1.766 17.9832910686
1749 1 17.66 0.0 10.596 12 11.015446192 1.766 16.9008178954
1750 1 19.426 1.766 10.596 12 11.015446192 1.766 18.6121962114
1751 1 19.426 0.0 12.362 12 11.015446192 1.766 16.4930805792
1752 1 17.66 1.766 12.362 12 11.015446192 1.766 18.0043690541
1753 1 21.192 0.0 10.596 12 11.015446192 1.766 17.2443571813
1754 1 22.958 1.766 10.596 12 11.015446192 1.766 19.259895118
1755 1 22.958 0.0 12.362 12 11.015446192 1.766 17.1773703472
1756 1 21.192 1.766 12.362 12 11.015446192 1.766 18.4215510009
1757 1 24.724 0.0 10.596 12 11.015446192 1.766 18.2471909192
1758 1 26.49 1.766 10.596 12 11.015446192 1.766 20.3378243272
1759 1 26.49 0.0 12.362 12 11.015446192 1.766 18.2610424578
1760 1 24.724 1.766 12.362 12 11.015446192 1.766 19.2714764642
1761 1 28.256 0.0 10.596 12 11.015446192 1.766 19.5949256132
1762 1 30.022 1.766 10.596 12 11.015446192 1.766 21.7740849848
1763 1 30.022 0.0 12.362 12 11.015446192 1.766 19.8497350777
1764 1 28.256 1.766 12.362 12 11.015446192 1.766 20.4805628375
1765 1 31.788 0.0 10.596 12 11.015446192 1.766 21.3771477235
1766 1 33.554 1.766 10.596 12 11.015446192 1.766 23.6546930542
1767 1 33.554 0.0 12.362 12 11.015446192 1.766 21.8258207398
1768 1 31.788 1.766 12.362 12 11.015446192 1.766 22.1903617975
1769 1 35.32 0.0 10.596 12 11.015446192 1.766 23.510873376
1770 1 37.086 1.766 10.596 12 11.015446192 1.766 25.839451563
1771 1 37.086 0.0 12.362 12 11.015446192 1.766 24.0638482382
1772 1 35.32 1.766 12.362 12 11.015446192 1.766 24.1857316993
1773 1 38.852 0.0 10.596 12 11.015446192 1.766 25.0410429963
1774 1 40.618 1.766 10.596 12 11.015446192 1.766 24.452738935
1775 1 40.618 0.0 12.362 12 11.015446192 1.766 23.4962216262
1776 1 38.852 1.766 12.362 12 11.015446192 1.766 25.0999551603
1777 1 0.0 3.532 10.596 12 11.015446192 1.766 22.0871450197
1778 1 1.766 5.298 10.596 12 11.015446192 1.766 19.7246570626
1779 1 1.766 3.532 12.362 12 11.015446192 1.766 20.6150204119
1780 1 0.0 5.298 12.362 12 11.015446192 1.766 20.2578598555
1781 1 3.532 3.532 10.596 12 11.015446192 1.766 20.1157257599
1782 1 5.298 5.298 10.596 12 11.015446192 1.766 17.7901374832
1783 1 5.298 3.532 12.362 12 11.015446192 1.766 18.8436765563
1784 1 3.532 5.298 12.362 12 11.015446192 1.766 18.2433440017
1785 1 7.064 3.532 10.596 12 11.015446192 1.766 18.5450731354
1786 1 8.83 5.298 10.596 12 11.015446192 1.766 16.375011762
1787 1 8.83 3.532 12.362 12 11.015446192 1.766 17.5137950366
1788 1 7.064 5.298 12.362 12 11.015446192 1.766 16.5278016379
1789 1 10.596 3.532 10.596 12 11.015446192 1.766 17.428715248
1790 1 12.362 5.298 10.596 12 11.015446192 1.766 15.3251913487
1791 1 12.362 3.532 12.362 12 11.015446192 1.766 16.5527895606
1792 1 10.596 5.298 12.362 12 11.015446192 1.766 15.3646038468
1793 1 14.128 3.532 10.596 12 11.015446192 1.766 16.7115573284
1794 1 15.894 5.298 10.596 12 11.015446192 1.766 14.9275330374
1795 1 15.894 3.532 12.362 12 11.015446192 1.766 16.1940771297
1796 1 14.128 5.298 12.362 12 11.015446192 1.766 14.5768469779
1797 1 17.66 3.532 10.596 12 11.015446192 1.766 16.7248016463
1798 1 19.426 5.298 10.596 12 11.015446192 1.766 15.2832257829
1799 1 19.426 3.532 12.362 12 11.015446192 1.766 16.46181776
1800 1 17.66 5.298 12.362 12 11.015446192 1.766 14.5897685004
1801 1 21.192 3.532 10.596 12 11.015446192 1.766 17.2146434945
1802 1 22.958 5.298 10.596 12 11.015446192 1.766 16.0728869614
1803 1 22.958 3.532 12.362 12 11.015446192 1.766 17.1584637057
1804 1 21.192 5.298 12.362 12 11.015446192 1.766 15.0581431988
1805 1 24.724 3.532 10.596 12 11.015446192 1.766 18.2049210554
1806 1 26.49 5.298 10.596 12 11.015446192 1.766 17.3149037697
1807 1 26.49 3.532 12.362 12 11.015446192 1.766 18.2291253755
1808 1 24.724 5.298 12.362 12 11.015446192 1.766 16.0506571133
1809 1 28.256 3.532 10.596 12 11.015446192 1.766 19.5120686433
1810 1 30.022 5.298 10.596 12 11.015446192 1.766 18.981295296
1811 1 30.022 3.532 12.362 12 11.015446192 1.766 19.8187963942
1812 1 28.256 5.298 12.362 12 11.015446192 1.766 17.4823410426
1813 1 31.788 3.532 10.596 12 11.015446192 1.766 21.2997541136
1814 1 33.554 5.298 10.596 12 11.015446192 1.766 21.1121599482
1815 1 33.554 3.532 12.362 12 11.015446192 1.766 21.8682056209
1816 1 31.788 5.298 12.362 12 11.015446192 1.766 19.4574137771
1817 1 35.32 3.532 10.596 12 11.015446192 1.766 23.485916543
1818 1 37.086 5.298 10.596 12 11.015446192 1.766 23.546273975
1819 1 37.086 3.532 12.362 12 11.015446192 1.766 24.2610962214
1820 1 35.32 5.298 12.362 12 11.015446192 1.766 21.8285459289
1821 1 38.852 3.532 10.596 12 11.015446192 1.766 24.2795040527
1822 1 40.618 5.298 10.596 12 11.015446192 1.766 21.9016183302
1823 1 40.618 3.532 12.362 12 11.015446192 1.766 22.6706154633
1824 1 38.852 5.298 12.362 12 11.015446192 1.766 22.6219405248
1825 1 0.0 7.064 10.596 12 11.015446192 1.766 19.5535796703
1826 1 1.766 8.83 10.596 12 11.015446192 1.766 17.234281133
1827 1 1.766 7.064 12.362 12 11.015446192 1.766 17.8684076057
1828 1 0.0 8.83 12.362 12 11.015446192 1.766 17.8066105136
1829 1 3.532 7.064 10.596 12 11.015446192 1.766 17.364711506
1830 1 5.298 8.83 10.596 12 11.015446192 1.766 15.0284684039
1831 1 5.298 7.064 12.362 12 11.015446192 1.766 15.8717082409
1832 1 3.532 8.83 12.362 12 11.015446192 1.766 15.5070000719
1833 1 7.064 7.064 10.596 12 11.015446192 1.766 15.5180728344
1834 1 8.83 8.83 10.596 12 11.015446192 1.766 13.3269351809
1835 1 8.83 7.064 12.362 12 11.015446192 1.766 14.2733083693
1836 1 7.064 8.83 12.362 12 11.015446192 1.766 13.5105180463
1837 1 10.596 7.064 10.596 12 11.015446192 1.766 14.2303182797
1838 1 12.362 8.83 10.596 12 11.015446192 1.766 12.1027661981
1839 1 12.362 7.064 12.362 12 11.015446192 1.766 13.2254121136
1840 1 10.596 8.83 12.362 12 11.015446192 1.766 12.1045950065
1841 1 14.128 7.064 10.596 12 11.015446192 1.766 13.35726709
1842 1 15.894 8.83 10.596 12 11.015446192 1.766 11.5951154524
1843 1 15.894 7.064 12.362 12 11.015446192 1.766 12.7669061109
1844 1 14.128 8.83 12.362 12 11.015446192 1.766 11.1830764352
1845 1 17.66 7.064 10.596 12 11.015446192 1.766 13.3739059673
1846 1 19.426 8.83 10.596 12 11.015446192 1.766 12.0680952036
1847 1 19.426 7.064 12.362 12 11.015446192 1.766 13.0713657772
1848 1 17.66 8.83 12.362 12 11.015446192 1.766 11.1809118551
1849 1 21.192 7.064 10.596 12 11.015446192 1.766 14.0076090022
1850 1 22.958 8.83 10.596 12 11.015446192 1.766 13.0631648559
1851 1 22.958 7.064 12.362 12 11.015446192 1.766 13.9207767981
1852 1 21.192 8.83 12.362 12 11.015446192 1.766 11.7937212072
1853 1 24.724 7.064 10.596 12 11.015446192 1.766 15.1852060792
1854 1 26.49 8.83 10.596 12 11.015446192 1.766 14.5235923497
1855 1 26.49 7.064 12.362 12 11.015446192 1.766 15.1971981017
1856 1 24.724 8.83 12.362 12 11.015446192 1.766 12.9904748164
1857 1 28.256 7.064 10.596 12 11.015446192 1.766 16.7145039091
1858 1 30.022 8.83 10.596 12 11.015446192 1.766 16.4747811306
1859 1 30.022 7.064 12.362 12 11.015446192 1.766 17.0715701886
1860 1 28.256 8.83 12.362 12 11.015446192 1.766 14.7228085132
1861 1 31.788 7.064 10.596 12 11.015446192 1.766 18.7705445709
1862 1 33.554 8.83 10.596 12 11.015446192 1.766 18.8340012713
1863 1 33.554 7.064 12.362 12 11.015446192 1.766 19.4121507315
1864 1 31.788 8.83 12.362 12 11.015446192 1.766 17.0187933127
1865 1 35.32 7.064 10.596 12 11.015446192 1.766 21.1741005813
1866 1 37.086 8.83 10.596 12 11.015446192 1.766 21.36154895
1867 1 37.086 7.064 12.362 12 11.015446192 1.766 21.9316801418
1868 1 35.32 8.83 12.362 12 11.015446192 1.766 19.5209398707
1869 1 38.852 7.064 10.596 12 11.015446192 1.766 21.993494154
1870 1 40.618 8.83 10.596 12 11.015446192 1.766 19.6564334899
1871 1 40.618 7.064 12.362 12 11.015446192 1.766 20.203372826
1872 1 38.852 8.83 12.362 12 11.015446192 1.766 20.4559694262
1873 1 0.0 10.596 10.596 12 11.015446192 1.766 17.3635441142
1874 1 1.766 12.362 10.596 12 11.015446192 1.766 15.0913233173
1875 1 1.766 10.596 12.362 12 11.015446192 1.766 15.441810335
1876 1 0.0 12.362 12.362 12 11.015446192 1.766 15.7708566046
1877 1 3.532 10.596 10.596 12 11.015446192 1.766 14.9318600503
1878 1 5.298 12.362 10.596 12 11.015446192 1.766 12.6558595704
1879 1 5.298 10.596 12.362 12 11.015446192 1.766 13.1539903561
1880 1 3.532 12.362 12.362 12 11.015446192 1.766 13.1262583725
1881 1 7.064 10.596 10.596 12 11.015446192 1.766 12.7534889105
1882 1 8.83 12.362 10.596 12 11.015446192 1.766 10.5793723923
1883 1 8.83 10.596 12.362 12 11.015446192 1.766 11.2057229442
1884 1 7.064 12.362 12.362 12 11.015446192 1.766 10.8092026386
1885 1 10.596 10.596 10.596 12 11.015446192 1.766 11.2111450222
1886 1 12.362 12.362 10.596 12 11.015446192 1.766 9.1127634348
1887 1 12.362 10.596 12.362 12 11.015446192 1.766 9.9575223648
1888 1 10.596 12.362 12.362 12 11.015446192 1.766 9.0042978364
1889 1 14.128 10.596 10.596 12 11.015446192 1.766 10.1245774177
1890 1 15.894 12.362 10.596 12 11.015446192 1.766 8.4268742798
1891 1 15.894 10.596 12.362 12 11.015446192 1.766 9.3459742875
1892 1 14.128 12.362 12.362 12 11.015446192 1.766 7.8514401809
1893 1 17.66 10.596 10.596 12 11.015446192 1.766 10.1465188412
1894 1 19.426 12.362 10.596 12 11.015446192 1.766 9.0884345379
1895 1 19.426 10.596 12.362 12 11.015446192 1.766 9.7807389704
1896 1 17.66 12.362 12.362 12 11.015446192 1.766 7.8601324498
1897 1 21.192 10.596 10.596 12 11.015446192 1.766 11.0014688691
1898 1 22.958 12.362 10.596 12 11.015446192 1.766 10.3816152003
1899 1 22.958 10.596 12.362 12 11.015446192 1.766 10.8619361783
1900 1 21.192 12.362 12.362 12 11.015446192 1.766 8.7397827577
1901 1 24.724 10.596 10.596 12 11.015446192 1.766 12.4330325208
1902 1 26.49 12.362 10.596 12 11.015446192 1.766 12.1248361167
1903 1 26.49 10.596 12.362 12 11.015446192 1.766 12.4321637831
1904 1 24.724 12.362 12.362 12 11.015446192 1.766 10.2387170164
1905 1 28.256 10.596 10.596 12 11.015446192 1.766 14.2470525764
1906 1 30.022 12.362 10.596 12 11.015446192 1.766 14.3128751217
1907 1 30.022 10.596 12.362 12 11.015446192 1.766 14.6597614838
1908 1 28.256 12.362 12.362 12 11.015446192 1.766 12.3547334592
1909 1 31.788 10.596 10.596 12 11.015446192 1.766 16.5395956268
1910 1 33.554 12.362 10.596 12 11.015446192 1.766 16.7750654464
1911 1 33.554 10.596 12.362 12 11.015446192 1.766 17.1350697994
1912 1 31.788 12.362 12.362 12 11.015446192 1.766 14.7861139122
1913 1 35.32 10.596 10.596 12 11.015446192 1.766 19.0426307305
1914 1 37.086 12.362 10.596 12 11.015446192 1.766 19.5664369528
1915 1 37.086 10.596 12.362 12 11.015446192 1.766 19.8759465518
1916 1 35.32 12.362 12.362 12 11.015446192 1.766 17.5384370719
1917 1 38.852 10.596 10.596 12 11.015446192 1.766 20.0719530978
1918 1 40.618 12.362 10.596 12 11.015446192 1.766 17.808562554
1919 1 40.618 10.596 12.362 12 11.015446192 1.766 18.0926998982
1920 1 38.852 12.362 12.362 12 11.015446192 1.766 18.7107248717
1921 1 0.0 14.128 10.596 12 11.015446192 1.766 15.5569035058
1922 1 1.766 15.894 10.596 12 11.015446192 1.766 13.3825942161
1923 1 1.766 14.128 12.362 12 11.015446192 1.766 13.4992620799
1924 1 0.0 15.894 12.362 12 11.015446192 1.766 14.2623245839
1925 1 3.532 14.128 10.596 12 11.015446192 1.766 12.8415215545
1926 1 5.298 15.894 10.596 12 11.015446192 1.766 10.6984242344
1927 1 5.298 14.128 12.362 12 11.015446192 1.766 10.8599492716
1928 1 3.532 15.894 12.362 12 11.015446192 1.766 11.2386514981
1929 1 7.064 14.128 10.596 12 11.015446192 1.766 10.461473237
1930 1 8.83 15.894 10.596 12 11.015446192 1.766 8.4373625684
1931 1 8.83 14.128 12.362 12 11.015446192 1.766 8.5064193172
1932 1 7.064 15.894 12.362 12 11.015446192 1.766 8.6065672075
1933 1 10.596 14.128 10.596 12 11.015446192 1.766 8.5629176276
1934 1 12.362 15.894 10.596 12 11.015446192 1.766 6.6631342892
1935 1 12.362 14.128 12.362 12 11.015446192 1.766 6.889428791
1936 1 10.596 15.894 12.362 12 11.015446192 1.766 6.3516412385
1937 1 14.128 14.128 10.596 12 11.015446192 1.766 7.1796657067
1938 1 15.894 15.894 10.596 12 11.015446192 1.766 5.7033118362
1939 1 15.894 14.128 12.362 12 11.015446192 1.766 6.0322273792
1940 1 14.128 15.894 12.362 12 11.015446192 1.766 4.8125532399
1941 1 17.66 14.128 10.596 12 11.015446192 1.766 7.2105739278
1942 1 19.426 15.894 10.596 12 11.015446192 1.766 6.641192766
1943 1 19.426 14.128 12.362 12 11.015446192 1.766 6.7353387451
1944 1 17.66 15.894 12.362 12 11.015446192 1.766 4.8424542682
1945 1 21.192 14.128 10.596 12 11.015446192 1.766 8.4143670348
1946 1 22.958 15.894 10.596 12 11.015446192 1.766 8.1144189245
1947 1 22.958 14.128 12.362 12 11.015446192 1.766 8.1849721673
1948 1 21.192 15.894 12.362 12 11.015446192 1.766 6.1918329598
1949 1 24.724 14.128 10.596 12 11.015446192 1.766 10.0952611469
1950 1 26.49 15.894 10.596 12 11.015446192 1.766 10.0858312661
1951 1 26.49 14.128 12.362 12 11.015446192 1.766 10.1406026487
1952 1 24.724 15.894 12.362 12 11.015446192 1.766 8.0309964417
1953 1 28.256 14.128 10.596 12 11.015446192 1.766 12.1821796402
1954 1 30.022 15.894 10.596 12 11.015446192 1.766 12.5055973037
1955 1 30.022 14.128 12.362 12 11.015446192 1.766 12.4949084119
1956 1 28.256 15.894 12.362 12 11.015446192 1.766 10.300064651
1957 1 31.788 14.128 10.596 12 11.015446192 1.766 14.5828282691
1958 1 33.554 15.894 10.596 12 11.015446192 1.766 15.2604898421
1959 1 33.554 14.128 12.362 12 11.015446192 1.766 15.2517317875
1960 1 31.788 15.894 12.362 12 11.015446192 1.766 13.0425800405
1961 1 35.32 14.128 10.596 12 11.015446192 1.766 17.3673973475
1962 1 37.086 15.894 10.596 12 11.015446192 1.766 18.2845613707
1963 1 37.086 14.128 12.362 12 11.015446192 1.766 18.2772524417
1964 1 35.32 15.894 12.362 12 11.015446192 1.766 16.0958536404
1965 1 38.852 14.128 10.596 12 11.015446192 1.766 18.5493898968
1966 1 40.618 15.894 10.596 12 11.015446192 1.766 16.3915045925
1967 1 40.618 14.128 12.362 12 11.015446192 1.766 16.4725974933
1968 1 38.852 15.894 12.362 12 11.015446192 1.766 17.4752252941
1969 1 0.0 17.66 10.596 12 11.015446192 1.766 14.3442672894
1970 1 1.766 19.426 10.596 12 11.015446192 1.766 12.462327605
1971 1 1.766 17.66 12.362 12 11.015446192 1.766 12.1133790337
1972 1 0.0 19.426 12.362 12 11.015446192 1.766 13.4028220809
1973 1 3.532 17.66 10.596 12 11.015446192 1.766 11.3421970189
1974 1 5.298 19.426 10.596 12 11.015446192 1.766 9.5221879041
1975 1 5.298 17.66 12.362 12 11.015446192 1.766 9.0607066369
1976 1 3.532 19.426 12.362 12 11.015446192 1.766 10.1253675922
1977 1 7.064 17.66 10.596 12 11.015446192 1.766 8.7454508381
1978 1 8.83 19.426 10.596 12 11.015446192 1.766 7.1403475844
1979 1 8.83 17.66 12.362 12 11.015446192 1.766 6.5027800218
1980 1 7.064 19.426 12.362 12 11.015446192 1.766 7.096516471
1981 1 10.596 17.66 10.596 12 11.015446192 1.766 6.5911744301
1982 1 12.362 19.426 10.596 12 11.015446192 1.766 4.7967595384
1983 1 12.362 17.66 12.362 12 11.015446192 1.766 4.4620062333
1984 1 10.596 19.426 12.362 12 11.015446192 1.766 4.7917341239
1985 1 14.128 17.66 10.596 12 11.015446192 1.766 4.9669456398
1986 1 15.894 19.426 10.596 12 11.015446192 1.766 3.9798276441
1987 1 15.894 17.66 12.362 12 11.015446192 1.766 3.2215441837
1988 1 14.128 19.426 12.362 12 11.015446192 1.766 2.6300759398
1989 1 17.66 17.66 10.596 12 11.015446192 1.766 4.9677214116
1990 1 19.426 19.426 10.596 12 11.015446192 1.766 4.5529322826
1991 1 19.426 17.66 12.362 12 11.015446192 1.766 4.3408459301
1992 1 17.66 19.426 12.362 12 11.015446192 1.766 2.5867848277
1993 1 21.192 17.66 10.596 12 11.015446192 1.766 6.2877076737
1994 1 22.958 19.426 10.596 12 11.015446192 1.766 6.2755711086
1995 1 22.958 17.66 12.362 12 11.015446192 1.766 5.9474855595
1996 1 21.192 19.426 12.362 12 11.015446192 1.766 4.05838859
1997 1 24.724 17.66 10.596 12 11.015446192 1.766 8.0382392344
1998 1 26.49 19.426 10.596 12 11.015446192 1.766 8.6815713801
1999 1 26.49 17.66 12.362 12 11.015446192 1.766 8.2531989213
2000 1 24.724 19.426 12.362 12 11.015446192 1.766 6.3029786565
2001 1 28.256 17.66 10.596 12 11.015446192 1.766 10.5489894579
2002 1 30.022 19.426 10.596 12 11.015446192 1.766 11.4507388553
2003 1 30.022 17.66 12.362 12 11.015446192 1.766 10.9579874844
2004 1 28.256 19.426 12.362 12 11.015446192 1.766 9.0629388613
2005 1 31.788 17.66 10.596 12 11.015446192 1.766 13.2896062325
2006 1 33.554 19.426 10.596 12 11.015446192 1.766 14.3950921775
2007 1 33.554 17.66 12.362 12 11.015446192 1.766 14.0203450745
2008 1 31.788 19.426 12.362 12 11.015446192 1.766 12.0812548156
2009 1 35.32 17.66 10.596 12 11.015446192 1.766 16.2966635884
2010 1 37.086 19.426 10.596 12 11.015446192 1.766 17.5563976398
2011 1 37.086 17.66 12.362 12 11.015446192 1.766 17.2630446418
2012 1 35.32 19.426 12.362 12 11.015446192 1.766 15.3194561214
2013 1 38.852 17.66 10.596 12 11.015446192 1.766 17.5448175518
2014 1 40.618 19.426 10.596 12 11.015446192 1.766 15.6491918062
2015 1 40.618 17.66 12.362 12 11.015446192 1.766 15.3727533795
2016 1 38.852 19.426 12.362 12 11.015446192 1.766 16.7838689993
2017 1 0.0 21.192 10.596 12 11.015446192 1.766 13.9444902901
2018 1 1.766 22.958 10.596 12 11.015446192 1.766 12.5090142983
2019 1 1.766 21.192 12.362 12 11.015446192 1.766 11.6372143142
2020 1 0.0 22.958 12.362 12 11.015446192 1.766 13.4462436804
2021 1 3.532 21.192 10.596 12 11.015446192 1.766 10.8321853104
2022 1 5.298 22.958 10.596 12 11.015446192 1.766 9.5506125511
2023 1 5.298 21.192 12.362 12 11.015446192 1.766 8.4135135431
2024 1 3.532 22.958 12.362 12 11.015446192 1.766 10.1827745855
2025 1 7.064 21.192 10.596 12 11.015446192 1.766 8.0719792905
2026 1 8.83 22.958 10.596 12 11.015446192 1.766 6.8430049849
2027 1 8.83 21.192 12.362 12 11.015446192 1.766 5.5745922087
2028 1 7.064 22.958 12.362 12 11.015446192 1.766 7.1319300739
2029 1 10.596 21.192 10.596 12 11.015446192 1.766 5.6949323052
2030 1 12.362 22.958 10.596 12 11.015446192 1.766 4.5517985566
2031 1 12.362 21.192 12.362 12 11.015446192 1.766 3.208459263
2032 1 10.596 22.958 12.362 12 11.015446192 1.766 4.3468456487
2033 1 14.128 21.192 10.596 12 11.015446192 1.766 3.706122301
2034 1 15.894 22.958 10.596 12 11.015446192 1.766 3.296187969
2035 1 15.894 21.192 12.362 12 11.015446192 1.766 1.7766814828
2036 1 14.128 22.958 12.362 12 11.015446192 1.766 2.0659170189
2037 1 17.66 21.192 10.596 12 11.015446192 1.766 3.498368584
2038 1 19.426 22.958 10.596 12 11.015446192 1.766 3.6965004755
2039 1 19.426 21.192 12.362 12 11.015446192 1.766 2.4511325441
2040 1 17.66 22.958 12.362 12 11.015446192 1.766 1.7452999049
2041 1 21.192 21.192 10.596 12 11.015446192 1.766 4.6660229937
2042 1 22.958 22.958 10.596 12 11.015446192 1.766 5.4704018075
2043 1 22.958 21.192 12.362 12 11.015446192 1.766 4.5624254335
2044 1 21.192 22.958 12.362 12 11.015446192 1.766 2.9793724635
2045 1 24.724 21.192 10.596 12 11.015446192 1.766 7.0198842988
2046 1 26.49 22.958 10.596 12 11.015446192 1.766 8.2746191695
2047 1 26.49 21.192 12.362 12 11.015446192 1.766 7.2473566354
2048 1 24.724 22.958 12.362 12 11.015446192 1.766 5.78043877
2049 1 28.256 21.192 10.596 12 11.015446192 1.766 9.6855612669
2050 1 30.022 22.958 10.596 12 11.015446192 1.766 10.9291335093
2051 1 30.022 21.192 12.362 12 11.015446192 1.766 10.1764860799
2052 1 28.256 22.958 12.362 12 11.015446192 1.766 8.4830947247
2053 1 31.788 21.192 10.596 12 11.015446192 1.766 12.5411898993
2054 1 33.554 22.958 10.596 12 11.015446192 1.766 13.9767686621
2055 1 33.554 21.192 12.362 12 11.015446192 1.766 13.3964537062
2056 1 31.788 22.958 12.362 12 11.015446192 1.766 11.6358057339
2057 1 35.32 21.192 10.596 12 11.015446192 1.766 15.6735628069
2058 1 37.086 22.958 10.596 12 11.015446192 1.766 17.2105843365
2059 1 37.086 21.192 12.362 12 11.015446192 1.766 16.7427334349
2060 1 35.32 22.958 12.362 12 11.015446192 1.766 14.9589806487
2061 1 38.852 21.192 10.596 12 11.015446192 1.766 17.2195072028
2062 1 40.618 22.958 10.596 12 11.015446192 1.766 15.6863964495
2063 1 40.618 21.192 12.362 12 11.015446192 1.766 15.0004117226
2064 1 38.852 22.958 12.362 12 11.015446192 1.766 16.8147770971
2065 1 0.0 24.724 10.596 12 11.015446192 1.766 14.4253132664
2066 1 1.766 26.49 10.596 12 11.015446192 1.766 13.3416889166
2067 1 1.766 24.724 12.362 12 11.015446192 1.766 12.178669331
2068 1 0.0 26.49 12.362 12 11.015446192 1.766 14.205192286
2069 1 3.532 24.724 10.596 12 11.015446192 1.766 11.3523439043
2070 1 5.298 26.49 10.596 12 11.015446192 1.766 10.1729537981
2071 1 5.298 24.724 12.362 12 11.015446192 1.766 9.068044503
2072 1 3.532 26.49 12.362 12 11.015446192 1.766 11.1230830082
2073 1 7.064 24.724 10.596 12 11.015446192 1.766 8.3355185192
2074 1 8.83 26.49 10.596 12 11.015446192 1.766 7.1011944281
2075 1 8.83 24.724 12.362 12 11.015446192 1.766 5.9525425014
2076 1 7.064 26.49 12.362 12 11.015446192 1.766 7.9556615062
2077 1 10.596 24.724 10.596 12 11.015446192 1.766 5.525392756
2078 1 12.362 26.49 10.596 12 11.015446192 1.766 4.6678889733
2079 1 12.362 24.724 12.362 12 11.015446192 1.766 3.0294931539
2080 1 10.596 26.49 12.362 12 11.015446192 1.766 4.7812176727
2081 1 14.128 24.724 10.596 12 11.015446192 1.766 3.6765876579
2082 1 15.894 26.49 10.596 12 11.015446192 1.766 4.078139386
2083 1 15.894 24.724 12.362 12 11.015446192 1.766 1.8107181186
2084 1 14.128 26.49 12.362 12 11.015446192 1.766 2.5863674855
2085 1 17.66 24.724 10.596 12 11.015446192 1.766 3.5384747487
2086 1 19.426 26.49 10.596 12 11.015446192 1.766 4.4742921741
2087 1 19.426 24.724 12.362 12 11.015446192 1.766 2.39847319
2088 1 17.66 26.49 12.362 12 11.015446192 1.766 2.6096150509
2089 1 21.192 24.724 10.596 12 11.015446192 1.766 4.6700881106
2090 1 22.958 26.49 10.596 12 11.015446192 1.766 6.2973773739
2091 1 22.958 24.724 12.362 12 11.015446192 1.766 4.5703194873
2092 1 21.192 26.49 12.362 12 11.015446192 1.766 4.0578069283
2093 1 24.724 24.724 10.596 12 11.015446192 1.766 7.0257237565
2094 1 26.49 26.49 10.596 12 11.015446192 1.766 8.6832286018
2095 1 26.49 24.724 12.362 12 11.015446192 1.766 7.260172018
2096 1 24.724 26.49 12.362 12 11.015446192 1.766 6.3130362235
2097 1 28.256 24.724 10.596 12 11.015446192 1.766 9.6966029155
2098 1 30.022 26.49 10.596 12 11.015446192 1.766 11.4876910244
2099 1 30.022 24.724 12.362 12 11.015446192 1.766 10.1879341503
2100 1 28.256 26.49 12.362 12 11.015446192 1.766 9.1541931862
2101 1 31.788 24.724 10.596 12 11.015446192 1.766 12.5504811624
2102 1 33.554 26.49 10.596 12 11.015446192 1.766 14.4238907092
2103 1 33.554 24.724 12.362 12 11.015446192 1.766 13.4051521894
2104 1 31.788 26.49 12.362 12 11.015446192 1.766 12.1303311988
2105 1 35.32 24.724 10.596 12 11.015446192 1.766 15.6809981946
2106 1 37.086 26.49 10.596 12 11.015446192 1.766 17.5748584898
2107 1 37.086 24.724 12.362 12 11.015446192 1.766 16.7496942118
2108 1 35.32 26.49 12.362 12 11.015446192 1.766 15.3405413406
2109 1 38.852 24.724 10.596 12 11.015446192 1.766 17.6096430688
2110 1 40.618 26.49 10.596 12 11.015446192 1.766 16.4507476543
2111 1 40.618 24.724 12.362 12 11.015446192 1.766 15.3929198289
2112 1 38.852 26.49 12.362 12 11.015446192 1.766 17.375254909
2113 1 0.0 28.256 10.596 12 11.015446192 1.766 15.4183139551
2114 1 1.766 30.022 10.596 12 11.015446192 1.766 14.3050468873
2115 1 1.766 28.256 12.362 12 11.015446192 1.766 13.2895326835
2116 1 0.0 30.022 12.362 12 11.015446192 1.766 15.4072239217
2117 1 3.532 28.256 10.596 12 11.015446192 1.766 12.2002037289
2118 1 5.298 30.022 10.596 12 11.015446192 1.766 11.2720370425
2119 1 5.298 28.256 12.362 12 11.015446192 1.766 10.039669315
2120 1 3.532 30.022 12.362 12 11.015446192 1.766 12.1833946713
2121 1 7.064 28.256 10.596 12 11.015446192 1.766 9.0988343059
2122 1 8.83 30.022 10.596 12 11.015446192 1.766 8.6003118683
2123 1 8.83 28.256 12.362 12 11.015446192 1.766 6.9472959597
2124 1 7.064 30.022 12.362 12 11.015446192 1.766 9.1555336813
2125 1 10.596 28.256 10.596 12 11.015446192 1.766 6.4556941444
2126 1 12.362 30.022 10.596 12 11.015446192 1.766 6.722369615
2127 1 12.362 28.256 12.362 12 11.015446192 1.766 4.4959684582
2128 1 10.596 30.022 12.362 12 11.015446192 1.766 6.6454899189
2129 1 14.128 28.256 10.596 12 11.015446192 1.766 4.9961855663
2130 1 15.894 30.022 10.596 12 11.015446192 1.766 5.856618675
2131 1 15.894 28.256 12.362 12 11.015446192 1.766 3.3593833443
2132 1 14.128 30.022 12.362 12 11.015446192 1.766 5.0816296066
2133 1 17.66 28.256 10.596 12 11.015446192 1.766 5.0182440518
2134 1 19.426 30.022 10.596 12 11.015446192 1.766 6.6774485832
2135 1 19.426 28.256 12.362 12 11.015446192 1.766 4.3214587996
2136 1 17.66 30.022 12.362 12 11.015446192 1.766 5.0128410515
2137 1 21.192 28.256 10.596 12 11.015446192 1.766 6.2505046398
2138 1 22.958 30.022 10.596 12 11.015446192 1.766 8.1262388424
2139 1 22.958 28.256 12.362 12 11.015446192 1.766 5.9491503453
2140 1 21.192 30.022 12.362 12 11.015446192 1.766 6.2085399798
2141 1 24.724 28.256 10.596 12 11.015446192 1.766 8.0435632914
2142 1 26.49 30.022 10.596 12 11.015446192 1.766 10.0939543706
2143 1 26.49 28.256 12.362 12 11.015446192 1.766 8.3410856657
2144 1 24.724 30.022 12.362 12 11.015446192 1.766 8.1057097188
2145 1 28.256 28.256 10.596 12 11.015446192 1.766 10.6004579837
2146 1 30.022 30.022 10.596 12 11.015446192 1.766 12.6353885902
2147 1 30.022 28.256 12.362 12 11.015446192 1.766 11.0931804458
2148 1 28.256 30.022 12.362 12 11.015446192 1.766 10.4472822435
2149 1 31.788 28.256 10.596 12 11.015446192 1.766 13.4258201725
2150 1 33.554 30.022 10.596 12 11.015446192 1.766 15.3820692526
2151 1 33.554 28.256 12.362 12 11.015446192 1.766 14.0896083009
2152 1 31.788 30.022 12.362 12 11.015446192 1.766 13.1326094823
2153 1 35.32 28.256 10.596 12 11.015446192 1.766 16.381758514
2154 1 37.086 30.022 10.596 12 11.015446192 1.766 18.3580094825
2155 1 37.086 28.256 12.362 12 11.015446192 1.766 17.2894626793
2156 1 35.32 30.022 12.362 12 11.015446192 1.766 16.1368790502
2157 1 38.852 28.256 10.596 12 11.015446192 1.766 18.4941518737
2158 1 40.618 30.022 10.596 12 11.015446192 1.766 17.5096166455
2159 1 40.618 28.256 12.362 12 11.015446192 1.766 16.3074904424
2160 1 38.852 30.022 12.362 12 11.015446192 1.766 18.5054677768
2161 1 0.0 31.788 10.596 12 11.015446192 1.766 16.4628374743
2162 1 1.766 33.554 10.596 12 11.015446192 1.766 15.7411786511
2163 1 1.766 31.788 12.362 12 11.015446192 1.766 14.4401744472
2164 1 0.0 33.554 12.362 12 11.015446192 1.766 16.765309742
2165 1 3.532 31.788 10.596 12 11.015446192 1.766 13.4708448502
2166 1 5.298 33.554 10.596 12 11.015446192 1.766 13.0651587284
2167 1 5.298 31.788 12.362 12 11.015446192 1.766 11.4643929337
2168 1 3.532 33.554 12.362 12 11.015446192 1.766 13.8389247302
2169 1 7.064 31.788 10.596 12 11.015446192 1.766 10.809557432
2170 1 8.83 33.554 10.596 12 11.015446192 1.766 10.8886219455
2171 1 8.83 31.788 12.362 12 11.015446192 1.766 8.9048313073
2172 1 7.064 33.554 12.362 12 11.015446192 1.766 11.2651910308
2173 1 10.596 31.788 10.596 12 11.015446192 1.766 8.7679807948
2174 1 12.362 33.554 10.596 12 11.015446192 1.766 9.3981400455
2175 1 12.362 31.788 12.362 12 11.015446192 1.766 7.1920853756
2176 1 10.596 33.554 12.362 12 11.015446192 1.766 9.340410496
2177 1 14.128 31.788 10.596 12 11.015446192 1.766 7.4212530822
2178 1 15.894 33.554 10.596 12 11.015446192 1.766 8.7303161184
2179 1 15.894 31.788 12.362 12 11.015446192 1.766 6.3817795668
2180 1 14.128 33.554 12.362 12 11.015446192 1.766 8.2286054809
2181 1 17.66 31.788 10.596 12 11.015446192 1.766 7.4342299678
2182 1 19.426 33.554 10.596 12 11.015446192 1.766 9.1748222462
2183 1 19.426 31.788 12.362 12 11.015446192 1.766 6.7640161003
2184 1 17.66 33.554 12.362 12 11.015446192 1.766 8.0467447059
2185 1 21.192 31.788 10.596 12 11.015446192 1.766 8.4319666395
2186 1 22.958 33.554 10.596 12 11.015446192 1.766 10.4133225312
2187 1 22.958 31.788 12.362 12 11.015446192 1.766 8.3029140008
2188 1 21.192 33.554 12.362 12 11.015446192 1.766 8.7666200177
2189 1 24.724 31.788 10.596 12 11.015446192 1.766 10.1600490402
2190 1 26.49 33.554 10.596 12 11.015446192 1.766 12.2800320755
2191 1 26.49 31.788 12.362 12 11.015446192 1.766 10.3010420612
2192 1 24.724 33.554 12.362 12 11.015446192 1.766 10.420007935
2193 1 28.256 31.788 10.596 12 11.015446192 1.766 12.2683673566
2194 1 30.022 33.554 10.596 12 11.015446192 1.766 14.4570085066
2195 1 30.022 31.788 12.362 12 11.015446192 1.766 12.6051110886
2196 1 28.256 33.554 12.362 12 11.015446192 1.766 12.5002839775
2197 1 31.788 31.788 10.596 12 11.015446192 1.766 14.7237171932
2198 1 33.554 33.554 10.596 12 11.015446192 1.766 16.879373556
2199 1 33.554 31.788 12.362 12 11.015446192 1.766 15.3084040717
2200 1 31.788 33.554 12.362 12 11.015446192 1.766 14.8583521618
2201 1 35.32 31.788 10.596 12 11.015446192 1.766 17.4564420745
2202 1 37.086 33.554 10.596 12 11.015446192 1.766 19.6296130708
2203 1 37.086 31.788 12.362 12 11.015446192 1.766 18.2963300389
2204 1 35.32 33.554 12.362 12 11.015446192 1.766 17.5699761705
2205 1 38.852 31.788 10.596 12 11.015446192 1.766 19.6350814215
2206 1 40.618 33.554 10.596 12 11.015446192 1.766 18.7035046463
2207 1 40.618 31.788 12.362 12 11.015446192 1.766 17.5949865205
2208 1 38.852 33.554 12.362 12 11.015446192 1.766 19.8539135654
2209 1 0.0 35.32 10.596 12 11.015446192 1.766 18.071545968
2210 1 1.766 37.086 10.596 12 11.015446192 1.766 17.7711981953
2211 1 1.766 35.32 12.362 12 11.015446192 1.766 16.2503659662
2212 1 0.0 37.086 12.362 12 11.015446192 1.766 18.684431337
2213 1 3.532 35.32 10.596 12 11.015446192 1.766 15.3954349386
2214 1 5.298 37.086 10.596 12 11.015446192 1.766 15.4508625187
2215 1 5.298 35.32 12.362 12 11.015446192 1.766 13.6743578025
2216 1 3.532 37.086 12.362 12 11.015446192 1.766 16.1104505728
2217 1 7.064 35.32 10.596 12 11.015446192 1.766 13.1304268103
2218 1 8.83 37.086 10.596 12 11.015446192 1.766 13.6598999939
2219 1 8.83 35.32 12.362 12 11.015446192 1.766 11.6125697665
2220 1 7.064 37.086 12.362 12 11.015446192 1.766 13.9619235398
2221 1 10.596 35.32 10.596 12 11.015446192 1.766 11.5129156447
2222 1 12.362 37.086 10.596 12 11.015446192 1.766 12.4576691856
2223 1 12.362 35.32 12.362 12 11.015446192 1.766 10.3168091077
2224 1 10.596 37.086 12.362 12 11.015446192 1.766 12.4518415643
2225 1 14.128 35.32 10.596 12 11.015446192 1.766 10.46271755
2226 1 15.894 37.086 10.596 12 11.015446192 1.766 11.9596411454
2227 1 15.894 35.32 12.362 12 11.015446192 1.766 9.7158674299
2228 1 14.128 37.086 12.362 12 11.015446192 1.766 11.5378458868
2229 1 17.66 35.32 10.596 12 11.015446192 1.766 10.4089263719
2230 1 19.426 37.086 10.596 12 11.015446192 1.766 12.131788552
2231 1 19.426 35.32 12.362 12 11.015446192 1.766 9.8094408709
2232 1 17.66 37.086 12.362 12 11.015446192 1.766 11.3168749161
2233 1 21.192 35.32 10.596 12 11.015446192 1.766 11.0259365953
2234 1 22.958 37.086 10.596 12 11.015446192 1.766 13.0914295069
2235 1 22.958 35.32 12.362 12 11.015446192 1.766 10.9272526027
2236 1 21.192 37.086 12.362 12 11.015446192 1.766 11.8237839514
2237 1 24.724 35.32 10.596 12 11.015446192 1.766 12.5418481614
2238 1 26.49 37.086 10.596 12 11.015446192 1.766 14.6831936794
2239 1 26.49 35.32 12.362 12 11.015446192 1.766 12.5712435473
2240 1 24.724 37.086 12.362 12 11.015446192 1.766 13.0910411836
2241 1 28.256 35.32 10.596 12 11.015446192 1.766 14.4338806566
2242 1 30.022 37.086 10.596 12 11.015446192 1.766 16.6260224588
2243 1 30.022 35.32 12.362 12 11.015446192 1.766 14.762633357
2244 1 28.256 37.086 12.362 12 11.015446192 1.766 14.8219996174
2245 1 31.788 35.32 10.596 12 11.015446192 1.766 16.660449405
2246 1 33.554 37.086 10.596 12 11.015446192 1.766 18.9242657933
2247 1 33.554 35.32 12.362 12 11.015446192 1.766 17.1754072478
2248 1 31.788 37.086 12.362 12 11.015446192 1.766 17.0477545749
2249 1 35.32 35.32 10.596 12 11.015446192 1.766 19.1182528243
2250 1 37.086 37.086 10.596 12 11.015446192 1.766 21.4144099723
2251 1 37.086 35.32 12.362 12 11.015446192 1.766 19.8880847253
2252 1 35.32 37.086 12.362 12 11.015446192 1.766 19.5063976336
2253 1 38.852 35.32 10.596 12 11.015446192 1.766 21.0021946092
2254 1 40.618 37.086 10.596 12 11.015446192 1.766 20.4414252444
2255 1 40.618 35.32 12.362 12 11.015446192 1.766 19.1324922374
2256 1 38.852 37.086 12.362 12 11.015446192 1.766 21.5272441153
2257 1 0.0 38.852 10.596 12 11.015446192 1.766 20.176386635
2258 1 1.766 40.618 10.596 12 11.015446192 1.766 20.2187119587
2259 1 1.766 38.852 12.362 12 11.015446192 1.766 18.5628714914
2260 1 0.0 40.618 12.362 12 11.015446192 1.766 21.0259078842
2261 1 3.532 38.852 10.596 12 11.015446192 1.766 17.8192373832
2262 1 5.298 40.618 10.596 12 11.015446192 1.766 18.2129069767
2263 1 5.298 38.852 12.362 12 11.015446192 1.766 16.3552396889
2264 1 3.532 40.618 12.362 12 11.015446192 1.766 18.7757142509
2265 1 7.064 38.852 10.596 12 11.015446192 1.766 15.9032673433
2266 1 8.83 40.618 10.596 12 11.015446192 1.766 16.7204574045
2267 1 8.83 38.852 12.362 12 11.015446192 1.766 14.6694299054
2268 1 7.064 40.618 12.362 12 11.015446192 1.766 16.9647182517
2269 1 10.596 38.852 10.596 12 11.015446192 1.766 14.5815591716
2270 1 12.362 40.618 10.596 12 11.015446192 1.766 15.6998800026
2271 1 12.362 38.852 12.362 12 11.015446192 1.766 13.5284521792
2272 1 10.596 40.618 12.362 12 11.015446192 1.766 15.6338722195
2273 1 14.128 38.852 10.596 12 11.015446192 1.766 13.740756098
2274 1 15.894 40.618 10.596 12 11.015446192 1.766 15.2916947814
2275 1 15.894 38.852 12.362 12 11.015446192 1.766 13.0792890485
2276 1 14.128 40.618 12.362 12 11.015446192 1.766 14.8765008619
2277 1 17.66 38.852 10.596 12 11.015446192 1.766 13.6046778511
2278 1 19.426 40.618 10.596 12 11.015446192 1.766 15.3322725604
2279 1 19.426 38.852 12.362 12 11.015446192 1.766 13.1014653606
2280 1 17.66 40.618 12.362 12 11.015446192 1.766 14.6959159722
2281 1 21.192 38.852 10.596 12 11.015446192 1.766 14.0354744202
2282 1 22.958 40.618 10.596 12 11.015446192 1.766 16.1022922259
2283 1 22.958 38.852 12.362 12 11.015446192 1.766 13.95562741
2284 1 21.192 40.618 12.362 12 11.015446192 1.766 15.0897367546
2285 1 24.724 38.852 10.596 12 11.015446192 1.766 15.2530341748
2286 1 26.49 40.618 10.596 12 11.015446192 1.766 17.4168082172
2287 1 26.49 38.852 12.362 12 11.015446192 1.766 15.2733720568
2288 1 24.724 40.618 12.362 12 11.015446192 1.766 16.097266285
2289 1 28.256 38.852 10.596 12 11.015446192 1.766 16.8455137092
2290 1 30.022 40.618 10.596 12 11.015446192 1.766 19.0824363345
2291 1 30.022 38.852 12.362 12 11.015446192 1.766 17.1408773819
2292 1 28.256 40.618 12.362 12 11.015446192 1.766 17.5330096195
2293 1 31.788 38.852 10.596 12 11.015446192 1.766 18.8889562214
2294 1 33.554 40.618 10.596 12 11.015446192 1.766 21.194637055
2295 1 33.554 38.852 12.362 12 11.015446192 1.766 19.3488527531
2296 1 31.788 40.618 12.362 12 11.015446192 1.766 19.4817853304
2297 1 35.32 38.852 10.596 12 11.015446192 1.766 21.2166220376
2298 1 37.086 40.618 10.596 12 11.015446192 1.766 23.5204917083
2299 1 37.086 38.852 12.362 12 11.015446192 1.766 21.8421641246
2300 1 35.32 40.618 12.362 12 11.015446192 1.766 21.6906877587
2301 1 38.852 38.852 10.596 12 11.015446192 1.766 22.8385197063
2302 1 40.618 40.618 10.596 12 11.015446192 1.766 22.601608217
2303 1 40.618 38.852 12.362 12 11.015446192 1.766 21.1333049648
2304 1 38.852 40.618 12.362 12 11.015446192 1.766 23.5923760373
2305 1 0.0 0.0 14.128 12 11.015446192 1.766 22.1261395428
2306 1 1.766 1.766 14.128 12 11.015446192 1.766 21.7212215658
2307 1 1.766 0.0 15.894 12 11.015446192 1.766 20.8958338271
2308 1 0.0 1.766 15.894 12 11.015446192 1.766 22.4473333368
2309 1 3.532 0.0 14.128 12 11.015446192 1.766 19.982365066
2310 1 5.298 1.766 14.128 12 11.015446192 1.766 20.1429608126
2311 1 5.298 0.0 15.894 12 11.015446192 1.766 18.8018794392
2312 1 3.532 1.766 15.894 12 11.015446192 1.766 20.6751424361
2313 1 7.064 0.0 14.128 12 11.015446192 1.766 18.1473797126
2314 1 8.83 1.766 14.128 12 11.015446192 1.766 18.8084110646
2315 1 8.83 0.0 15.894 12 11.015446192 1.766 17.1242551894
2316 1 7.064 1.766 15.894 12 11.015446192 1.766 19.2530531417
2317 1 10.596 0.0 14.128 12 11.015446192 1.766 16.7789769114
2318 1 12.362 1.766 14.128 12 11.015446192 1.766 17.8231574767
2319 1 12.362 0.0 15.894 12 11.015446192 1.766 16.059875751
2320 1 10.596 1.766 15.894 12 11.015446192 1.766 17.9894249237
2321 1 14.128 0.0 14.128 12 11.015446192 1.766 16.0837987906
2322 1 15.894 1.766 14.128 12 11.015446192 1.766 17.4980341958
2323 1 15.894 0.0 15.894 12 11.015446192 1.766 15.6893948127
2324 1 14.128 1.766 15.894 12 11.015446192 1.766 17.3107089215
2325 1 17.66 0.0 14.128 12 11.015446192 1.766 16.0195157701
2326 1 19.426 1.766 14.128 12 11.015446192 1.766 17.8210242492
2327 1 19.426 0.0 15.894 12 11.015446192 1.766 15.7276655831
2328 1 17.66 1.766 15.894 12 11.015446192 1.766 17.3393173349
2329 1 21.192 0.0 14.128 12 11.015446192 1.766 16.384128515
2330 1 22.958 1.766 14.128 12 11.015446192 1.766 18.4362914274
2331 1 22.958 0.0 15.894 12 11.015446192 1.766 16.414726097
2332 1 21.192 1.766 15.894 12 11.015446192 1.766 17.7128713933
2333 1 24.724 0.0 14.128 12 11.015446192 1.766 17.188521097
2334 1 26.49 1.766 14.128 12 11.015446192 1.766 19.3859047206
2335 1 26.49 0.0 15.894 12 11.015446192 1.766 17.4773815807
2336 1 24.724 1.766 15.894 12 11.015446192 1.766 18.5480564938
2337 1 28.256 0.0 14.128 12 11.015446192 1.766 18.5341993221
2338 1 30.022 1.766 14.128 12 11.015446192 1.766 20.8764082149
2339 1 30.022 0.0 15.894 12 11.015446192 1.766 18.9950408991
2340 1 28.256 1.766 15.894 12 11.015446192 1.766 19.7750968549
2341 1 31.788 0.0 14.128 12 11.015446192 1.766 20.3064437557
2342 1 33.554 1.766 14.128 12 11.015446192 1.766 22.686934623
2343 1 33.554 0.0 15.894 12 11.015446192 1.766 20.9419092144
2344 1 31.788 1.766 15.894 12 11.015446192 1.766 21.3756733542
2345 1 35.32 0.0 14.128 12 11.015446192 1.766 22.4182663198
2346 1 37.086 1.766 14.128 12 11.015446192 1.766 24.8475156379
2347 1 37.086 0.0 15.894 12 11.015446192 1.766 23.2651153517
2348 1 35.32 1.766 15.894 12 11.015446192 1.766 23.3911611112
2349 1 38.852 0.0 14.128 12 11.015446192 1.766 24.5593639935
2350 1 40.618 1.766 14.128 12 11.015446192 1.766 23.6792683479
2351 1 40.618 0.0 15.894 12 11.015446192 1.766 23.1846418673
2352 1 38.852 1.766 15.894 12 11.015446192 1.766 24.6019121435
2353 1 0.0 3.532 14.128 12 11.015446192 1.766 21.2342722486
2354 1 1.766 5.298 14.128 12 11.015446192 1.766 18.8030824699
2355 1 1.766 3.532 15.894 12 11.015446192 1.766 20.0076698886
2356 1 0.0 5.298 15.894 12 11.015446192 1.766 19.6373933604
2357 1 3.532 3.532 14.128 12 11.015446192 1.766 19.3512636211
2358 1 5.298 5.298 14.128 12 11.015446192 1.766 16.9980101831
2359 1 5.298 3.532 15.894 12 11.015446192 1.766 18.3388597709
2360 1 3.532 5.298 15.894 12 11.015446192 1.766 17.5842531491
2361 1 7.064 3.532 14.128 12 11.015446192 1.766 17.8321362227
2362 1 8.83 5.298 14.128 12 11.015446192 1.766 15.5501035032
2363 1 8.83 3.532 15.894 12 11.015446192 1.766 16.9512941222
2364 1 7.064 5.298 15.894 12 11.015446192 1.766 16.0269832507
2365 1 10.596 3.532 14.128 12 11.015446192 1.766 16.5924538561
2366 1 12.362 5.298 14.128 12 11.015446192 1.766 14.4566711857
2367 1 12.362 3.532 15.894 12 11.015446192 1.766 15.8451164051
2368 1 10.596 5.298 15.894 12 11.015446192 1.766 14.66116668
2369 1 14.128 3.532 14.128 12 11.015446192 1.766 15.8540455166
2370 1 15.894 5.298 14.128 12 11.015446192 1.766 14.0536640446
2371 1 15.894 3.532 15.894 12 11.015446192 1.766 15.4785003204
2372 1 14.128 5.298 15.894 12 11.015446192 1.766 13.8199508934
2373 1 17.66 3.532 14.128 12 11.015446192 1.766 15.8844958673
2374 1 19.426 5.298 14.128 12 11.015446192 1.766 14.3956607665
2375 1 19.426 3.532 15.894 12 11.015446192 1.766 15.8445985751
2376 1 17.66 5.298 15.894 12 11.015446192 1.766 13.8556241555
2377 1 21.192 3.532 14.128 12 11.015446192 1.766 16.4122897358
2378 1 22.958 5.298 14.128 12 11.015446192 1.766 15.0922306726
2379 1 22.958 3.532 15.894 12 11.015446192 1.766 16.4966752282
2380 1 21.192 5.298 15.894 12 11.015446192 1.766 14.4245385134
2381 1 24.724 3.532 14.128 12 11.015446192 1.766 17.2150000049
2382 1 26.49 5.298 14.128 12 11.015446192 1.766 16.2311413506
2383 1 26.49 3.532 15.894 12 11.015446192 1.766 17.5618932051
2384 1 24.724 5.298 15.894 12 11.015446192 1.766 15.2886452886
2385 1 28.256 3.532 14.128 12 11.015446192 1.766 18.5570708823
2386 1 30.022 5.298 14.128 12 11.015446192 1.766 17.9981562419
2387 1 30.022 3.532 15.894 12 11.015446192 1.766 19.2068678214
2388 1 28.256 5.298 15.894 12 11.015446192 1.766 16.7854499291
2389 1 31.788 3.532 14.128 12 11.015446192 1.766 20.4284992668
2390 1 33.554 5.298 14.128 12 11.015446192 1.766 20.2327369323
2391 1 33.554 3.532 15.894 12 11.015446192 1.766 21.27294149
2392 1 31.788 5.298 15.894 12 11.015446192 1.766 18.8104804567
2393 1 35.32 3.532 14.128 12 11.015446192 1.766 22.6939358798
2394 1 37.086 5.298 14.128 12 11.015446192 1.766 22.7352004481
2395 1 37.086 3.532 15.894 12 11.015446192 1.766 23.609750324
2396 1 35.32 5.298 15.894 12 11.015446192 1.766 21.1443599049
2397 1 38.852 3.532 14.128 12 11.015446192 1.766 23.5003324468
2398 1 40.618 5.298 14.128 12 11.015446192 1.766 21.0345476193
2399 1 40.618 3.532 15.894 12 11.015446192 1.766 22.1179370095
2400 1 38.852 5.298 15.894 12 11.015446192 1.766 22.0680430753
2401 1 0.0 7.064 14.128 12 11.015446192 1.766 18.5772383843
2402 1 1.766 8.83 14.128 12 11.015446192 1.766 16.1322782776
2403 1 1.766 7.064 15.894 12 11.015446192 1.766 17.1617692104
2404 1 0.0 8.83 15.894 12 11.015446192 1.766 17.0974182277
2405 1 3.532 7.064 14.128 12 11.015446192 1.766 16.3918433011
2406 1 5.298 8.83 14.128 12 11.015446192 1.766 14.0096003505
2407 1 5.298 7.064 15.894 12 11.015446192 1.766 15.1848637547
2408 1 3.532 8.83 15.894 12 11.015446192 1.766 14.6935513362
2409 1 7.064 7.064 14.128 12 11.015446192 1.766 14.6507434956
2410 1 8.83 8.83 14.128 12 11.015446192 1.766 12.3161827362
2411 1 8.83 7.064 15.894 12 11.015446192 1.766 13.7202009293
2412 1 7.064 8.83 15.894 12 11.015446192 1.766 12.8229965175
2413 1 10.596 7.064 14.128 12 11.015446192 1.766 13.3190761912
2414 1 12.362 8.83 14.128 12 11.015446192 1.766 11.15927199
2415 1 12.362 7.064 15.894 12 11.015446192 1.766 12.4448036233
2416 1 10.596 8.83 15.894 12 11.015446192 1.766 11.4184419098
2417 1 14.128 7.064 14.128 12 11.015446192 1.766 12.4478464779
2418 1 15.894 8.83 14.128 12 11.015446192 1.766 10.6265090666
2419 1 15.894 7.064 15.894 12 11.015446192 1.766 11.9745311182
2420 1 14.128 8.83 15.894 12 11.015446192 1.766 10.357195085
2421 1 17.66 7.064 14.128 12 11.015446192 1.766 12.4616281485
2422 1 19.426 8.83 14.128 12 11.015446192 1.766 10.9533951465
2423 1 19.426 7.064 15.894 12 11.015446192 1.766 12.3988254445
2424 1 17.66 8.83 15.894 12 11.015446192 1.766 10.4004270812
2425 1 21.192 7.064 14.128 12 11.015446192 1.766 13.0055700002
2426 1 22.958 8.83 14.128 12 11.015446192 1.766 11.7911420278
2427 1 22.958 7.064 15.894 12 11.015446192 1.766 13.0973386828
2428 1 21.192 8.83 15.894 12 11.015446192 1.766 11.011033894
2429 1 24.724 7.064 14.128 12 11.015446192 1.766 13.964599649
2430 1 26.49 8.83 14.128 12 11.015446192 1.766 13.2128267881
2431 1 26.49 7.064 15.894 12 11.015446192 1.766 14.3900629302
2432 1 24.724 8.83 15.894 12 11.015446192 1.766 12.0362584281
2433 1 28.256 7.064 14.128 12 11.015446192 1.766 15.5890569926
2434 1 30.022 8.83 14.128 12 11.015446192 1.766 15.3317471377
2435 1 30.022 7.064 15.894 12 11.015446192 1.766 16.3485891044
2436 1 28.256 8.83 15.894 12 11.015446192 1.766 13.8875704039
2437 1 31.788 7.064 14.128 12 11.015446192 1.766 17.7757531621
2438 1 33.554 8.83 14.128 12 11.015446192 1.766 17.8376504044
2439 1 33.554 7.064 15.894 12 11.015446192 1.766 18.6861654735
2440 1 31.788 8.83 15.894 12 11.015446192 1.766 16.2308624355
2441 1 35.32 7.064 14.128 12 11.015446192 1.766 20.2864254262
2442 1 37.086 8.83 14.128 12 11.015446192 1.766 20.4874613271
2443 1 37.086 7.064 15.894 12 11.015446192 1.766 21.2912169613
2444 1 35.32 8.83 15.894 12 11.015446192 1.766 18.8400618525
2445 1 38.852 7.064 14.128 12 11.015446192 1.766 21.1301938744
2446 1 40.618 8.83 14.128 12 11.015446192 1.766 18.6854672302
2447 1 40.618 7.064 15.894 12 11.015446192 1.766 19.5811798831
2448 1 38.852 8.83 15.894 12 11.015446192 1.766 19.8416989503
2449 1 0.0 10.596 14.128 12 11.015446192 1.766 16.2567924895
2450 1 1.766 12.362 14.128 12 11.015446192 1.766 13.8526150053
2451 1 1.766 10.596 15.894 12 11.015446192 1.766 14.6183391153
2452 1 0.0 12.362 15.894 12 11.015446192 1.766 14.965502
2453 1 3.532 10.596 14.128 12 11.015446192 1.766 13.7062774985
2454 1 5.298 12.362 14.128 12 11.015446192 1.766 11.3114414335
2455 1 5.298 10.596 15.894 12 11.015446192 1.766 12.2372220422
2456 1 3.532 12.362 15.894 12 11.015446192 1.766 12.1468099075
2457 1 7.064 10.596 14.128 12 11.015446192 1.766 11.6382870608
2458 1 8.83 12.362 14.128 12 11.015446192 1.766 9.2672292391
2459 1 8.83 10.596 15.894 12 11.015446192 1.766 10.4989158878
2460 1 7.064 12.362 15.894 12 11.015446192 1.766 9.801723305
2461 1 10.596 10.596 14.128 12 11.015446192 1.766 10.0478852509
2462 1 12.362 12.362 14.128 12 11.015446192 1.766 7.8825510702
2463 1 12.362 10.596 15.894 12 11.015446192 1.766 9.1392645759
2464 1 10.596 12.362 15.894 12 11.015446192 1.766 8.1878702287
2465 1 14.128 10.596 14.128 12 11.015446192 1.766 9.0662603635
2466 1 15.894 12.362 14.128 12 11.015446192 1.766 7.1993706243
2467 1 15.894 10.596 15.894 12 11.015446192 1.766 8.4938134448
2468 1 14.128 12.362 15.894 12 11.015446192 1.766 6.9642966208
2469 1 17.66 10.596 14.128 12 11.015446192 1.766 9.0469700203
2470 1 19.426 12.362 14.128 12 11.015446192 1.766 7.5677669463
2471 1 19.426 10.596 15.894 12 11.015446192 1.766 8.9536746284
2472 1 17.66 12.362 15.894 12 11.015446192 1.766 6.9547041202
2473 1 21.192 10.596 14.128 12 11.015446192 1.766 9.6717267743
2474 1 22.958 12.362 14.128 12 11.015446192 1.766 8.6674131872
2475 1 22.958 10.596 15.894 12 11.015446192 1.766 9.7541861147
2476 1 21.192 12.362 15.894 12 11.015446192 1.766 7.6042321001
2477 1 24.724 10.596 14.128 12 11.015446192 1.766 10.8910013105
2478 1 26.49 12.362 14.128 12 11.015446192 1.766 10.5193955111
2479 1 26.49 10.596 15.894 12 11.015446192 1.766 11.4314381126
2480 1 24.724 12.362 15.894 12 11.015446192 1.766 8.997244419
2481 1 28.256 10.596 14.128 12 11.015446192 1.766 12.9082362896
2482 1 30.022 12.362 14.128 12 11.015446192 1.766 12.973147271
2483 1 30.022 10.596 15.894 12 11.015446192 1.766 13.7787904411
2484 1 28.256 12.362 15.894 12 11.015446192 1.766 11.3299011639
2485 1 31.788 10.596 14.128 12 11.015446192 1.766 15.3952036338
2486 1 33.554 12.362 14.128 12 11.015446192 1.766 15.6468245602
2487 1 33.554 10.596 15.894 12 11.015446192 1.766 16.3892939505
2488 1 31.788 12.362 15.894 12 11.015446192 1.766 13.9391174925
2489 1 35.32 10.596 14.128 12 11.015446192 1.766 18.0566354347
2490 1 37.086 12.362 14.128 12 11.015446192 1.766 18.6082173546
2491 1 37.086 10.596 15.894 12 11.015446192 1.766 19.2573356542
2492 1 35.32 12.362 15.894 12 11.015446192 1.766 16.8372235541
2493 1 38.852 10.596 14.128 12 11.015446192 1.766 19.1220974067
2494 1 40.618 12.362 14.128 12 11.015446192 1.766 16.7568262409
2495 1 40.618 10.596 15.894 12 11.015446192 1.766 17.3951752412
2496 1 38.852 12.362 15.894 12 11.015446192 1.766 18.0371161024
2497 1 0.0 14.128 14.128 12 11.015446192 1.766 14.4361652147
2498 1 1.766 15.894 14.128 12 11.015446192 1.766 12.1856280325
2499 1 1.766 14.128 15.894 12 11.015446192 1.766 12.5624600517
2500 1 0.0 15.894 15.894 12 11.015446192 1.766 13.437292814
2501 1 3.532 14.128 14.128 12 11.015446192 1.766 11.4883248093
2502 1 5.298 15.894 14.128 12 11.015446192 1.766 9.1918896927
2503 1 5.298 14.128 15.894 12 11.015446192 1.766 9.6886101876
2504 1 3.532 15.894 15.894 12 11.015446192 1.766 10.2048801555
2505 1 7.064 14.128 14.128 12 11.015446192 1.766 8.9665064741
2506 1 8.83 15.894 14.128 12 11.015446192 1.766 6.6557448383
2507 1 8.83 14.128 15.894 12 11.015446192 1.766 7.4070809629
2508 1 7.064 15.894 15.894 12 11.015446192 1.766 7.2572975553
2509 1 10.596 14.128 14.128 12 11.015446192 1.766 6.9102055622
2510 1 12.362 15.894 14.128 12 11.015446192 1.766 4.6847136
2511 1 12.362 14.128 15.894 12 11.015446192 1.766 5.8863911241
2512 1 10.596 15.894 15.894 12 11.015446192 1.766 5.0384483784
2513 1 14.128 14.128 14.128 12 11.015446192 1.766 5.7388250198
2514 1 15.894 15.894 14.128 12 11.015446192 1.766 3.7722937862
2515 1 15.894 14.128 15.894 12 11.015446192 1.766 5.0596123377
2516 1 14.128 15.894 15.894 12 11.015446192 1.766 3.6772192133
2517 1 17.66 14.128 14.128 12 11.015446192 1.766 5.6374202132
2518 1 19.426 15.894 14.128 12 11.015446192 1.766 4.4176210647
2519 1 19.426 14.128 15.894 12 11.015446192 1.766 5.5346980911
2520 1 17.66 15.894 15.894 12 11.015446192 1.766 3.5116938839
2521 1 21.192 14.128 14.128 12 11.015446192 1.766 6.5389775593
2522 1 22.958 15.894 14.128 12 11.015446192 1.766 6.0127356125
2523 1 22.958 14.128 15.894 12 11.015446192 1.766 6.6104508884
2524 1 21.192 15.894 15.894 12 11.015446192 1.766 4.3497963491
2525 1 24.724 14.128 14.128 12 11.015446192 1.766 8.1955978264
2526 1 26.49 15.894 14.128 12 11.015446192 1.766 8.2624278469
2527 1 26.49 14.128 15.894 12 11.015446192 1.766 8.8811261421
2528 1 24.724 15.894 15.894 12 11.015446192 1.766 6.4441645362
2529 1 28.256 14.128 14.128 12 11.015446192 1.766 10.5855730335
2530 1 30.022 15.894 14.128 12 11.015446192 1.766 10.9457874092
2531 1 30.022 14.128 15.894 12 11.015446192 1.766 11.4899108534
2532 1 28.256 15.894 15.894 12 11.015446192 1.766 9.0546481932
2533 1 31.788 14.128 14.128 12 11.015446192 1.766 13.2694829746
2534 1 33.554 15.894 14.128 12 11.015446192 1.766 14.0108118361
2535 1 33.554 14.128 15.894 12 11.015446192 1.766 14.4398976661
2536 1 31.788 15.894 15.894 12 11.015446192 1.766 12.08322044
2537 1 35.32 14.128 14.128 12 11.015446192 1.766 16.2802576365
2538 1 37.086 15.894 14.128 12 11.015446192 1.766 17.2553030285
2539 1 37.086 14.128 15.894 12 11.015446192 1.766 17.6054900217
2540 1 35.32 15.894 15.894 12 11.015446192 1.766 15.3287907709
2541 1 38.852 14.128 14.128 12 11.015446192 1.766 17.6004026456
2542 1 40.618 15.894 14.128 12 11.015446192 1.766 15.4073298701
2543 1 40.618 14.128 15.894 12 11.015446192 1.766 15.7070584685
2544 1 38.852 15.894 15.894 12 11.015446192 1.766 16.7908351595
2545 1 0.0 17.66 14.128 12 11.015446192 1.766 13.2985539608
2546 1 1.766 19.426 14.128 12 11.015446192 1.766 11.2627305425
2547 1 1.766 17.66 15.894 12 11.015446192 1.766 11.2643248625
2548 1 0.0 19.426 15.894 12 11.015446192 1.766 12.7305348869
2549 1 3.532 17.66 14.128 12 11.015446192 1.766 9.9999854209
2550 1 5.298 19.426 14.128 12 11.015446192 1.766 7.8874300263
2551 1 5.298 17.66 15.894 12 11.015446192 1.766 7.9333964622
2552 1 3.532 19.426 15.894 12 11.015446192 1.766 9.2463592173
2553 1 7.064 17.66 14.128 12 11.015446192 1.766 6.9271334335
2554 1 8.83 19.426 14.128 12 11.015446192 1.766 4.7459512814
2555 1 8.83 17.66 15.894 12 11.015446192 1.766 4.8931168232
2556 1 7.064 19.426 15.894 12 11.015446192 1.766 5.810430041
2557 1 10.596 17.66 14.128 12 11.015446192 1.766 4.3909028156
2558 1 12.362 19.426 14.128 12 11.015446192 1.766 2.4446825389
2559 1 12.362 17.66 15.894 12 11.015446192 1.766 2.6754558615
2560 1 10.596 19.426 15.894 12 11.015446192 1.766 2.6199873974
2561 1 14.128 17.66 14.128 12 11.015446192 1.766 2.5697501218
2562 1 15.894 19.426 14.128 11 11.9334000413 2.4975011512 0.8067046574
2563 1 15.894 17.66 15.894 12 11.015446192 1.766 1.6341371833
2564 1 14.128 19.426 15.894 10 13.3103308153 2.4975011512 0.4004982935
2565 1 17.66 17.66 14.128 12 11.015446192 1.766 2.4878505918
2566 1 19.426 19.426 14.128 12 11.015446192 1.766 2.0824469356
2567 1 19.426 17.66 15.894 12 11.015446192 1.766 2.218150943
2568 1 17.66 19.426 15.894 10 13.76930774 2.9285796899 0.1431822586
2569 1 21.192 17.66 14.128 12 11.015446192 1.766 4.0130608277
2570 1 22.958 19.426 14.128 12 11.015446192 1.766 4.0069990085
2571 1 22.958 17.66 15.894 12 11.015446192 1.766 4.078336245
2572 1 21.192 19.426 15.894 12 11.015446192 1.766 1.9243805836
2573 1 24.724 17.66 14.128 12 11.015446192 1.766 6.0767321782
2574 1 26.49 19.426 14.128 12 11.015446192 1.766 6.6856189839
2575 1 26.49 17.66 15.894 12 11.015446192 1.766 6.6656037609
2576 1 24.724 19.426 15.894 12 11.015446192 1.766 4.3987403984
2577 1 28.256 17.66 14.128 12 11.015446192 1.766 8.7187366977
2578 1 30.022 19.426 14.128 12 11.015446192 1.766 9.80988452
2579 1 30.022 17.66 15.894 12 11.015446192 1.766 9.7965714307
2580 1 28.256 19.426 15.894 12 11.015446192 1.766 7.6430642671
2581 1 31.788 17.66 14.128 12 11.015446192 1.766 11.8335933639
2582 1 33.554 19.426 14.128 12 11.015446192 1.766 13.1409075364
2583 1 33.554 17.66 15.894 12 11.015446192 1.766 13.1326081985
2584 1 31.788 19.426 15.894 12 11.015446192 1.766 11.0649895476
2585 1 35.32 17.66 14.128 12 11.015446192 1.766 15.1327969061
2586 1 37.086 19.426 14.128 12 11.015446192 1.766 16.5542208602
2587 1 37.086 17.66 15.894 12 11.015446192 1.766 16.5501671409
2588 1 35.32 19.426 15.894 12 11.015446192 1.766 14.5373248755
2589 1 38.852 17.66 14.128 12 11.015446192 1.766 16.6895375817
2590 1 40.618 19.426 14.128 12 11.015446192 1.766 14.7117875912
2591 1 40.618 17.66 15.894 12 11.015446192 1.766 14.6894961721
2592 1 38.852 19.426 15.894 12 11.015446192 1.766 16.2312164722
2593 1 0.0 21.192 14.128 12 11.015446192 1.766 12.8835843218
2594 1 1.766 22.958 14.128 12 11.015446192 1.766 11.2709122364
2595 1 1.766 21.192 15.894 12 11.015446192 1.766 10.8715042964
2596 1 0.0 22.958 15.894 12 11.015446192 1.766 12.5929099154
2597 1 3.532 21.192 14.128 12 11.015446192 1.766 9.4273924569
2598 1 5.298 22.958 14.128 12 11.015446192 1.766 7.9422424107
2599 1 5.298 21.192 15.894 12 11.015446192 1.766 7.3721414698
2600 1 3.532 22.958 15.894 12 11.015446192 1.766 9.1335666172
2601 1 7.064 21.192 14.128 12 11.015446192 1.766 6.0591423224
2602 1 8.83 22.958 14.128 12 11.015446192 1.766 4.7946364181
2603 1 8.83 21.192 15.894 12 11.015446192 1.766 3.8809751062
2604 1 7.064 22.958 15.894 12 11.015446192 1.766 5.7360153575
2605 1 10.596 21.192 14.128 12 11.015446192 1.766 3.0772052654
2606 1 12.362 22.958 14.128 12 11.015446192 1.766 1.8498489452
2607 1 12.362 21.192 15.894 11 11.9334000413 2.4975011512 0.5798202496
2608 1 10.596 22.958 15.894 12 11.015446192 1.766 2.5478782614
2609 1 14.128 21.192 14.128 11 11.9334000413 2.4975011512 0.751485413
2610 1 15.894 22.958 14.128 9 16.2171846716 3.1700670165 0.210970998
2611 1 38.852 40.618 40.618 12 11.015446192 1.766 28.9281826842
2612 1 14.128 22.958 15.894 8 20.5137186608 3.4973377285 0.5326944967
2613 1 17.66 21.192 14.128 10 13.76930774 2.9285796899 0.2759570228
2614 1 19.426 22.958 14.128 11 11.9334000413 2.4975011512 0.5254738029
2615 1 19.426 21.192 15.894 9 19.4747308965 3.6567289139 0.1522152051
2616 1 40.618 38.852 40.618 12 11.015446192 1.766 26.8959155634
2617 1 21.192 21.192 14.128 12 11.015446192 1.766 2.1062153247
2618 1 22.958 22.958 14.128 12 11.015446192 1.766 3.2862583705
2619 1 22.958 21.192 15.894 12 11.015446192 1.766 2.4587250541
2620 1 21.192 22.958 15.894 11 11.9334000413 2.4975011512 0.792077971
2621 1 24.724 21.192 14.128 12 11.015446192 1.766 4.8497589343
2622 1 26.49 22.958 14.128 12 11.015446192 1.766 6.0790506619
2623 1 26.49 21.192 15.894 12 11.015446192 1.766 5.6902189701
2624 1 24.724 22.958 15.894 12 11.015446192 1.766 3.7976100107
2625 1 28.256 21.192 14.128 12 11.015446192 1.766 7.8840753109
2626 1 30.022 22.958 14.128 12 11.015446192 1.766 9.3759752517
2627 1 30.022 21.192 15.894 12 11.015446192 1.766 9.1440297203
2628 1 28.256 22.958 15.894 12 11.015446192 1.766 7.2732897295
2629 1 31.788 21.192 14.128 12 11.015446192 1.766 11.2107300707
2630 1 33.554 22.958 14.128 12 11.015446192 1.766 12.7989458507
2631 1 33.554 21.192 15.894 12 11.015446192 1.766 12.6212112828
2632 1 31.788 22.958 15.894 12 11.015446192 1.766 10.7755732037
2633 1 35.32 21.192 14.128 12 11.015446192 1.766 14.6325477874
2634 1 37.086 22.958 14.128 12 11.015446192 1.766 16.2685944648
2635 1 37.086 21.192 15.894 12 11.015446192 1.766 16.0985500167
2636 1 35.32 22.958 15.894 12 11.015446192 1.766 14.2780334233
2637 1 38.852 21.192 14.128 12 11.015446192 1.766 16.3651029846
2638 1 40.618 22.958 14.128 12 11.015446192 1.766 14.6813604449
2639 1 40.618 21.192 15.894 12 11.015446192 1.766 14.3730769554
2640 1 38.852 22.958 15.894 12 11.015446192 1.766 16.0831305615
2641 1 0.0 24.724 14.128 12 11.015446192 1.766 13.1893921538
2642 1 1.766 26.49 14.128 12 11.015446192 1.766 12.00967688
2643 1 1.766 24.724 15.894 12 11.015446192 1.766 11.0732173063
2644 1 0.0 26.49 15.894 12 11.015446192 1.766 13.1990641261
2645 1 3.532 24.724 14.128 12 11.015446192 1.766 9.9370719704
2646 1 5.298 26.49 14.128 12 11.015446192 1.766 8.9732268759
2647 1 5.298 24.724 15.894 12 11.015446192 1.766 7.7430940194
2648 1 3.532 26.49 15.894 12 11.015446192 1.766 9.9391994776
2649 1 7.064 24.724 14.128 12 11.015446192 1.766 6.8238501664
2650 1 8.83 26.49 14.128 12 11.015446192 1.766 5.8082811659
2651 1 8.83 24.724 15.894 12 11.015446192 1.766 4.6569210684
2652 1 7.064 26.49 15.894 12 11.015446192 1.766 6.8480958072
2653 1 10.596 24.724 14.128 12 11.015446192 1.766 3.7111420395
2654 1 12.362 26.49 14.128 12 11.015446192 1.766 2.6225792981
2655 1 12.362 24.724 15.894 12 11.015446192 1.766 1.5947765006
2656 1 10.596 26.49 15.894 12 11.015446192 1.766 3.7061221931
2657 1 14.128 24.724 14.128 11 11.9334000413 2.4975011512 0.5364373171
2658 1 15.894 26.49 14.128 11 11.9334000413 2.4975011512 0.8636866346
2659 1 40.618 40.618 38.852 12 11.015446192 1.766 28.4908227324
2660 1 14.128 26.49 15.894 11 11.9334000413 2.4975011512 0.8070349391
2661 1 17.66 24.724 14.128 10 13.76930774 2.9285796899 0.2205775433
2662 1 19.426 26.49 14.128 12 11.015446192 1.766 2.0802206397
2663 1 19.426 24.724 15.894 9 19.4458080649 3.6499443189 0.1344375125
2664 1 17.66 26.49 15.894 10 13.76930774 2.9285796899 0.17084135
2665 1 21.192 24.724 14.128 12 11.015446192 1.766 2.1175741467
2666 1 22.958 26.49 14.128 12 11.015446192 1.766 4.0516167243
2667 1 22.958 24.724 15.894 12 11.015446192 1.766 2.5497674984
2668 1 21.192 26.49 15.894 12 11.015446192 1.766 2.0314552604
2669 1 24.724 24.724 14.128 12 11.015446192 1.766 4.8825662
2670 1 26.49 26.49 14.128 12 11.015446192 1.766 6.8213944847
2671 1 26.49 24.724 15.894 12 11.015446192 1.766 5.6895019138
2672 1 24.724 26.49 15.894 12 11.015446192 1.766 4.496306444
2673 1 28.256 24.724 14.128 12 11.015446192 1.766 7.9027972361
2674 1 30.022 26.49 14.128 12 11.015446192 1.766 9.8574666578
2675 1 30.022 24.724 15.894 12 11.015446192 1.766 9.1155622998
2676 1 28.256 26.49 15.894 12 11.015446192 1.766 7.6321759221
2677 1 31.788 24.724 14.128 12 11.015446192 1.766 11.2168178323
2678 1 33.554 26.49 14.128 12 11.015446192 1.766 13.1421903968
2679 1 33.554 24.724 15.894 12 11.015446192 1.766 12.5995643858
2680 1 31.788 26.49 15.894 12 11.015446192 1.766 11.0106082926
2681 1 35.32 24.724 14.128 12 11.015446192 1.766 14.6325767747
2682 1 37.086 26.49 14.128 12 11.015446192 1.766 16.5286778237
2683 1 37.086 24.724 15.894 12 11.015446192 1.766 16.1006435251
2684 1 35.32 26.49 15.894 12 11.015446192 1.766 14.4626044903
2685 1 38.852 24.724 14.128 12 11.015446192 1.766 16.5543279509
2686 1 40.618 26.49 14.128 12 11.015446192 1.766 15.2263923265
2687 1 40.618 24.724 15.894 12 11.015446192 1.766 14.4992008757
2688 1 38.852 26.49 15.894 12 11.015446192 1.766 16.5634324923
2689 1 0.0 28.256 14.128 12 11.015446192 1.766 14.2128656048
2690 1 1.766 30.022 14.128 12 11.015446192 1.766 13.3547838593
2691 1 1.766 28.256 15.894 12 11.015446192 1.766 12.1610552786
2692 1 0.0 30.022 15.894 12 11.015446192 1.766 14.3978442132
2693 1 3.532 28.256 14.128 12 11.015446192 1.766 11.1571201497
2694 1 5.298 30.022 14.128 12 11.015446192 1.766 10.2061460681
2695 1 5.298 28.256 15.894 12 11.015446192 1.766 9.0784763435
2696 1 3.532 30.022 15.894 12 11.015446192 1.766 11.357938515
2697 1 7.064 28.256 14.128 12 11.015446192 1.766 7.9392949547
2698 1 8.83 30.022 14.128 12 11.015446192 1.766 7.2460318348
2699 1 8.83 28.256 15.894 12 11.015446192 1.766 5.9842612455
2700 1 7.064 30.022 15.894 12 11.015446192 1.766 8.383361803
2701 1 10.596 28.256 14.128 12 11.015446192 1.766 4.8589098573
2702 1 12.362 30.022 14.128 12 11.015446192 1.766 5.0317731093
2703 1 12.362 28.256 15.894 12 11.015446192 1.766 3.2890468003
2704 1 10.596 30.022 15.894 12 11.015446192 1.766 5.7711214228
2705 1 14.128 28.256 14.128 12 11.015446192 1.766 2.8758339512
2706 1 15.894 30.022 14.128 12 11.015446192 1.766 4.1408357792
2707 1 15.894 28.256 15.894 12 11.015446192 1.766 1.929225747
2708 1 14.128 30.022 15.894 12 11.015446192 1.766 3.9197351764
2709 1 17.66 28.256 14.128 12 11.015446192 1.766 2.5914691957
2710 1 19.426 30.022 14.128 12 11.015446192 1.766 4.4437370011
2711 1 19.426 28.256 15.894 12 11.015446192 1.766 2.2758762024
2712 1 17.66 30.022 15.894 12 11.015446192 1.766 3.5721567591
2713 1 21.192 28.256 14.128 12 11.015446192 1.766 4.0842382442
2714 1 22.958 30.022 14.128 12 11.015446192 1.766 6.1991476088
2715 1 22.958 28.256 15.894 12 11.015446192 1.766 4.2281317867
2716 1 21.192 30.022 15.894 12 11.015446192 1.766 4.4396878377
2717 1 24.724 28.256 14.128 12 11.015446192 1.766 6.1987730484
2718 1 26.49 30.022 14.128 12 11.015446192 1.766 8.3838816468
2719 1 26.49 28.256 15.894 12 11.015446192 1.766 6.6838239839
2720 1 24.724 30.022 15.894 12 11.015446192 1.766 6.4833133322
2721 1 28.256 28.256 14.128 12 11.015446192 1.766 8.8107074475
2722 1 30.022 30.022 14.128 12 11.015446192 1.766 10.9908067554
2723 1 30.022 28.256 15.894 12 11.015446192 1.766 9.7561193471
2724 1 28.256 30.022 15.894 12 11.015446192 1.766 9.0222816913
2725 1 31.788 28.256 14.128 12 11.015446192 1.766 11.8579910353
2726 1 33.554 30.022 14.128 12 11.015446192 1.766 14.0091485396
2727 1 33.554 28.256 15.894 12 11.015446192 1.766 13.0629351366
2728 1 31.788 30.022 15.894 12 11.015446192 1.766 12.0245018244
2729 1 35.32 28.256 14.128 12 11.015446192 1.766 15.1177175877
2730 1 37.086 30.022 14.128 12 11.015446192 1.766 17.2239571664
2731 1 37.086 28.256 15.894 12 11.015446192 1.766 16.4635576973
2732 1 35.32 30.022 15.894 12 11.015446192 1.766 15.2486746241
2733 1 38.852 28.256 14.128 12 11.015446192 1.766 17.3839295091
2734 1 40.618 30.022 14.128 12 11.015446192 1.766 16.4432384281
2735 1 40.618 28.256 15.894 12 11.015446192 1.766 15.3821777996
2736 1 38.852 30.022 15.894 12 11.015446192 1.766 17.5793169953
2737 1 0.0 31.788 14.128 12 11.015446192 1.766 15.6169015138
2738 1 1.766 33.554 14.128 12 11.015446192 1.766 14.9536429842
2739 1 1.766 31.788 15.894 12 11.015446192 1.766 13.7133245042
2740 1 0.0 33.554 15.894 12 11.015446192 1.766 16.1115493663
2741 1 3.532 31.788 14.128 12 11.015446192 1.766 12.5575380656
2742 1 5.298 33.554 14.128 12 11.015446192 1.766 12.1540937156
2743 1 5.298 31.788 15.894 12 11.015446192 1.766 10.8232831944
2744 1 3.532 33.554 15.894 12 11.015446192 1.766 13.2815471468
2745 1 7.064 31.788 14.128 12 11.015446192 1.766 9.6889614355
2746 1 8.83 33.554 14.128 12 11.015446192 1.766 9.7767944298
2747 1 8.83 31.788 15.894 12 11.015446192 1.766 8.2557573975
2748 1 7.064 33.554 15.894 12 11.015446192 1.766 10.7425578637
2749 1 10.596 31.788 14.128 12 11.015446192 1.766 7.3630641022
2750 1 12.362 33.554 14.128 12 11.015446192 1.766 8.1851616911
2751 1 12.362 31.788 15.894 12 11.015446192 1.766 6.186848447
2752 1 10.596 33.554 15.894 12 11.015446192 1.766 8.5822762936
2753 1 14.128 31.788 14.128 12 11.015446192 1.766 6.0581433486
2754 1 15.894 33.554 14.128 12 11.015446192 1.766 7.5042573978
2755 1 15.894 31.788 15.894 12 11.015446192 1.766 5.2991767138
2756 1 14.128 33.554 15.894 12 11.015446192 1.766 7.1677817242
2757 1 17.66 31.788 14.128 12 11.015446192 1.766 5.7341773779
2758 1 19.426 33.554 14.128 12 11.015446192 1.766 7.599012497
2759 1 19.426 31.788 15.894 12 11.015446192 1.766 5.5255810666
2760 1 17.66 33.554 15.894 12 11.015446192 1.766 7.0174030908
2761 1 21.192 31.788 14.128 12 11.015446192 1.766 6.6014924899
2762 1 22.958 33.554 14.128 12 11.015446192 1.766 8.7653046617
2763 1 22.958 31.788 15.894 12 11.015446192 1.766 6.6468547738
2764 1 21.192 33.554 15.894 12 11.015446192 1.766 7.5866313206
2765 1 24.724 31.788 14.128 12 11.015446192 1.766 8.3502136814
2766 1 26.49 33.554 14.128 12 11.015446192 1.766 10.6142965006
2767 1 26.49 31.788 15.894 12 11.015446192 1.766 8.7684518841
2768 1 24.724 33.554 15.894 12 11.015446192 1.766 8.9861562153
2769 1 28.256 31.788 14.128 12 11.015446192 1.766 10.6477937167
2770 1 30.022 33.554 14.128 12 11.015446192 1.766 12.9545784823
2771 1 30.022 31.788 15.894 12 11.015446192 1.766 11.3725493704
2772 1 28.256 33.554 15.894 12 11.015446192 1.766 11.0951137624
2773 1 31.788 31.788 14.128 12 11.015446192 1.766 13.2831519055
2774 1 33.554 33.554 14.128 12 11.015446192 1.766 15.6295677953
2775 1 33.554 31.788 15.894 12 11.015446192 1.766 14.3524967108
2776 1 31.788 33.554 15.894 12 11.015446192 1.766 13.7251050337
2777 1 35.32 31.788 14.128 12 11.015446192 1.766 16.2596297071
2778 1 37.086 33.554 14.128 12 11.015446192 1.766 18.5733652746
2779 1 37.086 31.788 15.894 12 11.015446192 1.766 17.5177522297
2780 1 35.32 33.554 15.894 12 11.015446192 1.766 16.6875563109
2781 1 38.852 31.788 14.128 12 11.015446192 1.766 18.6771300997
2782 1 40.618 33.554 14.128 12 11.015446192 1.766 17.9392950078
2783 1 40.618 31.788 15.894 12 11.015446192 1.766 16.69952437
2784 1 38.852 33.554 15.894 12 11.015446192 1.766 19.0505993181
2785 1 0.0 35.32 14.128 12 11.015446192 1.766 17.375973246
2786 1 1.766 37.086 14.128 12 11.015446192 1.766 17.1089567655
2787 1 1.766 35.32 15.894 12 11.015446192 1.766 15.7495670303
2788 1 0.0 37.086 15.894 12 11.015446192 1.766 18.2233794942
2789 1 3.532 35.32 14.128 12 11.015446192 1.766 14.629459272
2790 1 5.298 37.086 14.128 12 11.015446192 1.766 14.68852525
2791 1 5.298 35.32 15.894 12 11.015446192 1.766 13.2303023482
2792 1 3.532 37.086 15.894 12 11.015446192 1.766 15.7185426334
2793 1 7.064 35.32 14.128 12 11.015446192 1.766 12.2242271605
2794 1 8.83 37.086 14.128 12 11.015446192 1.766 12.7482963564
2795 1 8.83 35.32 15.894 12 11.015446192 1.766 11.0226818541
2796 1 7.064 37.086 15.894 12 11.015446192 1.766 13.4836656861
2797 1 10.596 35.32 14.128 12 11.015446192 1.766 10.4175394336
2798 1 12.362 37.086 14.128 12 11.015446192 1.766 11.3726388972
2799 1 12.362 35.32 15.894 12 11.015446192 1.766 9.3195365746
2800 1 10.596 37.086 15.894 12 11.015446192 1.766 11.6105750541
2801 1 14.128 35.32 14.128 12 11.015446192 1.766 9.3391429426
2802 1 15.894 37.086 14.128 12 11.015446192 1.766 10.8738121631
2803 1 15.894 35.32 15.894 12 11.015446192 1.766 8.7375993053
2804 1 14.128 37.086 15.894 12 11.015446192 1.766 10.5811138559
2805 1 17.66 35.32 14.128 12 11.015446192 1.766 9.1291333343
2806 1 19.426 37.086 14.128 12 11.015446192 1.766 10.9785291317
2807 1 19.426 35.32 15.894 12 11.015446192 1.766 8.8986345927
2808 1 17.66 37.086 15.894 12 11.015446192 1.766 10.4626494224
2809 1 21.192 35.32 14.128 12 11.015446192 1.766 9.6945423883
2810 1 22.958 37.086 14.128 12 11.015446192 1.766 11.81638483
2811 1 22.958 35.32 15.894 12 11.015446192 1.766 9.7195864132
2812 1 21.192 37.086 15.894 12 11.015446192 1.766 10.9490043933
2813 1 24.724 35.32 14.128 12 11.015446192 1.766 10.9551700208
2814 1 26.49 37.086 14.128 12 11.015446192 1.766 13.2451404869
2815 1 26.49 35.32 15.894 12 11.015446192 1.766 11.3415883989
2816 1 24.724 37.086 15.894 12 11.015446192 1.766 11.9854430197
2817 1 28.256 35.32 14.128 12 11.015446192 1.766 12.9331337963
2818 1 30.022 37.086 14.128 12 11.015446192 1.766 15.263185069
2819 1 30.022 35.32 15.894 12 11.015446192 1.766 13.4827411896
2820 1 28.256 37.086 15.894 12 11.015446192 1.766 13.6990925169
2821 1 31.788 35.32 14.128 12 11.015446192 1.766 15.2749595492
2822 1 33.554 37.086 14.128 12 11.015446192 1.766 17.6272427173
2823 1 33.554 35.32 15.894 12 11.015446192 1.766 16.110130129
2824 1 31.788 37.086 15.894 12 11.015446192 1.766 15.9041533749
2825 1 35.32 35.32 14.128 12 11.015446192 1.766 17.9798788545
2826 1 37.086 37.086 14.128 12 11.015446192 1.766 20.3327744443
2827 1 37.086 35.32 15.894 12 11.015446192 1.766 19.032559564
2828 1 35.32 37.086 15.894 12 11.015446192 1.766 18.5248239225
2829 1 38.852 35.32 14.128 12 11.015446192 1.766 20.3003688758
2830 1 40.618 37.086 14.128 12 11.015446192 1.766 19.8149132099
2831 1 40.618 35.32 15.894 12 11.015446192 1.766 18.5359928084
2832 1 38.852 37.086 15.894 12 11.015446192 1.766 20.9775663074
2833 1 0.0 38.852 14.128 12 11.015446192 1.766 19.5909432171
2834 1 1.766 40.618 14.128 12 11.015446192 1.766 19.6422996291
2835 1 1.766 38.852 15.894 12 11.015446192 1.766 18.2070754469
2836 1 0.0 40.618 15.894 12 11.015446192 1.766 20.6957952653
2837 1 3.532 38.852 14.128 12 11.015446192 1.766 17.1624253056
2838 1 5.298 40.618 14.128 12 11.015446192 1.766 17.5471921652
2839 1 5.298 38.852 15.894 12 11.015446192 1.766 15.9557087469
2840 1 3.532 40.618 15.894 12 11.015446192 1.766 18.434324445
2841 1 7.064 38.852 14.128 12 11.015446192 1.766 15.132041116
2842 1 8.83 40.618 14.128 12 11.015446192 1.766 15.8174064159
2843 1 8.83 38.852 15.894 12 11.015446192 1.766 13.9725505262
2844 1 7.064 40.618 15.894 12 11.015446192 1.766 16.3747948789
2845 1 10.596 38.852 14.128 12 11.015446192 1.766 13.5471812052
2846 1 12.362 40.618 14.128 12 11.015446192 1.766 14.6584391758
2847 1 12.362 38.852 15.894 12 11.015446192 1.766 12.6456182748
2848 1 10.596 40.618 15.894 12 11.015446192 1.766 14.8437992668
2849 1 14.128 38.852 14.128 12 11.015446192 1.766 12.6759865869
2850 1 15.894 40.618 14.128 12 11.015446192 1.766 14.2946031724
2851 1 15.894 38.852 15.894 12 11.015446192 1.766 12.2040935357
2852 1 14.128 40.618 15.894 12 11.015446192 1.766 14.0532165008
2853 1 17.66 38.852 14.128 12 11.015446192 1.766 12.5742694384
2854 1 19.426 40.618 14.128 12 11.015446192 1.766 14.3940536784
2855 1 19.426 38.852 15.894 12 11.015446192 1.766 12.3002549818
2856 1 17.66 40.618 15.894 12 11.015446192 1.766 13.9084811195
2857 1 21.192 38.852 14.128 12 11.015446192 1.766 13.0128681007
2858 1 22.958 40.618 14.128 12 11.015446192 1.766 15.0788316445
2859 1 22.958 38.852 15.894 12 11.015446192 1.766 13.0272825141
2860 1 21.192 40.618 15.894 12 11.015446192 1.766 14.3226012934
2861 1 24.724 38.852 14.128 12 11.015446192 1.766 13.9733846953
2862 1 26.49 40.618 14.128 12 11.015446192 1.766 16.2218525507
2863 1 26.49 38.852 15.894 12 11.015446192 1.766 14.311626983
2864 1 24.724 40.618 15.894 12 11.015446192 1.766 15.2107066909
2865 1 28.256 38.852 14.128 12 11.015446192 1.766 15.593710027
2866 1 30.022 40.618 14.128 12 11.015446192 1.766 17.9491514825
2867 1 30.022 38.852 15.894 12 11.015446192 1.766 16.0879744024
2868 1 28.256 40.618 15.894 12 11.015446192 1.766 16.6465875702
2869 1 31.788 38.852 14.128 12 11.015446192 1.766 17.6171223421
2870 1 33.554 40.618 14.128 12 11.015446192 1.766 20.0058321547
2871 1 33.554 38.852 15.894 12 11.015446192 1.766 18.3459778469
2872 1 31.788 40.618 15.894 12 11.015446192 1.766 18.5055594068
2873 1 35.32 38.852 14.128 12 11.015446192 1.766 20.0147447249
2874 1 37.086 40.618 14.128 12 11.015446192 1.766 22.4262201672
2875 1 37.086 38.852 15.894 12 11.015446192 1.766 20.9589344658
2876 1 35.32 40.618 15.894 12 11.015446192 1.766 20.8010272762
2877 1 38.852 38.852 14.128 12 11.015446192 1.766 22.2650051944
2878 1 40.618 40.618 14.128 12 11.015446192 1.766 22.0745790943
2879 1 40.618 38.852 15.894 12 11.015446192 1.766 20.7012986942
2880 1 38.852 40.618 15.894 12 11.015446192 1.766 23.1832997418
2881 1 0.0 0.0 17.66 12 11.015446192 1.766 21.8117723433
2882 1 1.766 1.766 17.66 12 11.015446192 1.766 21.4367166884
2883 1 1.766 0.0 19.426 12 11.015446192 1.766 20.5845257906
2884 1 0.0 1.766 19.426 12 11.015446192 1.766 22.4515327512
2885 1 3.532 0.0 17.66 12 11.015446192 1.766 19.6301754717
2886 1 5.298 1.766 17.66 12 11.015446192 1.766 19.7799902594
2887 1 5.298 0.0 19.426 12 11.015446192 1.766 18.5957597021
2888 1 3.532 1.766 19.426 12 11.015446192 1.766 20.5591121365
2889 1 7.064 0.0 17.66 12 11.015446192 1.766 17.8055426873
2890 1 8.83 1.766 17.66 12 11.015446192 1.766 18.4725840408
2891 1 8.83 0.0 19.426 12 11.015446192 1.766 17.0861044536
2892 1 7.064 1.766 19.426 12 11.015446192 1.766 19.0474297503
2893 1 10.596 0.0 17.66 12 11.015446192 1.766 16.4202819324
2894 1 12.362 1.766 17.66 12 11.015446192 1.766 17.4818508748
2895 1 12.362 0.0 19.426 12 11.015446192 1.766 16.0775068243
2896 1 10.596 1.766 19.426 12 11.015446192 1.766 17.9943716409
2897 1 14.128 0.0 17.66 12 11.015446192 1.766 15.6984235153
2898 1 15.894 1.766 17.66 12 11.015446192 1.766 17.1502585487
2899 1 15.894 0.0 19.426 12 11.015446192 1.766 15.4720389592
2900 1 14.128 1.766 19.426 12 11.015446192 1.766 17.3229857396
2901 1 17.66 0.0 17.66 12 11.015446192 1.766 15.3991628059
2902 1 19.426 1.766 17.66 12 11.015446192 1.766 17.2418981387
2903 1 19.426 0.0 19.426 12 11.015446192 1.766 15.4521348408
2904 1 17.66 1.766 19.426 12 11.015446192 1.766 17.125866806
2905 1 21.192 0.0 17.66 12 11.015446192 1.766 15.7795348699
2906 1 22.958 1.766 17.66 12 11.015446192 1.766 17.9297878861
2907 1 22.958 0.0 19.426 12 11.015446192 1.766 16.2189575441
2908 1 21.192 1.766 19.426 12 11.015446192 1.766 17.468681102
2909 1 24.724 0.0 17.66 12 11.015446192 1.766 16.72470322
2910 1 26.49 1.766 17.66 12 11.015446192 1.766 18.9364529625
2911 1 26.49 0.0 19.426 12 11.015446192 1.766 17.1801190995
2912 1 24.724 1.766 19.426 12 11.015446192 1.766 18.3964345863
2913 1 28.256 0.0 17.66 12 11.015446192 1.766 17.9372942083
2914 1 30.022 1.766 17.66 12 11.015446192 1.766 20.2883425666
2915 1 30.022 0.0 19.426 12 11.015446192 1.766 18.6536438011
2916 1 28.256 1.766 19.426 12 11.015446192 1.766 19.4625101376
2917 1 31.788 0.0 17.66 12 11.015446192 1.766 19.6729124001
2918 1 33.554 1.766 17.66 12 11.015446192 1.766 22.1216822798
2919 1 33.554 0.0 19.426 12 11.015446192 1.766 20.6327509034
2920 1 31.788 1.766 19.426 12 11.015446192 1.766 21.0728797188
2921 1 35.32 0.0 17.66 12 11.015446192 1.766 21.8460634689
2922 1 37.086 1.766 17.66 12 11.015446192 1.766 24.3325061938
2923 1 37.086 0.0 19.426 12 11.015446192 1.766 22.9872234215
2924 1 35.32 1.766 19.426 12 11.015446192 1.766 23.1147845854
2925 1 38.852 0.0 17.66 12 11.015446192 1.766 24.285671323
2926 1 40.618 1.766 17.66 12 11.015446192 1.766 23.4185632685
2927 1 40.618 0.0 19.426 12 11.015446192 1.766 22.9476180278
2928 1 38.852 1.766 19.426 12 11.015446192 1.766 24.6059029744
2929 1 0.0 3.532 17.66 12 11.015446192 1.766 20.9431533919
2930 1 1.766 5.298 17.66 12 11.015446192 1.766 18.4736911968
2931 1 1.766 3.532 19.426 12 11.015446192 1.766 20.0050872952
2932 1 0.0 5.298 19.426 12 11.015446192 1.766 19.6423928802
2933 1 3.532 3.532 17.66 12 11.015446192 1.766 19.0275729333
2934 1 5.298 5.298 17.66 12 11.015446192 1.766 16.6320140179
2935 1 5.298 3.532 19.426 12 11.015446192 1.766 18.1602678626
2936 1 3.532 5.298 19.426 12 11.015446192 1.766 17.5610201592
2937 1 7.064 3.532 17.66 12 11.015446192 1.766 17.4529012965
2938 1 8.83 5.298 17.66 12 11.015446192 1.766 15.1650805777
2939 1 8.83 3.532 19.426 12 11.015446192 1.766 16.8039222297
2940 1 7.064 5.298 19.426 12 11.015446192 1.766 15.7920419782
2941 1 10.596 3.532 17.66 12 11.015446192 1.766 16.2252794286
2942 1 12.362 5.298 17.66 12 11.015446192 1.766 14.0337275641
2943 1 12.362 3.532 19.426 12 11.015446192 1.766 15.8585278466
2944 1 10.596 5.298 19.426 12 11.015446192 1.766 14.6048829356
2945 1 14.128 3.532 17.66 12 11.015446192 1.766 15.4693544408
2946 1 15.894 5.298 17.66 12 11.015446192 1.766 13.6184348448
2947 1 15.894 3.532 19.426 12 11.015446192 1.766 15.4722074703
2948 1 14.128 5.298 19.426 12 11.015446192 1.766 13.8353255931
2949 1 17.66 3.532 17.66 12 11.015446192 1.766 15.4625400381
2950 1 19.426 5.298 17.66 12 11.015446192 1.766 13.8734903331
2951 1 19.426 3.532 19.426 12 11.015446192 1.766 15.5215172302
2952 1 17.66 5.298 19.426 12 11.015446192 1.766 13.690427384
2953 1 21.192 3.532 17.66 12 11.015446192 1.766 15.8667005284
2954 1 22.958 5.298 17.66 12 11.015446192 1.766 14.6039288445
2955 1 22.958 3.532 19.426 12 11.015446192 1.766 16.1861445082
2956 1 21.192 5.298 19.426 12 11.015446192 1.766 14.0286152514
2957 1 24.724 3.532 17.66 12 11.015446192 1.766 16.836443483
2958 1 26.49 5.298 17.66 12 11.015446192 1.766 15.871177204
2959 1 26.49 3.532 19.426 12 11.015446192 1.766 17.4869197793
2960 1 24.724 5.298 19.426 12 11.015446192 1.766 15.1665753806
2961 1 28.256 3.532 17.66 12 11.015446192 1.766 18.2299419207
2962 1 30.022 5.298 17.66 12 11.015446192 1.766 17.585466649
2963 1 30.022 3.532 19.426 12 11.015446192 1.766 19.006625759
2964 1 28.256 5.298 19.426 12 11.015446192 1.766 16.609199745
2965 1 31.788 3.532 17.66 12 11.015446192 1.766 20.0251543723
2966 1 33.554 5.298 17.66 12 11.015446192 1.766 19.7133567638
2967 1 33.554 3.532 19.426 12 11.015446192 1.766 20.9877409118
2968 1 31.788 5.298 19.426 12 11.015446192 1.766 18.5101036736
2969 1 35.32 3.532 17.66 12 11.015446192 1.766 22.1971907563
2970 1 37.086 5.298 17.66 12 11.015446192 1.766 22.1990974757
2971 1 37.086 3.532 19.426 12 11.015446192 1.766 23.338139652
2972 1 35.32 5.298 19.426 12 11.015446192 1.766 20.8406431725
2973 1 38.852 3.532 17.66 12 11.015446192 1.766 23.2376199551
2974 1 40.618 5.298 17.66 12 11.015446192 1.766 20.7406255841
2975 1 40.618 3.532 19.426 12 11.015446192 1.766 22.1223759488
2976 1 38.852 5.298 19.426 12 11.015446192 1.766 22.0724920488
2977 1 0.0 7.064 17.66 12 11.015446192 1.766 18.2437699519
2978 1 1.766 8.83 17.66 12 11.015446192 1.766 15.7471190538
2979 1 1.766 7.064 19.426 12 11.015446192 1.766 17.1674896971
2980 1 0.0 8.83 19.426 12 11.015446192 1.766 17.1031602378
2981 1 3.532 7.064 17.66 12 11.015446192 1.766 16.0129286164
2982 1 5.298 8.83 17.66 12 11.015446192 1.766 13.5656007354
2983 1 5.298 7.064 19.426 12 11.015446192 1.766 15.1204846782
2984 1 3.532 8.83 19.426 12 11.015446192 1.766 14.700232343
2985 1 7.064 7.064 17.66 12 11.015446192 1.766 14.2566814295
2986 1 8.83 8.83 17.66 12 11.015446192 1.766 11.9136794066
2987 1 8.83 7.064 19.426 12 11.015446192 1.766 13.4705929655
2988 1 7.064 8.83 19.426 12 11.015446192 1.766 12.685519355
2989 1 10.596 7.064 17.66 12 11.015446192 1.766 12.8921177069
2990 1 12.362 8.83 17.66 12 11.015446192 1.766 10.6407646296
2991 1 12.362 7.064 19.426 12 11.015446192 1.766 12.4509257374
2992 1 10.596 8.83 19.426 12 11.015446192 1.766 11.2241532074
2993 1 14.128 7.064 17.66 12 11.015446192 1.766 11.9627066397
2994 1 15.894 8.83 17.66 12 11.015446192 1.766 10.0867346031
2995 1 15.894 7.064 19.426 12 11.015446192 1.766 11.9592450189
2996 1 14.128 8.83 19.426 12 11.015446192 1.766 10.3750133598
2997 1 17.66 7.064 17.66 12 11.015446192 1.766 11.9440957586
2998 1 19.426 8.83 17.66 12 11.015446192 1.766 10.4031407219
2999 1 19.426 7.064 19.426 12 11.015446192 1.766 12.0036595131
3000 1 17.66 8.83 19.426 12 11.015446192 1.766 10.1608298466
3001 1 21.192 7.064 17.66 12 11.015446192 1.766 12.4452778642
3002 1 22.958 8.83 17.66 12 11.015446192 1.766 11.2601396754
3003 1 22.958 7.064 19.426 12 11.015446192 1.766 12.8515220351
3004 1 21.192 8.83 19.426 12 11.015446192 1.766 10.6041225215
3005 1 24.724 7.064 17.66 12 11.015446192 1.766 13.5457756068
3006 1 26.49 8.83 17.66 12 11.015446192 1.766 12.734736299
3007 1 26.49 7.064 19.426 12 11.015446192 1.766 14.2462006723
3008 1 24.724 8.83 19.426 12 11.015446192 1.766 11.9223728503
3009 1 28.256 7.064 17.66 12 11.015446192 1.766 15.1538128955
3010 1 30.022 8.83 17.66 12 11.015446192 1.766 14.7595332498
3011 1 30.022 7.064 19.426 12 11.015446192 1.766 16.0386293502
3012 1 28.256 8.83 19.426 12 11.015446192 1.766 13.5766840156
3013 1 31.788 7.064 17.66 12 11.015446192 1.766 17.2334737161
3014 1 33.554 8.83 17.66 12 11.015446192 1.766 17.235929554
3015 1 33.554 7.064 19.426 12 11.015446192 1.766 18.3431479651
3016 1 31.788 8.83 19.426 12 11.015446192 1.766 15.8456546314
3017 1 35.32 7.064 17.66 12 11.015446192 1.766 19.7155037004
3018 1 37.086 8.83 17.66 12 11.015446192 1.766 20.0314942385
3019 1 37.086 7.064 19.426 12 11.015446192 1.766 20.9917738914
3020 1 35.32 8.83 19.426 12 11.015446192 1.766 18.5146763551
3021 1 38.852 7.064 17.66 12 11.015446192 1.766 20.8376210072
3022 1 40.618 8.83 17.66 12 11.015446192 1.766 18.3539652848
3023 1 40.618 7.064 19.426 12 11.015446192 1.766 19.5861937518
3024 1 38.852 8.83 19.426 12 11.015446192 1.766 19.846647004
3025 1 0.0 10.596 17.66 12 11.015446192 1.766 15.8746545826
3026 1 1.766 12.362 17.66 12 11.015446192 1.766 13.4021005277
3027 1 1.766 10.596 19.426 12 11.015446192 1.766 14.6250544805
3028 1 0.0 12.362 19.426 12 11.015446192 1.766 14.9720616543
3029 1 3.532 10.596 17.66 12 11.015446192 1.766 13.2507886155
3030 1 5.298 12.362 17.66 12 11.015446192 1.766 10.7550017839
3031 1 5.298 10.596 19.426 12 11.015446192 1.766 12.2433001813
3032 1 3.532 12.362 19.426 12 11.015446192 1.766 12.1548908262
3033 1 7.064 10.596 17.66 12 11.015446192 1.766 11.1404406945
3034 1 8.83 12.362 17.66 12 11.015446192 1.766 8.7414044271
3035 1 8.83 10.596 19.426 12 11.015446192 1.766 10.2696619512
3036 1 7.064 12.362 19.426 12 11.015446192 1.766 9.7883443238
3037 1 10.596 10.596 17.66 12 11.015446192 1.766 9.6087341927
3038 1 12.362 12.362 17.66 12 11.015446192 1.766 7.3178478329
3039 1 12.362 10.596 19.426 12 11.015446192 1.766 9.0503321798
3040 1 10.596 12.362 19.426 12 11.015446192 1.766 7.9047004745
3041 1 14.128 10.596 17.66 12 11.015446192 1.766 8.4771352166
3042 1 15.894 12.362 17.66 12 11.015446192 1.766 6.5553573729
3043 1 15.894 10.596 19.426 12 11.015446192 1.766 8.4609163616
3044 1 14.128 12.362 19.426 12 11.015446192 1.766 6.950260856
3045 1 17.66 10.596 17.66 12 11.015446192 1.766 8.4357530423
3046 1 19.426 12.362 17.66 12 11.015446192 1.766 6.9610745837
3047 1 19.426 10.596 19.426 12 11.015446192 1.766 8.497542838
3048 1 17.66 12.362 19.426 12 11.015446192 1.766 6.6322206858
3049 1 21.192 10.596 17.66 12 11.015446192 1.766 9.0495717643
3050 1 22.958 12.362 17.66 12 11.015446192 1.766 7.9801379209
3051 1 22.958 10.596 19.426 12 11.015446192 1.766 9.6020284517
3052 1 21.192 12.362 19.426 12 11.015446192 1.766 7.281684053
3053 1 24.724 10.596 17.66 12 11.015446192 1.766 10.3370705357
3054 1 26.49 12.362 17.66 12 11.015446192 1.766 9.8311786588
3055 1 26.49 10.596 19.426 12 11.015446192 1.766 11.1305925398
3056 1 24.724 12.362 19.426 12 11.015446192 1.766 8.713716527
3057 1 28.256 10.596 17.66 12 11.015446192 1.766 12.2940892532
3058 1 30.022 12.362 17.66 12 11.015446192 1.766 12.2985650562
3059 1 30.022 10.596 19.426 12 11.015446192 1.766 13.348164223
3060 1 28.256 12.362 19.426 12 11.015446192 1.766 10.8506787599
3061 1 31.788 10.596 17.66 12 11.015446192 1.766 14.7624006522
3062 1 33.554 12.362 17.66 12 11.015446192 1.766 15.1742832966
3063 1 33.554 10.596 19.426 12 11.015446192 1.766 16.0439064433
3064 1 31.788 12.362 19.426 12 11.015446192 1.766 13.5829176317
3065 1 35.32 10.596 17.66 12 11.015446192 1.766 17.5965024761
3066 1 37.086 12.362 17.66 12 11.015446192 1.766 18.2606875026
3067 1 37.086 10.596 19.426 12 11.015446192 1.766 19.0155312258
3068 1 35.32 12.362 19.426 12 11.015446192 1.766 16.6193899174
3069 1 38.852 10.596 17.66 12 11.015446192 1.766 18.7982968722
3070 1 40.618 12.362 17.66 12 11.015446192 1.766 16.3863535216
3071 1 40.618 10.596 19.426 12 11.015446192 1.766 17.4008189962
3072 1 38.852 12.362 19.426 12 11.015446192 1.766 18.042559058
3073 1 0.0 14.128 17.66 12 11.015446192 1.766 14.0044358035
3074 1 1.766 15.894 17.66 12 11.015446192 1.766 11.6709419763
3075 1 1.766 14.128 19.426 12 11.015446192 1.766 12.5702737686
3076 1 0.0 15.894 19.426 12 11.015446192 1.766 13.4411053713
3077 1 3.532 14.128 17.66 12 11.015446192 1.766 10.9408849273
3078 1 5.298 15.894 17.66 12 11.015446192 1.766 8.5008618052
3079 1 5.298 14.128 19.426 12 11.015446192 1.766 9.6987394766
3080 1 3.532 15.894 19.426 12 11.015446192 1.766 10.2121160129
3081 1 7.064 14.128 17.66 12 11.015446192 1.766 8.2602513164
3082 1 8.83 15.894 17.66 12 11.015446192 1.766 5.7678821286
3083 1 8.83 14.128 19.426 12 11.015446192 1.766 7.3333952849
3084 1 7.064 15.894 19.426 12 11.015446192 1.766 7.2695673991
3085 1 10.596 14.128 17.66 12 11.015446192 1.766 6.3850293954
3086 1 12.362 15.894 17.66 12 11.015446192 1.766 4.0754211466
3087 1 12.362 14.128 19.426 12 11.015446192 1.766 5.6537853036
3088 1 10.596 15.894 19.426 12 11.015446192 1.766 4.8784633584
3089 1 14.128 14.128 17.66 12 11.015446192 1.766 5.0562994293
3090 1 15.894 15.894 17.66 12 11.015446192 1.766 3.0248321965
3091 1 15.894 14.128 19.426 12 11.015446192 1.766 4.9830345015
3092 1 14.128 15.894 19.426 12 11.015446192 1.766 3.546316668
3093 1 17.66 14.128 17.66 12 11.015446192 1.766 4.958800112
3094 1 19.426 15.894 17.66 12 11.015446192 1.766 3.5469468686
3095 1 19.426 14.128 19.426 12 11.015446192 1.766 5.0277902563
3096 1 17.66 15.894 19.426 12 11.015446192 1.766 3.1079681656
3097 1 21.192 14.128 17.66 12 11.015446192 1.766 5.684546393
3098 1 22.958 15.894 17.66 12 11.015446192 1.766 4.90969717
3099 1 22.958 14.128 19.426 12 11.015446192 1.766 6.3578259214
3100 1 21.192 15.894 19.426 12 11.015446192 1.766 4.0374815227
3101 1 24.724 14.128 17.66 12 11.015446192 1.766 7.3692314661
3102 1 26.49 15.894 17.66 12 11.015446192 1.766 7.3956286298
3103 1 26.49 14.128 19.426 12 11.015446192 1.766 8.3532026779
3104 1 24.724 15.894 19.426 12 11.015446192 1.766 5.8557479799
3105 1 28.256 14.128 17.66 12 11.015446192 1.766 9.8463083801
3106 1 30.022 15.894 17.66 12 11.015446192 1.766 10.3725534928
3107 1 30.022 14.128 19.426 12 11.015446192 1.766 11.1381952225
3108 1 28.256 15.894 19.426 12 11.015446192 1.766 8.7234258318
3109 1 31.788 14.128 17.66 12 11.015446192 1.766 12.7636147867
3110 1 33.554 15.894 17.66 12 11.015446192 1.766 13.5886952762
3111 1 33.554 14.128 19.426 12 11.015446192 1.766 14.2580797674
3112 1 31.788 15.894 19.426 12 11.015446192 1.766 11.9508293804
3113 1 35.32 14.128 17.66 12 11.015446192 1.766 15.9071734243
3114 1 37.086 15.894 17.66 12 11.015446192 1.766 16.9149587257
3115 1 37.086 14.128 19.426 12 11.015446192 1.766 17.5317436138
3116 1 35.32 15.894 19.426 12 11.015446192 1.766 15.2933727553
3117 1 38.852 14.128 17.66 12 11.015446192 1.766 17.2480587127
3118 1 40.618 15.894 17.66 12 11.015446192 1.766 15.0035719012
3119 1 40.618 14.128 19.426 12 11.015446192 1.766 15.7133085567
3120 1 38.852 15.894 19.426 12 11.015446192 1.766 16.7920996482
3121 1 0.0 17.66 17.66 12 11.015446192 1.766 12.8527753514
3122 1 1.766 19.426 17.66 12 11.015446192 1.766 10.8514485753
3123 1 1.766 17.66 19.426 12 11.015446192 1.766 11.2343935269
3124 1 0.0 19.426 19.426 12 11.015446192 1.766 12.633163292
3125 1 3.532 17.66 17.66 12 11.015446192 1.766 9.4219199239
3126 1 5.298 19.426 17.66 12 11.015446192 1.766 7.3354814082
3127 1 5.298 17.66 19.426 12 11.015446192 1.766 7.9005175582
3128 1 3.532 19.426 19.426 12 11.015446192 1.766 9.1351342407
3129 1 7.064 17.66 17.66 12 11.015446192 1.766 6.1074842505
3130 1 8.83 19.426 17.66 12 11.015446192 1.766 3.8487790673
3131 1 8.83 17.66 19.426 12 11.015446192 1.766 4.853870034
3132 1 7.064 19.426 19.426 12 11.015446192 1.766 5.6780134975
3133 1 10.596 17.66 17.66 12 11.015446192 1.766 3.2833215938
3134 1 12.362 19.426 17.66 11 11.9334000413 2.4975011512 0.8565338719
3135 1 12.362 17.66 19.426 12 11.015446192 1.766 2.4262778776
3136 1 10.596 19.426 19.426 12 11.015446192 1.766 2.4421903715
3137 1 14.128 17.66 17.66 12 11.015446192 1.766 1.773662127
3138 1 15.894 19.426 17.66 8 21.2735804583 3.614911844 0.4853713818
3139 1 15.894 17.66 19.426 12 11.015446192 1.766 1.5058994094
3140 1 14.128 19.426 19.426 10 13.76930774 2.9285796899 0.1445134117
3141 1 17.66 17.66 17.66 12 11.015446192 1.766 1.5130269815
3142 1 19.426 19.426 17.66 10 13.76930774 2.9285796899 0.1334422492
3143 1 19.426 17.66 19.426 12 11.015446192 1.766 1.7171371241
3144 1 17.66 19.426 19.426 8 21.3837349202 3.6567289139 0.3809214424
3145 1 21.192 17.66 17.66 12 11.015446192 1.766 2.4598242874
3146 1 22.958 19.426 17.66 12 11.015446192 1.766 2.5046826336
3147 1 22.958 17.66 19.426 12 11.015446192 1.766 3.3583623735
3148 1 21.192 19.426 19.426 11 11.9334000413 2.4975011512 0.8616468292
3149 1 24.724 17.66 17.66 12 11.015446192 1.766 4.9467031064
3150 1 26.49 19.426 17.66 12 11.015446192 1.766 5.7503570476
3151 1 26.49 17.66 19.426 12 11.015446192 1.766 6.3726695872
3152 1 24.724 19.426 19.426 12 11.015446192 1.766 4.1341843191
3153 1 28.256 17.66 17.66 12 11.015446192 1.766 8.0186585023
3154 1 30.022 19.426 17.66 12 11.015446192 1.766 9.1754096821
3155 1 30.022 17.66 19.426 12 11.015446192 1.766 9.7137785372
3156 1 28.256 19.426 19.426 12 11.015446192 1.766 7.4989085672
3157 1 31.788 17.66 17.66 12 11.015446192 1.766 11.3315611453
3158 1 33.554 19.426 17.66 12 11.015446192 1.766 12.629502299
3159 1 33.554 17.66 19.426 12 11.015446192 1.766 13.0785027854
3160 1 31.788 19.426 19.426 12 11.015446192 1.766 10.8689369836
3161 1 35.32 17.66 17.66 12 11.015446192 1.766 14.7372836884
3162 1 37.086 19.426 17.66 12 11.015446192 1.766 16.0939480126
3163 1 37.086 17.66 19.426 12 11.015446192 1.766 16.4486866757
3164 1 35.32 19.426 19.426 12 11.015446192 1.766 14.2914522915
3165 1 38.852 17.66 17.66 12 11.015446192 1.766 16.3268227593
3166 1 40.618 19.426 17.66 12 11.015446192 1.766 14.3717704351
3167 1 40.618 17.66 19.426 12 11.015446192 1.766 14.6608429156
3168 1 38.852 19.426 19.426 12 11.015446192 1.766 16.1455334003
3169 1 0.0 21.192 17.66 12 11.015446192 1.766 12.4719091835
3170 1 1.766 22.958 17.66 12 11.015446192 1.766 10.652463014
3171 1 1.766 21.192 19.426 12 11.015446192 1.766 10.7371555772
3172 1 0.0 22.958 19.426 12 11.015446192 1.766 12.467243807
3173 1 3.532 21.192 17.66 12 11.015446192 1.766 8.9515205616
3174 1 5.298 22.958 17.66 12 11.015446192 1.766 7.1284171978
3175 1 5.298 21.192 19.426 12 11.015446192 1.766 7.212422299
3176 1 3.532 22.958 19.426 12 11.015446192 1.766 8.9418047676
3177 1 7.064 21.192 17.66 12 11.015446192 1.766 5.4314953213
3178 1 8.83 22.958 17.66 12 11.015446192 1.766 3.6199092843
3179 1 8.83 21.192 19.426 12 11.015446192 1.766 3.6878248331
3180 1 7.064 22.958 19.426 12 11.015446192 1.766 5.4173407587
3181 1 10.596 21.192 17.66 12 11.015446192 1.766 1.9138395594
3182 1 12.362 22.958 17.66 10 13.76930774 2.9285796899 0.3406152608
3183 1 12.362 21.192 19.426 10 13.76930774 2.9285796899 0.1639308781
3184 1 10.596 22.958 19.426 12 11.015446192 1.766 1.8989226655
3185 1 38.852 38.852 38.852 12 11.015446192 1.766 28.6467015379
3186 1 35.32 40.618 40.618 12 11.015446192 1.766 28.3976543694
3187 1 37.086 38.852 40.618 12 11.015446192 1.766 28.4761094641
3188 1 37.086 40.618 38.852 12 11.015446192 1.766 28.9293281471
3189 1 35.32 38.852 38.852 12 11.015446192 1.766 26.8957419602
3190 1 31.788 40.618 40.618 12 11.015446192 1.766 26.6202577888
3191 1 33.554 38.852 40.618 12 11.015446192 1.766 26.4693244582
3192 1 33.554 40.618 38.852 12 11.015446192 1.766 26.8499479163
3193 1 21.192 21.192 17.66 10 13.76930774 2.9285796899 0.1924802834
3194 1 22.958 22.958 17.66 12 11.015446192 1.766 1.797913909
3195 1 22.958 21.192 19.426 12 11.015446192 1.766 1.916027001
3196 1 21.192 22.958 19.426 9 16.2171846716 3.1700670165 0.1052401134
3197 1 24.724 21.192 17.66 12 11.015446192 1.766 3.6696994021
3198 1 26.49 22.958 17.66 12 11.015446192 1.766 5.2996218277
3199 1 26.49 21.192 19.426 12 11.015446192 1.766 5.2927027359
3200 1 24.724 22.958 19.426 12 11.015446192 1.766 3.3937991742
3201 1 28.256 21.192 17.66 12 11.015446192 1.766 7.1475074628
3202 1 30.022 22.958 17.66 12 11.015446192 1.766 8.8013754594
3203 1 30.022 21.192 19.426 12 11.015446192 1.766 8.7576318614
3204 1 28.256 22.958 19.426 12 11.015446192 1.766 6.9086997769
3205 1 31.788 21.192 17.66 12 11.015446192 1.766 10.625520269
3206 1 33.554 22.958 17.66 12 11.015446192 1.766 12.3035234154
3207 1 33.554 21.192 19.426 12 11.015446192 1.766 12.2608962718
3208 1 31.788 22.958 19.426 12 11.015446192 1.766 10.4349686237
3209 1 35.32 21.192 17.66 12 11.015446192 1.766 14.1089181675
3210 1 37.086 22.958 17.66 12 11.015446192 1.766 15.8103308698
3211 1 37.086 21.192 19.426 12 11.015446192 1.766 15.7769796525
3212 1 35.32 22.958 19.426 12 11.015446192 1.766 13.9641346222
3213 1 38.852 21.192 17.66 12 11.015446192 1.766 15.9924212166
3214 1 40.618 22.958 17.66 12 11.015446192 1.766 14.1804672978
3215 1 40.618 21.192 19.426 12 11.015446192 1.766 14.2619239729
3216 1 38.852 22.958 19.426 12 11.015446192 1.766 15.993013094
3217 1 0.0 24.724 17.66 12 11.015446192 1.766 12.6044870541
3218 1 1.766 26.49 17.66 12 11.015446192 1.766 11.2541425686
3219 1 1.766 24.724 19.426 12 11.015446192 1.766 10.8567140244
3220 1 0.0 26.49 19.426 12 11.015446192 1.766 12.8495342913
3221 1 3.532 24.724 17.66 12 11.015446192 1.766 9.1395069327
3222 1 5.298 26.49 17.66 12 11.015446192 1.766 7.9184727377
3223 1 5.298 24.724 19.426 12 11.015446192 1.766 7.3484573602
3224 1 3.532 26.49 19.426 12 11.015446192 1.766 9.3981972458
3225 1 7.064 24.724 17.66 12 11.015446192 1.766 5.7332009676
3226 1 8.83 26.49 17.66 12 11.015446192 1.766 4.7875457547
3227 1 8.83 24.724 19.426 12 11.015446192 1.766 3.8487562963
3228 1 7.064 26.49 19.426 12 11.015446192 1.766 6.0408392992
3229 1 10.596 24.724 17.66 12 11.015446192 1.766 2.5545778718
3230 1 12.362 26.49 17.66 12 11.015446192 1.766 1.852076961
3231 1 12.362 24.724 19.426 11 11.9334000413 2.4975011512 0.5967936329
3232 1 10.596 26.49 19.426 12 11.015446192 1.766 3.0899924508
3233 1 14.128 24.724 17.66 8 22.6598729045 3.6567289139 0.5085232715
3234 1 15.894 26.49 17.66 9 16.2936808257 3.3912258477 0.2647092253
3235 1 31.788 38.852 38.852 12 11.015446192 1.766 24.8971812793
3236 1 14.128 26.49 19.426 11 11.9334000413 2.4975011512 0.479748298
3237 1 28.256 40.618 40.618 12 11.015446192 1.766 25.0514541945
3238 1 19.426 26.49 17.66 10 13.76930774 2.9285796899 0.1233368128
3239 1 30.022 38.852 40.618 12 11.015446192 1.766 24.7652700184
3240 1 17.66 26.49 19.426 8 21.18506348 3.6099784922 0.341289002
3241 1 21.192 24.724 17.66 10 13.76930774 2.9285796899 0.2169687968
3242 1 22.958 26.49 17.66 12 11.015446192 1.766 2.4152361281
3243 1 22.958 24.724 19.426 12 11.015446192 1.766 1.8543431184
3244 1 21.192 26.49 19.426 11 11.9334000413 2.4975011512 0.5172961988
3245 1 24.724 24.724 17.66 12 11.015446192 1.766 3.6278378974
3246 1 26.49 26.49 17.66 12 11.015446192 1.766 5.6153858842
3247 1 26.49 24.724 19.426 12 11.015446192 1.766 5.3587162652
3248 1 24.724 26.49 19.426 12 11.015446192 1.766 3.9108637708
3249 1 28.256 24.724 17.66 12 11.015446192 1.766 7.1317285949
3250 1 30.022 26.49 17.66 12 11.015446192 1.766 9.0576443017
3251 1 30.022 24.724 19.426 12 11.015446192 1.766 8.863089412
3252 1 28.256 26.49 19.426 12 11.015446192 1.766 7.3552951406
3253 1 31.788 24.724 17.66 12 11.015446192 1.766 10.6427972805
3254 1 33.554 26.49 17.66 12 11.015446192 1.766 12.5498737031
3255 1 33.554 24.724 19.426 12 11.015446192 1.766 12.3674625588
3256 1 31.788 26.49 19.426 12 11.015446192 1.766 10.8310818224
3257 1 35.32 24.724 17.66 12 11.015446192 1.766 14.1564229775
3258 1 37.086 26.49 17.66 12 11.015446192 1.766 16.059507702
3259 1 37.086 24.724 19.426 12 11.015446192 1.766 15.8729278238
3260 1 35.32 26.49 19.426 12 11.015446192 1.766 14.3324950227
3261 1 38.852 24.724 17.66 12 11.015446192 1.766 16.0925016912
3262 1 40.618 26.49 17.66 12 11.015446192 1.766 14.6727895337
3263 1 40.618 24.724 19.426 12 11.015446192 1.766 14.3668764366
3264 1 38.852 26.49 19.426 12 11.015446192 1.766 16.3353516298
3265 1 0.0 28.256 17.66 12 11.015446192 1.766 13.4151672649
3266 1 1.766 30.022 17.66 12 11.015446192 1.766 12.4918354499
3267 1 1.766 28.256 19.426 12 11.015446192 1.766 11.6168954401
3268 1 0.0 30.022 19.426 12 11.015446192 1.766 13.9303062371
3269 1 3.532 28.256 17.66 12 11.015446192 1.766 10.1578685123
3270 1 5.298 30.022 17.66 12 11.015446192 1.766 9.5480357511
3271 1 5.298 28.256 19.426 12 11.015446192 1.766 8.4049309119
3272 1 3.532 30.022 19.426 12 11.015446192 1.766 10.8290817629
3273 1 7.064 28.256 17.66 12 11.015446192 1.766 7.1278092244
3274 1 8.83 30.022 17.66 12 11.015446192 1.766 6.8308301599
3275 1 8.83 28.256 19.426 12 11.015446192 1.766 5.5869666576
3276 1 7.064 30.022 19.426 12 11.015446192 1.766 8.0842186945
3277 1 10.596 28.256 17.66 12 11.015446192 1.766 4.3408051435
3278 1 12.362 30.022 17.66 12 11.015446192 1.766 4.5302668073
3279 1 12.362 28.256 19.426 12 11.015446192 1.766 2.9739855669
3280 1 10.596 30.022 19.426 12 11.015446192 1.766 5.4685686386
3281 1 14.128 28.256 17.66 12 11.015446192 1.766 2.0689512962
3282 1 15.894 30.022 17.66 12 11.015446192 1.766 3.2238902885
3283 1 15.894 28.256 19.426 12 11.015446192 1.766 1.6252156749
3284 1 14.128 30.022 19.426 12 11.015446192 1.766 3.7167197448
3285 1 17.66 28.256 17.66 12 11.015446192 1.766 1.4605367431
3286 1 19.426 30.022 17.66 12 11.015446192 1.766 3.4617173592
3287 1 19.426 28.256 19.426 12 11.015446192 1.766 1.7923876827
3288 1 17.66 30.022 19.426 12 11.015446192 1.766 3.040219364
3289 1 21.192 28.256 17.66 12 11.015446192 1.766 2.3792387766
3290 1 22.958 30.022 17.66 12 11.015446192 1.766 4.7343192112
3291 1 22.958 28.256 19.426 12 11.015446192 1.766 3.008364995
3292 1 21.192 30.022 19.426 12 11.015446192 1.766 3.8493913625
3293 1 24.724 28.256 17.66 12 11.015446192 1.766 4.7652214982
3294 1 26.49 30.022 17.66 12 11.015446192 1.766 7.1176167199
3295 1 26.49 28.256 19.426 12 11.015446192 1.766 6.0747137157
3296 1 24.724 30.022 19.426 12 11.015446192 1.766 5.5052655275
3297 1 28.256 28.256 17.66 12 11.015446192 1.766 7.8644529262
3298 1 30.022 30.022 17.66 12 11.015446192 1.766 10.162216871
3299 1 30.022 28.256 19.426 12 11.015446192 1.766 9.4672288085
3300 1 28.256 30.022 19.426 12 11.015446192 1.766 8.4044547303
3301 1 31.788 28.256 17.66 12 11.015446192 1.766 11.1897320088
3302 1 33.554 30.022 17.66 12 11.015446192 1.766 13.4211374787
3303 1 33.554 28.256 19.426 12 11.015446192 1.766 12.9081703094
3304 1 31.788 30.022 19.426 12 11.015446192 1.766 11.6581224088
3305 1 35.32 28.256 17.66 12 11.015446192 1.766 14.5994390773
3306 1 37.086 30.022 17.66 12 11.015446192 1.766 16.7690610772
3307 1 37.086 28.256 19.426 12 11.015446192 1.766 16.3546031254
3308 1 35.32 30.022 19.426 12 11.015446192 1.766 15.0378692213
3309 1 38.852 28.256 17.66 12 11.015446192 1.766 16.7839560527
3310 1 40.618 30.022 17.66 12 11.015446192 1.766 15.6622283517
3311 1 40.618 28.256 19.426 12 11.015446192 1.766 14.973700401
3312 1 38.852 30.022 19.426 12 11.015446192 1.766 17.1984853953
3313 1 0.0 31.788 17.66 12 11.015446192 1.766 14.878999869
3314 1 1.766 33.554 17.66 12 11.015446192 1.766 14.4674250847
3315 1 1.766 31.788 19.426 12 11.015446192 1.766 13.2804436681
3316 1 0.0 33.554 19.426 12 11.015446192 1.766 15.7463132262
3317 1 3.532 31.788 17.66 12 11.015446192 1.766 11.9999400604
3318 1 5.298 33.554 17.66 12 11.015446192 1.766 11.8162606048
3319 1 5.298 31.788 19.426 12 11.015446192 1.766 10.5815518593
3320 1 3.532 33.554 19.426 12 11.015446192 1.766 13.0789196794
3321 1 7.064 31.788 17.66 12 11.015446192 1.766 9.3231112017
3322 1 8.83 33.554 17.66 12 11.015446192 1.766 9.453772197
3323 1 8.83 31.788 19.426 12 11.015446192 1.766 7.9646462291
3324 1 7.064 33.554 19.426 12 11.015446192 1.766 10.4614033549
3325 1 10.596 31.788 17.66 12 11.015446192 1.766 6.9919763854
3326 1 12.362 33.554 17.66 12 11.015446192 1.766 7.5390126943
3327 1 12.362 31.788 19.426 12 11.015446192 1.766 5.9426806703
3328 1 10.596 33.554 19.426 12 11.015446192 1.766 8.3033492657
3329 1 14.128 31.788 17.66 12 11.015446192 1.766 5.2541866475
3330 1 15.894 33.554 17.66 12 11.015446192 1.766 6.7320764186
3331 1 15.894 31.788 19.426 12 11.015446192 1.766 5.061036717
3332 1 14.128 33.554 19.426 12 11.015446192 1.766 7.1365513603
3333 1 17.66 31.788 17.66 12 11.015446192 1.766 4.9057830747
3334 1 19.426 33.554 17.66 12 11.015446192 1.766 6.8409276979
3335 1 19.426 31.788 19.426 12 11.015446192 1.766 5.0723945118
3336 1 17.66 33.554 19.426 12 11.015446192 1.766 6.5445364083
3337 1 21.192 31.788 17.66 12 11.015446192 1.766 5.5776618976
3338 1 22.958 33.554 17.66 12 11.015446192 1.766 7.8194294139
3339 1 22.958 31.788 19.426 12 11.015446192 1.766 6.0157106254
3340 1 21.192 33.554 19.426 12 11.015446192 1.766 7.3166952748
3341 1 24.724 31.788 17.66 12 11.015446192 1.766 7.0925158845
3342 1 26.49 33.554 17.66 12 11.015446192 1.766 9.501263398
3343 1 26.49 31.788 19.426 12 11.015446192 1.766 8.0025409161
3344 1 24.724 33.554 19.426 12 11.015446192 1.766 8.3619068946
3345 1 28.256 31.788 17.66 12 11.015446192 1.766 9.5200153549
3346 1 30.022 33.554 17.66 12 11.015446192 1.766 11.961435572
3347 1 30.022 31.788 19.426 12 11.015446192 1.766 10.8093753705
3348 1 28.256 33.554 19.426 12 11.015446192 1.766 10.4999236997
3349 1 31.788 31.788 17.66 12 11.015446192 1.766 12.4862985365
3350 1 33.554 33.554 17.66 12 11.015446192 1.766 14.860280069
3351 1 33.554 31.788 19.426 12 11.015446192 1.766 13.949716079
3352 1 31.788 33.554 19.426 12 11.015446192 1.766 13.2485982838
3353 1 35.32 31.788 17.66 12 11.015446192 1.766 15.6874161244
3354 1 37.086 33.554 17.66 12 11.015446192 1.766 17.9869384419
3355 1 37.086 31.788 19.426 12 11.015446192 1.766 17.2422913057
3356 1 35.32 33.554 19.426 12 11.015446192 1.766 16.3019128715
3357 1 38.852 31.788 17.66 12 11.015446192 1.766 17.9755140437
3358 1 40.618 33.554 17.66 12 11.015446192 1.766 17.2973508173
3359 1 40.618 31.788 19.426 12 11.015446192 1.766 16.2981479946
3360 1 38.852 33.554 19.426 12 11.015446192 1.766 18.6997552992
3361 1 0.0 35.32 17.66 12 11.015446192 1.766 16.9436851981
3362 1 1.766 37.086 17.66 12 11.015446192 1.766 16.8036183683
3363 1 1.766 35.32 19.426 12 11.015446192 1.766 15.576305486
3364 1 0.0 37.086 19.426 12 11.015446192 1.766 18.073701823
3365 1 3.532 35.32 17.66 12 11.015446192 1.766 14.3098245019
3366 1 5.298 37.086 17.66 12 11.015446192 1.766 14.3787881603
3367 1 5.298 35.32 19.426 12 11.015446192 1.766 12.9584472354
3368 1 3.532 37.086 19.426 12 11.015446192 1.766 15.4556388853
3369 1 7.064 35.32 17.66 12 11.015446192 1.766 11.915600794
3370 1 8.83 37.086 17.66 12 11.015446192 1.766 12.3237399929
3371 1 8.83 35.32 19.426 12 11.015446192 1.766 10.7215194645
3372 1 7.064 37.086 19.426 12 11.015446192 1.766 13.1693346159
3373 1 10.596 35.32 17.66 12 11.015446192 1.766 9.9143739406
3374 1 12.362 37.086 17.66 12 11.015446192 1.766 10.836443514
3375 1 12.362 35.32 19.426 12 11.015446192 1.766 9.264140499
3376 1 10.596 37.086 19.426 12 11.015446192 1.766 11.5124816962
3377 1 14.128 35.32 17.66 12 11.015446192 1.766 8.701398101
3378 1 15.894 37.086 17.66 12 11.015446192 1.766 10.2406635709
3379 1 15.894 35.32 19.426 12 11.015446192 1.766 8.5022385289
3380 1 14.128 37.086 19.426 12 11.015446192 1.766 10.5692667458
3381 1 17.66 35.32 17.66 12 11.015446192 1.766 8.3760358814
3382 1 19.426 37.086 17.66 12 11.015446192 1.766 10.2643443721
3383 1 19.426 35.32 19.426 12 11.015446192 1.766 8.4730297475
3384 1 17.66 37.086 19.426 12 11.015446192 1.766 10.0682187014
3385 1 21.192 35.32 17.66 12 11.015446192 1.766 8.9724501301
3386 1 22.958 37.086 17.66 12 11.015446192 1.766 11.1498132204
3387 1 22.958 35.32 19.426 12 11.015446192 1.766 9.3955979682
3388 1 21.192 37.086 19.426 12 11.015446192 1.766 10.640379665
3389 1 24.724 35.32 17.66 12 11.015446192 1.766 10.1144483063
3390 1 26.49 37.086 17.66 12 11.015446192 1.766 12.4433754482
3391 1 26.49 35.32 19.426 12 11.015446192 1.766 10.7763269949
3392 1 24.724 37.086 19.426 12 11.015446192 1.766 11.5967699512
3393 1 28.256 35.32 17.66 12 11.015446192 1.766 11.9465164271
3394 1 30.022 37.086 17.66 12 11.015446192 1.766 14.4097025413
3395 1 30.022 35.32 19.426 12 11.015446192 1.766 12.9973519721
3396 1 28.256 37.086 19.426 12 11.015446192 1.766 13.221648312
3397 1 31.788 35.32 17.66 12 11.015446192 1.766 14.422073829
3398 1 33.554 37.086 17.66 12 11.015446192 1.766 16.8935345655
3399 1 33.554 35.32 19.426 12 11.015446192 1.766 15.7061497851
3400 1 31.788 37.086 19.426 12 11.015446192 1.766 15.4948037377
3401 1 35.32 35.32 17.66 12 11.015446192 1.766 17.2691406941
3402 1 37.086 37.086 17.66 12 11.015446192 1.766 19.7000898703
3403 1 37.086 35.32 19.426 12 11.015446192 1.766 18.6918477379
3404 1 35.32 37.086 19.426 12 11.015446192 1.766 18.1745962722
3405 1 38.852 35.32 17.66 12 11.015446192 1.766 19.735426965
3406 1 40.618 37.086 17.66 12 11.015446192 1.766 19.425364861
3407 1 40.618 35.32 19.426 12 11.015446192 1.766 18.2208013109
3408 1 38.852 37.086 19.426 12 11.015446192 1.766 20.7008174864
3409 1 0.0 38.852 17.66 12 11.015446192 1.766 19.2975530483
3410 1 1.766 40.618 17.66 12 11.015446192 1.766 19.3290049966
3411 1 1.766 38.852 19.426 12 11.015446192 1.766 17.9529166419
3412 1 0.0 40.618 19.426 12 11.015446192 1.766 20.4502489606
3413 1 3.532 38.852 17.66 12 11.015446192 1.766 16.8505928548
3414 1 5.298 40.618 17.66 12 11.015446192 1.766 17.1871770986
3415 1 5.298 38.852 19.426 12 11.015446192 1.766 15.6328753857
3416 1 3.532 40.618 19.426 12 11.015446192 1.766 18.1057238305
3417 1 7.064 38.852 17.66 12 11.015446192 1.766 14.750457035
3418 1 8.83 40.618 17.66 12 11.015446192 1.766 15.4350980969
3419 1 8.83 38.852 19.426 12 11.015446192 1.766 13.8337207206
3420 1 7.064 40.618 19.426 12 11.015446192 1.766 16.1978960455
3421 1 10.596 38.852 17.66 12 11.015446192 1.766 13.1002943155
3422 1 12.362 40.618 17.66 12 11.015446192 1.766 14.2464532997
3423 1 12.362 38.852 19.426 12 11.015446192 1.766 12.6570167105
3424 1 10.596 40.618 19.426 12 11.015446192 1.766 14.8326224731
3425 1 14.128 38.852 17.66 12 11.015446192 1.766 12.1959173318
3426 1 15.894 40.618 17.66 12 11.015446192 1.766 13.7493447476
3427 1 15.894 38.852 19.426 12 11.015446192 1.766 11.9758442932
3428 1 14.128 40.618 19.426 12 11.015446192 1.766 14.0144656129
3429 1 17.66 38.852 17.66 12 11.015446192 1.766 11.8815433385
3430 1 19.426 40.618 17.66 12 11.015446192 1.766 13.7420844273
3431 1 19.426 38.852 19.426 12 11.015446192 1.766 11.9501183308
3432 1 17.66 40.618 19.426 12 11.015446192 1.766 13.5962181079
3433 1 21.192 38.852 17.66 12 11.015446192 1.766 12.3678476423
3434 1 22.958 40.618 17.66 12 11.015446192 1.766 14.5385140469
3435 1 22.958 38.852 19.426 12 11.015446192 1.766 12.8473613798
3436 1 21.192 40.618 19.426 12 11.015446192 1.766 14.025571376
3437 1 24.724 38.852 17.66 12 11.015446192 1.766 13.3710994652
3438 1 26.49 40.618 17.66 12 11.015446192 1.766 15.631737809
3439 1 26.49 38.852 19.426 12 11.015446192 1.766 13.8984831505
3440 1 24.724 40.618 19.426 12 11.015446192 1.766 14.9665863739
3441 1 28.256 38.852 17.66 12 11.015446192 1.766 14.8242323622
3442 1 30.022 40.618 17.66 12 11.015446192 1.766 17.2381310389
3443 1 30.022 38.852 19.426 12 11.015446192 1.766 15.6834233722
3444 1 28.256 40.618 19.426 12 11.015446192 1.766 16.2580939372
3445 1 31.788 38.852 17.66 12 11.015446192 1.766 16.88297438
3446 1 33.554 40.618 17.66 12 11.015446192 1.766 19.3624674177
3447 1 33.554 38.852 19.426 12 11.015446192 1.766 17.9922692137
3448 1 31.788 40.618 19.426 12 11.015446192 1.766 18.1549601282
3449 1 35.32 38.852 17.66 12 11.015446192 1.766 19.371675991
3450 1 37.086 40.618 17.66 12 11.015446192 1.766 21.8542255705
3451 1 37.086 38.852 19.426 12 11.015446192 1.766 20.650031047
3452 1 35.32 40.618 19.426 12 11.015446192 1.766 20.4897433864
3453 1 38.852 38.852 17.66 12 11.015446192 1.766 21.9106226351
3454 1 40.618 40.618 17.66 12 11.015446192 1.766 21.7915801959
3455 1 40.618 38.852 19.426 12 11.015446192 1.766 20.5711048551
3456 1 38.852 40.618 19.426 12 11.015446192 1.766 23.068512408
3457 1 0.0 0.0 21.192 12 11.015446192 1.766 21.7844546045
3458 1 1.766 1.766 21.192 12 11.015446192 1.766 21.6004905736
3459 1 1.766 0.0 22.958 12 11.015446192 1.766 20.8568160485
3460 1 0.0 1.766 22.958 12 11.015446192 1.766 22.8683256536
3461 1 3.532 0.0 21.192 12 11.015446192 1.766 19.6001789607
3462 1 5.298 1.766 21.192 12 11.015446192 1.766 19.8553181106
3463 1 5.298 0.0 22.958 12 11.015446192 1.766 18.8967286205
3464 1 3.532 1.766 22.958 12 11.015446192 1.766 20.9317404544
3465 1 7.064 0.0 21.192 12 11.015446192 1.766 17.8527761473
3466 1 8.83 1.766 21.192 12 11.015446192 1.766 18.6235380507
3467 1 8.83 0.0 22.958 12 11.015446192 1.766 17.438921338
3468 1 7.064 1.766 22.958 12 11.015446192 1.766 19.4490423081
3469 1 10.596 0.0 21.192 12 11.015446192 1.766 16.6789348163
3470 1 12.362 1.766 21.192 12 11.015446192 1.766 17.8254508128
3471 1 12.362 0.0 22.958 12 11.015446192 1.766 16.4956754078
3472 1 10.596 1.766 22.958 12 11.015446192 1.766 18.4753032017
3473 1 14.128 0.0 21.192 12 11.015446192 1.766 15.927620594
3474 1 15.894 1.766 21.192 12 11.015446192 1.766 17.371891097
3475 1 15.894 0.0 22.958 12 11.015446192 1.766 15.9582553593
3476 1 14.128 1.766 22.958 12 11.015446192 1.766 17.8465645025
3477 1 17.66 0.0 21.192 12 11.015446192 1.766 15.5247623354
3478 1 19.426 1.766 21.192 12 11.015446192 1.766 17.3541661244
3479 1 19.426 0.0 22.958 12 11.015446192 1.766 15.9727119046
3480 1 17.66 1.766 22.958 12 11.015446192 1.766 17.5894114806
3481 1 21.192 0.0 21.192 12 11.015446192 1.766 15.9021303968
3482 1 22.958 1.766 21.192 12 11.015446192 1.766 17.960604825
3483 1 22.958 0.0 22.958 12 11.015446192 1.766 16.6852293991
3484 1 21.192 1.766 22.958 12 11.015446192 1.766 17.8321661373
3485 1 24.724 0.0 21.192 12 11.015446192 1.766 16.7642919632
3486 1 26.49 1.766 21.192 12 11.015446192 1.766 18.9324267228
3487 1 26.49 0.0 22.958 12 11.015446192 1.766 17.5286448013
3488 1 24.724 1.766 22.958 12 11.015446192 1.766 18.7232285242
3489 1 28.256 0.0 21.192 12 11.015446192 1.766 17.9267508438
3490 1 30.022 1.766 21.192 12 11.015446192 1.766 20.2790215839
3491 1 30.022 0.0 22.958 12 11.015446192 1.766 18.9751238034
3492 1 28.256 1.766 22.958 12 11.015446192 1.766 19.7708420953
3493 1 31.788 0.0 21.192 12 11.015446192 1.766 19.6632996875
3494 1 33.554 1.766 21.192 12 11.015446192 1.766 22.1131340878
3495 1 33.554 0.0 22.958 12 11.015446192 1.766 20.9238453956
3496 1 31.788 1.766 22.958 12 11.015446192 1.766 21.3579764009
3497 1 35.32 0.0 21.192 12 11.015446192 1.766 21.837407387
3498 1 37.086 1.766 21.192 12 11.015446192 1.766 24.3247349414
3499 1 37.086 0.0 22.958 12 11.015446192 1.766 23.24885668
3500 1 35.32 1.766 22.958 12 11.015446192 1.766 23.3749901118
3501 1 38.852 0.0 21.192 12 11.015446192 1.766 24.288020865
3502 1 40.618 1.766 21.192 12 11.015446192 1.766 23.6861982594
3503 1 40.618 0.0 22.958 12 11.015446192 1.766 23.1921807256
3504 1 38.852 1.766 22.958 12 11.015446192 1.766 25.1081836262
3505 1 0.0 3.532 21.192 12 11.015446192 1.766 21.231550475
3506 1 1.766 5.298 21.192 12 11.015446192 1.766 18.7769859055
3507 1 1.766 3.532 22.958 12 11.015446192 1.766 20.4353500386
3508 1 0.0 5.298 22.958 12 11.015446192 1.766 20.2282278582
3509 1 3.532 3.532 21.192 12 11.015446192 1.766 19.1692962318
3510 1 5.298 5.298 21.192 12 11.015446192 1.766 16.7576151949
3511 1 5.298 3.532 22.958 12 11.015446192 1.766 18.5810655091
3512 1 3.532 5.298 22.958 12 11.015446192 1.766 18.0200379633
3513 1 7.064 3.532 21.192 12 11.015446192 1.766 17.5382269991
3514 1 8.83 5.298 21.192 12 11.015446192 1.766 15.2780947527
3515 1 8.83 3.532 22.958 12 11.015446192 1.766 17.2585239363
3516 1 7.064 5.298 22.958 12 11.015446192 1.766 16.2741898862
3517 1 10.596 3.532 21.192 12 11.015446192 1.766 16.5029405704
3518 1 12.362 5.298 21.192 12 11.015446192 1.766 14.4140185676
3519 1 12.362 3.532 22.958 12 11.015446192 1.766 16.385849442
3520 1 10.596 5.298 22.958 12 11.015446192 1.766 15.1140942477
3521 1 14.128 3.532 21.192 12 11.015446192 1.766 15.8380219969
3522 1 15.894 5.298 21.192 12 11.015446192 1.766 13.9481952847
3523 1 15.894 3.532 22.958 12 11.015446192 1.766 15.9632041585
3524 1 14.128 5.298 22.958 12 11.015446192 1.766 14.3758594542
3525 1 17.66 3.532 21.192 12 11.015446192 1.766 15.5742682845
3526 1 19.426 5.298 21.192 12 11.015446192 1.766 13.8637970752
3527 1 19.426 3.532 22.958 12 11.015446192 1.766 15.8995887048
3528 1 17.66 5.298 22.958 12 11.015446192 1.766 14.1331676739
3529 1 21.192 3.532 21.192 12 11.015446192 1.766 15.8479205422
3530 1 22.958 5.298 21.192 12 11.015446192 1.766 14.6040626627
3531 1 22.958 3.532 22.958 12 11.015446192 1.766 16.5490391834
3532 1 21.192 5.298 22.958 12 11.015446192 1.766 14.4458114942
3533 1 24.724 3.532 21.192 12 11.015446192 1.766 16.8732150589
3534 1 26.49 5.298 21.192 12 11.015446192 1.766 15.9577615531
3535 1 26.49 3.532 22.958 12 11.015446192 1.766 17.8285155202
3536 1 24.724 5.298 22.958 12 11.015446192 1.766 15.5513241547
3537 1 28.256 3.532 21.192 12 11.015446192 1.766 18.2748970407
3538 1 30.022 5.298 21.192 12 11.015446192 1.766 17.5814238648
3539 1 30.022 3.532 22.958 12 11.015446192 1.766 19.3248628144
3540 1 28.256 5.298 22.958 12 11.015446192 1.766 16.9724487397
3541 1 31.788 3.532 21.192 12 11.015446192 1.766 20.0182487667
3542 1 33.554 5.298 21.192 12 11.015446192 1.766 19.7063418968
3543 1 33.554 3.532 22.958 12 11.015446192 1.766 21.276366434
3544 1 31.788 5.298 22.958 12 11.015446192 1.766 18.8367310874
3545 1 35.32 3.532 21.192 12 11.015446192 1.766 22.1909610771
3546 1 37.086 5.298 21.192 12 11.015446192 1.766 22.1928683317
3547 1 37.086 3.532 22.958 12 11.015446192 1.766 23.59803514
3548 1 35.32 5.298 22.958 12 11.015446192 1.766 21.1312779523
3549 1 38.852 3.532 21.192 12 11.015446192 1.766 23.508687442
3550 1 40.618 5.298 21.192 12 11.015446192 1.766 21.0438816212
3551 1 40.618 3.532 22.958 12 11.015446192 1.766 22.6665874225
3552 1 38.852 5.298 22.958 12 11.015446192 1.766 22.6349582131
3553 1 0.0 7.064 21.192 12 11.015446192 1.766 18.5878063828
3554 1 1.766 8.83 21.192 12 11.015446192 1.766 16.1444468026
3555 1 1.766 7.064 22.958 12 11.015446192 1.766 17.7944355268
3556 1 0.0 8.83 22.958 12 11.015446192 1.766 17.8005371819
3557 1 3.532 7.064 21.192 12 11.015446192 1.766 16.3225420921
3558 1 5.298 8.83 21.192 12 11.015446192 1.766 13.8690924278
3559 1 5.298 7.064 22.958 12 11.015446192 1.766 15.6305799381
3560 1 3.532 8.83 22.958 12 11.015446192 1.766 15.3706156659
3561 1 7.064 7.064 21.192 12 11.015446192 1.766 14.3752718243
3562 1 8.83 8.83 21.192 12 11.015446192 1.766 12.0396942246
3563 1 8.83 7.064 22.958 12 11.015446192 1.766 14.032731076
3564 1 7.064 8.83 22.958 12 11.015446192 1.766 13.2809380015
3565 1 10.596 7.064 21.192 12 11.015446192 1.766 13.1044258277
3566 1 12.362 8.83 21.192 12 11.015446192 1.766 11.0100743796
3567 1 12.362 7.064 22.958 12 11.015446192 1.766 12.9890358284
3568 1 10.596 8.83 22.958 12 11.015446192 1.766 11.8494154269
3569 1 14.128 7.064 21.192 12 11.015446192 1.766 12.372764864
3570 1 15.894 8.83 21.192 12 11.015446192 1.766 10.4710601926
3571 1 15.894 7.064 22.958 12 11.015446192 1.766 12.5004563781
3572 1 14.128 8.83 22.958 12 11.015446192 1.766 10.9233883576
3573 1 17.66 7.064 21.192 12 11.015446192 1.766 12.0717926248
3574 1 19.426 8.83 21.192 12 11.015446192 1.766 10.3850969144
3575 1 19.426 7.064 22.958 12 11.015446192 1.766 12.4725172645
3576 1 17.66 8.83 22.958 12 11.015446192 1.766 10.6775958324
3577 1 21.192 7.064 21.192 12 11.015446192 1.766 12.4228390511
3578 1 22.958 8.83 21.192 12 11.015446192 1.766 11.3502522705
3579 1 22.958 7.064 22.958 12 11.015446192 1.766 13.3008597971
3580 1 21.192 8.83 22.958 12 11.015446192 1.766 11.128784148
3581 1 24.724 7.064 21.192 12 11.015446192 1.766 13.6511876503
3582 1 26.49 8.83 21.192 12 11.015446192 1.766 12.7782588786
3583 1 26.49 7.064 22.958 12 11.015446192 1.766 14.6614572721
3584 1 24.724 8.83 22.958 12 11.015446192 1.766 12.3771364006
3585 1 28.256 7.064 21.192 12 11.015446192 1.766 15.1643552629
3586 1 30.022 8.83 21.192 12 11.015446192 1.766 14.7501626366
3587 1 30.022 7.064 22.958 12 11.015446192 1.766 16.4145097851
3588 1 28.256 8.83 22.958 12 11.015446192 1.766 14.0187320723
3589 1 31.788 7.064 21.192 12 11.015446192 1.766 17.2254489747
3590 1 33.554 8.83 21.192 12 11.015446192 1.766 17.2279059564
3591 1 33.554 7.064 22.958 12 11.015446192 1.766 18.6726960379
3592 1 31.788 8.83 22.958 12 11.015446192 1.766 16.2260060012
3593 1 35.32 7.064 21.192 12 11.015446192 1.766 19.7084895975
3594 1 37.086 8.83 21.192 12 11.015446192 1.766 20.0245908193
3595 1 37.086 7.064 22.958 12 11.015446192 1.766 21.2803447144
3596 1 35.32 8.83 22.958 12 11.015446192 1.766 18.8412244981
3597 1 38.852 7.064 21.192 12 11.015446192 1.766 21.1394856443
3598 1 40.618 8.83 21.192 12 11.015446192 1.766 18.6959740518
3599 1 40.618 7.064 22.958 12 11.015446192 1.766 20.216128182
3600 1 38.852 8.83 22.958 12 11.015446192 1.766 20.4467334701
3601 1 0.0 10.596 21.192 12 11.015446192 1.766 16.2688678826
3602 1 1.766 12.362 21.192 12 11.015446192 1.766 13.8555124189
3603 1 1.766 10.596 22.958 12 11.015446192 1.766 15.3856168101
3604 1 0.0 12.362 22.958 12 11.015446192 1.766 15.6319234096
3605 1 3.532 10.596 21.192 12 11.015446192 1.766 13.7152328349
3606 1 5.298 12.362 21.192 12 11.015446192 1.766 11.2972749903
3607 1 5.298 10.596 22.958 12 11.015446192 1.766 12.9739782237
3608 1 3.532 12.362 22.958 12 11.015446192 1.766 12.9723864889
3609 1 7.064 10.596 21.192 12 11.015446192 1.766 11.4305521201
3610 1 8.83 12.362 21.192 12 11.015446192 1.766 9.0243195184
3611 1 8.83 10.596 22.958 12 11.015446192 1.766 10.9966641851
3612 1 7.064 12.362 22.958 12 11.015446192 1.766 10.6239079415
3613 1 10.596 10.596 21.192 12 11.015446192 1.766 9.7844293662
3614 1 12.362 12.362 21.192 12 11.015446192 1.766 7.6289753423
3615 1 12.362 10.596 22.958 12 11.015446192 1.766 9.6758933358
3616 1 10.596 12.362 22.958 12 11.015446192 1.766 8.7894955195
3617 1 14.128 10.596 21.192 12 11.015446192 1.766 8.9267240425
3618 1 15.894 12.362 21.192 12 11.015446192 1.766 6.9939251004
3619 1 15.894 10.596 22.958 12 11.015446192 1.766 9.0454641963
3620 1 14.128 12.362 22.958 12 11.015446192 1.766 7.5427068782
3621 1 17.66 10.596 21.192 12 11.015446192 1.766 8.5934360921
3622 1 19.426 12.362 21.192 12 11.015446192 1.766 6.9602215808
3623 1 19.426 10.596 22.958 12 11.015446192 1.766 9.0676589065
3624 1 17.66 12.362 22.958 12 11.015446192 1.766 7.2220913986
3625 1 21.192 10.596 21.192 12 11.015446192 1.766 9.0800508075
3626 1 22.958 12.362 21.192 12 11.015446192 1.766 8.1610214661
3627 1 22.958 10.596 22.958 12 11.015446192 1.766 10.1019251931
3628 1 21.192 12.362 22.958 12 11.015446192 1.766 7.8973004123
3629 1 24.724 10.596 21.192 12 11.015446192 1.766 10.4443838207
3630 1 26.49 12.362 21.192 12 11.015446192 1.766 9.833350429
3631 1 26.49 10.596 22.958 12 11.015446192 1.766 11.6547543023
3632 1 24.724 12.362 22.958 12 11.015446192 1.766 9.2998522472
3633 1 28.256 10.596 21.192 12 11.015446192 1.766 12.283872648
3634 1 30.022 12.362 21.192 12 11.015446192 1.766 12.287317791
3635 1 30.022 10.596 22.958 12 11.015446192 1.766 13.7975355835
3636 1 28.256 12.362 22.958 12 11.015446192 1.766 11.3989354593
3637 1 31.788 10.596 21.192 12 11.015446192 1.766 14.7530318603
3638 1 33.554 12.362 21.192 12 11.015446192 1.766 15.1727263316
3639 1 33.554 10.596 22.958 12 11.015446192 1.766 16.419666075
3640 1 31.788 12.362 22.958 12 11.015446192 1.766 14.0206332496
3641 1 35.32 10.596 21.192 12 11.015446192 1.766 17.5886446012
3642 1 37.086 12.362 21.192 12 11.015446192 1.766 18.2864610781
3643 1 37.086 10.596 22.958 12 11.015446192 1.766 19.330764361
3644 1 35.32 12.362 22.958 12 11.015446192 1.766 16.9504953867
3645 1 38.852 10.596 21.192 12 11.015446192 1.766 19.1323553205
3646 1 40.618 12.362 21.192 12 11.015446192 1.766 16.756136705
3647 1 40.618 10.596 22.958 12 11.015446192 1.766 18.0373060723
3648 1 38.852 12.362 22.958 12 11.015446192 1.766 18.5844369232
3649 1 0.0 14.128 21.192 12 11.015446192 1.766 14.3937489837
3650 1 1.766 15.894 21.192 12 11.015446192 1.766 12.0533272462
3651 1 1.766 14.128 22.958 12 11.015446192 1.766 13.2542741205
3652 1 0.0 15.894 22.958 12 11.015446192 1.766 13.9836968541
3653 1 3.532 14.128 21.192 12 11.015446192 1.766 11.4441992657
3654 1 5.298 15.894 21.192 12 11.015446192 1.766 9.0363136645
3655 1 5.298 14.128 22.958 12 11.015446192 1.766 10.5866230779
3656 1 3.532 15.894 22.958 12 11.015446192 1.766 10.930213147
3657 1 7.064 14.128 21.192 12 11.015446192 1.766 8.885207144
3658 1 8.83 15.894 21.192 12 11.015446192 1.766 6.479773171
3659 1 8.83 14.128 22.958 12 11.015446192 1.766 8.3593133273
3660 1 7.064 15.894 22.958 12 11.015446192 1.766 8.2671270204
3661 1 10.596 14.128 21.192 12 11.015446192 1.766 6.6853711767
3662 1 12.362 15.894 21.192 12 11.015446192 1.766 4.46590787
3663 1 12.362 14.128 22.958 12 11.015446192 1.766 6.5882134481
3664 1 10.596 15.894 22.958 12 11.015446192 1.766 6.2124843063
3665 1 14.128 14.128 21.192 12 11.015446192 1.766 5.5172119965
3666 1 15.894 15.894 21.192 12 11.015446192 1.766 3.5167900083
3667 1 15.894 14.128 22.958 12 11.015446192 1.766 5.6180777565
3668 1 14.128 15.894 22.958 12 11.015446192 1.766 4.4061875684
3669 1 17.66 14.128 21.192 12 11.015446192 1.766 5.1381944335
3670 1 19.426 15.894 21.192 12 11.015446192 1.766 3.6576110567
3671 1 19.426 14.128 22.958 12 11.015446192 1.766 5.7239947873
3672 1 17.66 15.894 22.958 12 11.015446192 1.766 3.7668730914
3673 1 21.192 14.128 21.192 12 11.015446192 1.766 5.8840218478
3674 1 22.958 15.894 21.192 12 11.015446192 1.766 5.0483268973
3675 1 22.958 14.128 22.958 12 11.015446192 1.766 6.9579980912
3676 1 21.192 15.894 22.958 12 11.015446192 1.766 4.6876063752
3677 1 24.724 14.128 21.192 12 11.015446192 1.766 7.4142469669
3678 1 26.49 15.894 21.192 12 11.015446192 1.766 7.4198570128
3679 1 26.49 14.128 22.958 12 11.015446192 1.766 9.0360407294
3680 1 24.724 15.894 22.958 12 11.015446192 1.766 6.6788337654
3681 1 28.256 14.128 21.192 12 11.015446192 1.766 9.8376537814
3682 1 30.022 15.894 21.192 12 11.015446192 1.766 10.4304526206
3683 1 30.022 14.128 22.958 12 11.015446192 1.766 11.6257227971
3684 1 28.256 15.894 22.958 12 11.015446192 1.766 9.2313224575
3685 1 31.788 14.128 21.192 12 11.015446192 1.766 12.7881576331
3686 1 33.554 15.894 21.192 12 11.015446192 1.766 13.6566376906
3687 1 33.554 14.128 22.958 12 11.015446192 1.766 14.575295035
3688 1 31.788 15.894 22.958 12 11.015446192 1.766 12.2331546874
3689 1 35.32 14.128 21.192 12 11.015446192 1.766 15.9597491904
3690 1 37.086 15.894 21.192 12 11.015446192 1.766 16.98266718
3691 1 37.086 14.128 22.958 12 11.015446192 1.766 17.7284251034
3692 1 35.32 15.894 22.958 12 11.015446192 1.766 15.4606882413
3693 1 38.852 14.128 21.192 12 11.015446192 1.766 17.5592032744
3694 1 40.618 15.894 21.192 12 11.015446192 1.766 15.2920151588
3695 1 40.618 14.128 22.958 12 11.015446192 1.766 16.2549999917
3696 1 38.852 15.894 22.958 12 11.015446192 1.766 17.2211510641
3697 1 0.0 17.66 21.192 12 11.015446192 1.766 13.0921116021
3698 1 1.766 19.426 21.192 12 11.015446192 1.766 11.01974025
3699 1 1.766 17.66 22.958 12 11.015446192 1.766 11.8041329492
3700 1 0.0 19.426 22.958 12 11.015446192 1.766 13.1026933845
3701 1 3.532 17.66 21.192 12 11.015446192 1.766 9.7636657017
3702 1 5.298 19.426 21.192 12 11.015446192 1.766 7.6049642281
3703 1 5.298 17.66 22.958 12 11.015446192 1.766 8.7027788904
3704 1 3.532 19.426 22.958 12 11.015446192 1.766 9.7778502576
3705 1 7.064 17.66 21.192 12 11.015446192 1.766 6.6486839048
3706 1 8.83 19.426 21.192 12 11.015446192 1.766 4.3802208441
3707 1 8.83 17.66 22.958 12 11.015446192 1.766 6.0857851089
3708 1 7.064 19.426 22.958 12 11.015446192 1.766 6.6694966371
3709 1 10.596 17.66 21.192 12 11.015446192 1.766 4.1622704879
3710 1 12.362 19.426 21.192 12 11.015446192 1.766 2.0107337122
3711 1 12.362 17.66 22.958 12 11.015446192 1.766 4.0830167451
3712 1 10.596 19.426 22.958 12 11.015446192 1.766 4.0101294484
3713 1 14.128 17.66 21.192 12 11.015446192 1.766 2.2647977622
3714 1 15.894 19.426 21.192 10 13.76930774 2.9285796899 0.1353182106
3715 1 15.894 17.66 22.958 12 11.015446192 1.766 2.4778938056
3716 1 14.128 19.426 22.958 12 11.015446192 1.766 2.0393351869
3717 1 17.66 17.66 21.192 12 11.015446192 1.766 1.6832022517
3718 1 19.426 19.426 21.192 10 13.3103308153 2.4975011512 0.4385101154
3719 1 19.426 17.66 22.958 12 11.015446192 1.766 2.5432218945
3720 1 17.66 19.426 22.958 11 11.9334000413 2.4975011512 0.7737755425
3721 1 21.192 17.66 21.192 12 11.015446192 1.766 2.7122136434
3722 1 22.958 19.426 21.192 12 11.015446192 1.766 2.6300371439
3723 1 22.958 17.66 22.958 12 11.015446192 1.766 4.3315029224
3724 1 21.192 19.426 22.958 12 11.015446192 1.766 2.2296008869
3725 1 24.724 17.66 21.192 12 11.015446192 1.766 5.0249452802
3726 1 26.49 19.426 21.192 12 11.015446192 1.766 5.828135419
3727 1 26.49 17.66 22.958 12 11.015446192 1.766 6.8831831708
3728 1 24.724 19.426 22.958 12 11.015446192 1.766 4.6919218676
3729 1 28.256 17.66 21.192 12 11.015446192 1.766 8.094623612
3730 1 30.022 19.426 21.192 12 11.015446192 1.766 9.2523404306
3731 1 30.022 17.66 22.958 12 11.015446192 1.766 9.9667419879
3732 1 28.256 19.426 22.958 12 11.015446192 1.766 7.8419922279
3733 1 31.788 17.66 21.192 12 11.015446192 1.766 11.4018206224
3734 1 33.554 19.426 21.192 12 11.015446192 1.766 12.6914635969
3735 1 33.554 17.66 22.958 12 11.015446192 1.766 13.2756818712
3736 1 31.788 19.426 22.958 12 11.015446192 1.766 11.221835919
3737 1 35.32 17.66 21.192 12 11.015446192 1.766 14.8035637133
3738 1 37.086 19.426 21.192 12 11.015446192 1.766 16.134770489
3739 1 37.086 17.66 22.958 12 11.015446192 1.766 16.6763773175
3740 1 35.32 19.426 22.958 12 11.015446192 1.766 14.6654445835
3741 1 38.852 17.66 21.192 12 11.015446192 1.766 16.5053825302
3742 1 40.618 19.426 21.192 12 11.015446192 1.766 14.4908218347
3743 1 40.618 17.66 22.958 12 11.015446192 1.766 15.0959198776
3744 1 38.852 19.426 22.958 12 11.015446192 1.766 16.5137772843
3745 1 0.0 21.192 21.192 12 11.015446192 1.766 12.6236390666
3746 1 1.766 22.958 21.192 12 11.015446192 1.766 10.8062969064
3747 1 1.766 21.192 22.958 12 11.015446192 1.766 11.2115803272
3748 1 0.0 22.958 22.958 12 11.015446192 1.766 12.8162619195
3749 1 3.532 21.192 21.192 12 11.015446192 1.766 9.1261486096
3750 1 5.298 22.958 21.192 12 11.015446192 1.766 7.2930156787
3751 1 5.298 21.192 22.958 12 11.015446192 1.766 7.8809099171
3752 1 3.532 22.958 22.958 12 11.015446192 1.766 9.391143192
3753 1 7.064 21.192 21.192 12 11.015446192 1.766 5.6715911251
3754 1 8.83 22.958 21.192 12 11.015446192 1.766 3.8144659589
3755 1 8.83 21.192 22.958 12 11.015446192 1.766 4.8429331745
3756 1 7.064 22.958 22.958 12 11.015446192 1.766 6.0893857912
3757 1 10.596 21.192 21.192 12 11.015446192 1.766 2.4489458175
3758 1 12.362 22.958 21.192 11 11.9334000413 2.4975011512 0.829602437
3759 1 12.362 21.192 22.958 12 11.015446192 1.766 2.1274164991
3760 1 10.596 22.958 22.958 12 11.015446192 1.766 3.297318016
3761 1 14.128 21.192 21.192 9 19.1176638483 3.4973377285 0.127777069
3762 1 30.022 40.618 38.852 12 11.015446192 1.766 25.0974785022
3763 1 15.894 21.192 22.958 10 13.76930774 2.9285796899 0.1574890255
3764 1 14.128 22.958 22.958 11 11.9334000413 2.4975011512 0.7878391512
3765 1 28.256 38.852 38.852 12 11.015446192 1.766 23.2660349805
3766 1 19.426 22.958 21.192 7 26.1505138391 3.6567289139 0.8293663789
3767 1 19.426 21.192 22.958 11 11.9334000413 2.4975011512 0.695487638
3768 1 17.66 22.958 22.958 9 16.2171846716 3.1700670165 0.2187789706
3769 1 21.192 21.192 21.192 11 11.9334000413 2.4975011512 0.503400942
3770 1 22.958 22.958 21.192 12 11.015446192 1.766 2.2800958825
3771 1 22.958 21.192 22.958 12 11.015446192 1.766 2.9960896522
3772 1 21.192 22.958 22.958 12 11.015446192 1.766 1.6195257381
3773 1 24.724 21.192 21.192 12 11.015446192 1.766 3.7986337616
3774 1 26.49 22.958 21.192 12 11.015446192 1.766 5.4741841415
3775 1 26.49 21.192 22.958 12 11.015446192 1.766 6.0110533478
3776 1 24.724 22.958 22.958 12 11.015446192 1.766 4.6532521873
3777 1 28.256 21.192 21.192 12 11.015446192 1.766 7.2357408764
3778 1 30.022 22.958 21.192 12 11.015446192 1.766 8.8807799618
3779 1 30.022 21.192 22.958 12 11.015446192 1.766 9.3687429138
3780 1 28.256 22.958 22.958 12 11.015446192 1.766 7.7821100422
3781 1 31.788 21.192 21.192 12 11.015446192 1.766 10.6804778414
3782 1 33.554 22.958 21.192 12 11.015446192 1.766 12.3491932237
3783 1 33.554 21.192 22.958 12 11.015446192 1.766 12.7766743948
3784 1 31.788 22.958 22.958 12 11.015446192 1.766 11.0586537027
3785 1 35.32 21.192 21.192 12 11.015446192 1.766 14.1485367614
3786 1 37.086 22.958 21.192 12 11.015446192 1.766 15.8456960354
3787 1 37.086 21.192 22.958 12 11.015446192 1.766 16.2019628166
3788 1 35.32 22.958 22.958 12 11.015446192 1.766 14.4427005916
3789 1 38.852 21.192 21.192 12 11.015446192 1.766 16.1361696323
3790 1 40.618 22.958 21.192 12 11.015446192 1.766 14.328784874
3791 1 40.618 21.192 22.958 12 11.015446192 1.766 14.6369518011
3792 1 38.852 22.958 22.958 12 11.015446192 1.766 16.2870997028
3793 1 0.0 24.724 21.192 12 11.015446192 1.766 12.6983454879
3794 1 1.766 26.49 21.192 12 11.015446192 1.766 11.2398216366
3795 1 1.766 24.724 22.958 12 11.015446192 1.766 11.2472016571
3796 1 0.0 26.49 22.958 12 11.015446192 1.766 13.2843071279
3797 1 3.532 24.724 21.192 12 11.015446192 1.766 9.2193252944
3798 1 5.298 26.49 21.192 12 11.015446192 1.766 7.8755440695
3799 1 5.298 24.724 22.958 12 11.015446192 1.766 7.9316814092
3800 1 3.532 26.49 22.958 12 11.015446192 1.766 9.995702467
3801 1 7.064 24.724 21.192 12 11.015446192 1.766 5.7944737745
3802 1 8.83 26.49 21.192 12 11.015446192 1.766 4.7607611112
3803 1 8.83 24.724 22.958 12 11.015446192 1.766 4.9237923334
3804 1 7.064 26.49 22.958 12 11.015446192 1.766 6.9417077463
3805 1 10.596 24.724 21.192 12 11.015446192 1.766 2.6422173808
3806 1 12.362 26.49 21.192 12 11.015446192 1.766 2.2751590525
3807 1 12.362 24.724 22.958 12 11.015446192 1.766 2.3423868522
3808 1 10.596 26.49 22.958 12 11.015446192 1.766 4.2115639918
3809 1 14.128 24.724 21.192 9 17.8593021131 3.4324870154 0.0092342628
3810 1 15.894 26.49 21.192 10 13.76930774 2.9285796899 0.289528476
3811 1 15.894 24.724 22.958 10 13.76930774 2.9285796899 0.08937083
3812 1 14.128 26.49 22.958 12 11.015446192 1.766 2.0597498208
3813 1 24.724 40.618 40.618 12 11.015446192 1.766 23.7756511003
3814 1 19.426 26.49 21.192 10 13.3103308153 2.4975011512 0.420950574
3815 1 19.426 24.724 22.958 11 11.9334000413 2.4975011512 0.501927385
3816 1 17.66 26.49 22.958 11 11.9334000413 2.4975011512 0.8319596358
3817 1 21.192 24.724 21.192 11 11.9334000413 2.4975011512 0.7717645063
3818 1 22.958 26.49 21.192 12 11.015446192 1.766 2.6226672649
3819 1 22.958 24.724 22.958 12 11.015446192 1.766 3.1927665986
3820 1 21.192 26.49 22.958 12 11.015446192 1.766 2.5423249387
3821 1 24.724 24.724 21.192 12 11.015446192 1.766 3.8117750466
3822 1 26.49 26.49 21.192 12 11.015446192 1.766 5.7600680754
3823 1 26.49 24.724 22.958 12 11.015446192 1.766 6.1152217447
3824 1 24.724 26.49 22.958 12 11.015446192 1.766 4.8693297126
3825 1 28.256 24.724 21.192 12 11.015446192 1.766 7.2515409226
3826 1 30.022 26.49 21.192 12 11.015446192 1.766 9.1731560414
3827 1 30.022 24.724 22.958 12 11.015446192 1.766 9.3950189927
3828 1 28.256 26.49 22.958 12 11.015446192 1.766 7.8869357406
3829 1 31.788 24.724 21.192 12 11.015446192 1.766 10.7333705439
3830 1 33.554 26.49 21.192 12 11.015446192 1.766 12.6516895032
3831 1 33.554 24.724 22.958 12 11.015446192 1.766 12.7952258146
3832 1 31.788 26.49 22.958 12 11.015446192 1.766 11.2092455992
3833 1 35.32 24.724 21.192 12 11.015446192 1.766 14.2264128103
3834 1 37.086 26.49 21.192 12 11.015446192 1.766 16.1524587202
3835 1 37.086 24.724 22.958 12 11.015446192 1.766 16.239901667
3836 1 35.32 26.49 22.958 12 11.015446192 1.766 14.6301287222
3837 1 38.852 24.724 21.192 12 11.015446192 1.766 16.1966658316
3838 1 40.618 26.49 21.192 12 11.015446192 1.766 14.6830866801
3839 1 40.618 24.724 22.958 12 11.015446192 1.766 14.6641593095
3840 1 38.852 26.49 22.958 12 11.015446192 1.766 16.669239653
3841 1 0.0 28.256 21.192 12 11.015446192 1.766 13.3864577323
3842 1 1.766 30.022 21.192 12 11.015446192 1.766 12.4609987874
3843 1 1.766 28.256 22.958 12 11.015446192 1.766 12.1102362296
3844 1 0.0 30.022 22.958 12 11.015446192 1.766 14.3443017861
3845 1 3.532 28.256 21.192 12 11.015446192 1.766 10.1199224594
3846 1 5.298 30.022 21.192 12 11.015446192 1.766 9.5376671544
3847 1 5.298 28.256 22.958 12 11.015446192 1.766 9.0746033249
3848 1 3.532 30.022 22.958 12 11.015446192 1.766 11.356697306
3849 1 7.064 28.256 21.192 12 11.015446192 1.766 7.1118533838
3850 1 8.83 30.022 21.192 12 11.015446192 1.766 7.0396324699
3851 1 8.83 28.256 22.958 12 11.015446192 1.766 6.4456985425
3852 1 7.064 30.022 22.958 12 11.015446192 1.766 8.7680861037
3853 1 10.596 28.256 21.192 12 11.015446192 1.766 4.6553950831
3854 1 12.362 30.022 21.192 12 11.015446192 1.766 4.640809867
3855 1 12.362 28.256 22.958 12 11.015446192 1.766 4.2340347307
3856 1 10.596 30.022 22.958 12 11.015446192 1.766 6.3830734133
3857 1 14.128 28.256 21.192 12 11.015446192 1.766 2.4390809509
3858 1 15.894 30.022 21.192 12 11.015446192 1.766 3.5526480382
3859 1 15.894 28.256 22.958 12 11.015446192 1.766 2.5939058638
3860 1 14.128 30.022 22.958 12 11.015446192 1.766 4.5740273616
3861 1 17.66 28.256 21.192 12 11.015446192 1.766 1.8925235638
3862 1 19.426 30.022 21.192 12 11.015446192 1.766 3.7551500976
3863 1 19.426 28.256 22.958 12 11.015446192 1.766 2.7351925219
3864 1 17.66 30.022 22.958 12 11.015446192 1.766 4.1358632334
3865 1 21.192 28.256 21.192 12 11.015446192 1.766 2.5697757321
3866 1 22.958 30.022 21.192 12 11.015446192 1.766 4.7360799492
3867 1 22.958 28.256 22.958 12 11.015446192 1.766 4.4982060666
3868 1 21.192 30.022 22.958 12 11.015446192 1.766 4.7438838967
3869 1 24.724 28.256 21.192 12 11.015446192 1.766 4.7735876953
3870 1 26.49 30.022 21.192 12 11.015446192 1.766 7.0910041652
3871 1 26.49 28.256 22.958 12 11.015446192 1.766 6.941851499
3872 1 24.724 30.022 22.958 12 11.015446192 1.766 6.511900247
3873 1 28.256 28.256 21.192 12 11.015446192 1.766 7.936270182
3874 1 30.022 30.022 21.192 12 11.015446192 1.766 10.1530426403
3875 1 30.022 28.256 22.958 12 11.015446192 1.766 9.9742968558
3876 1 28.256 30.022 22.958 12 11.015446192 1.766 9.0956998418
3877 1 31.788 28.256 21.192 12 11.015446192 1.766 11.2883146142
3878 1 33.554 30.022 21.192 12 11.015446192 1.766 13.4475372333
3879 1 33.554 28.256 22.958 12 11.015446192 1.766 13.2440572822
3880 1 31.788 30.022 22.958 12 11.015446192 1.766 12.1617446715
3881 1 35.32 28.256 21.192 12 11.015446192 1.766 14.6990008394
3882 1 37.086 30.022 21.192 12 11.015446192 1.766 16.8338489702
3883 1 37.086 28.256 22.958 12 11.015446192 1.766 16.6214787796
3884 1 35.32 30.022 22.958 12 11.015446192 1.766 15.4062647391
3885 1 38.852 28.256 21.192 12 11.015446192 1.766 16.7610178286
3886 1 40.618 30.022 21.192 12 11.015446192 1.766 15.6376447975
3887 1 40.618 28.256 22.958 12 11.015446192 1.766 15.3595984833
3888 1 38.852 30.022 22.958 12 11.015446192 1.766 17.5354914891
3889 1 0.0 31.788 21.192 12 11.015446192 1.766 14.8531200417
3890 1 1.766 33.554 21.192 12 11.015446192 1.766 14.4626912826
3891 1 1.766 31.788 22.958 12 11.015446192 1.766 13.7140710912
3892 1 0.0 33.554 22.958 12 11.015446192 1.766 16.1137190645
3893 1 3.532 31.788 21.192 12 11.015446192 1.766 11.9929460493
3894 1 5.298 33.554 21.192 12 11.015446192 1.766 11.8982429184
3895 1 5.298 31.788 22.958 12 11.015446192 1.766 11.125032578
3896 1 3.532 33.554 22.958 12 11.015446192 1.766 13.5228518463
3897 1 7.064 31.788 21.192 12 11.015446192 1.766 9.4512063751
3898 1 8.83 33.554 21.192 12 11.015446192 1.766 9.4126409376
3899 1 8.83 31.788 22.958 12 11.015446192 1.766 8.6440536331
3900 1 7.064 33.554 22.958 12 11.015446192 1.766 10.9874944283
3901 1 10.596 31.788 21.192 12 11.015446192 1.766 6.9878430736
3902 1 12.362 33.554 21.192 12 11.015446192 1.766 7.7830894977
3903 1 12.362 31.788 22.958 12 11.015446192 1.766 6.7612903854
3904 1 10.596 33.554 22.958 12 11.015446192 1.766 8.95710236
3905 1 14.128 31.788 21.192 12 11.015446192 1.766 5.6404132575
3906 1 15.894 33.554 21.192 12 11.015446192 1.766 7.0025738826
3907 1 15.894 31.788 22.958 12 11.015446192 1.766 5.6826166753
3908 1 14.128 33.554 22.958 12 11.015446192 1.766 7.6485603923
3909 1 17.66 31.788 21.192 12 11.015446192 1.766 5.2161404671
3910 1 19.426 33.554 21.192 12 11.015446192 1.766 7.0960937897
3911 1 19.426 31.788 22.958 12 11.015446192 1.766 5.9661506478
3912 1 17.66 33.554 22.958 12 11.015446192 1.766 7.4480568977
3913 1 21.192 31.788 21.192 12 11.015446192 1.766 5.8227169256
3914 1 22.958 33.554 21.192 12 11.015446192 1.766 7.8768008526
3915 1 22.958 31.788 22.958 12 11.015446192 1.766 6.895402546
3916 1 21.192 33.554 22.958 12 11.015446192 1.766 7.9065455688
3917 1 24.724 31.788 21.192 12 11.015446192 1.766 7.065808791
3918 1 26.49 33.554 21.192 12 11.015446192 1.766 9.4813437052
3919 1 26.49 31.788 22.958 12 11.015446192 1.766 8.7256837791
3920 1 24.724 33.554 22.958 12 11.015446192 1.766 9.0564001244
3921 1 28.256 31.788 21.192 12 11.015446192 1.766 9.5001349809
3922 1 30.022 33.554 21.192 12 11.015446192 1.766 11.9456189978
3923 1 30.022 31.788 22.958 12 11.015446192 1.766 11.3551526717
3924 1 28.256 33.554 22.958 12 11.015446192 1.766 11.0609806978
3925 1 31.788 31.788 21.192 12 11.015446192 1.766 12.4711476393
3926 1 33.554 33.554 21.192 12 11.015446192 1.766 14.847551853
3927 1 33.554 31.788 22.958 12 11.015446192 1.766 14.3767685863
3928 1 31.788 33.554 22.958 12 11.015446192 1.766 13.6975272507
3929 1 35.32 31.788 21.192 12 11.015446192 1.766 15.6766236871
3930 1 37.086 33.554 21.192 12 11.015446192 1.766 17.9764241943
3931 1 37.086 31.788 22.958 12 11.015446192 1.766 17.5895851506
3932 1 35.32 33.554 22.958 12 11.015446192 1.766 16.6688109825
3933 1 38.852 31.788 21.192 12 11.015446192 1.766 17.9540982232
3934 1 40.618 33.554 21.192 12 11.015446192 1.766 17.2750943028
3935 1 40.618 31.788 22.958 12 11.015446192 1.766 16.653383738
3936 1 38.852 33.554 22.958 12 11.015446192 1.766 19.0101659677
3937 1 0.0 35.32 21.192 12 11.015446192 1.766 16.940576948
3938 1 1.766 37.086 21.192 12 11.015446192 1.766 16.8368352651
3939 1 1.766 35.32 22.958 12 11.015446192 1.766 15.9512920559
3940 1 0.0 37.086 22.958 12 11.015446192 1.766 18.398231938
3941 1 3.532 35.32 21.192 12 11.015446192 1.766 14.3626630937
3942 1 5.298 37.086 21.192 12 11.015446192 1.766 14.3373149027
3943 1 5.298 35.32 22.958 12 11.015446192 1.766 13.386763179
3944 1 3.532 37.086 22.958 12 11.015446192 1.766 15.816473912
3945 1 7.064 35.32 21.192 12 11.015446192 1.766 11.8676321151
3946 1 8.83 37.086 21.192 12 11.015446192 1.766 12.3526605836
3947 1 8.83 35.32 22.958 12 11.015446192 1.766 11.2354373874
3948 1 7.064 37.086 22.958 12 11.015446192 1.766 13.5910061395
3949 1 10.596 35.32 21.192 12 11.015446192 1.766 10.0172521629
3950 1 12.362 37.086 21.192 12 11.015446192 1.766 11.1549759913
3951 1 12.362 35.32 22.958 12 11.015446192 1.766 9.8210754513
3952 1 10.596 37.086 22.958 12 11.015446192 1.766 12.0082780456
3953 1 14.128 35.32 21.192 12 11.015446192 1.766 9.056865345
3954 1 15.894 37.086 21.192 12 11.015446192 1.766 10.4535658304
3955 1 15.894 35.32 22.958 12 11.015446192 1.766 9.0736016839
3956 1 14.128 37.086 22.958 12 11.015446192 1.766 11.0013271803
3957 1 17.66 35.32 21.192 12 11.015446192 1.766 8.6038088121
3958 1 19.426 37.086 21.192 12 11.015446192 1.766 10.451832176
3959 1 19.426 35.32 22.958 12 11.015446192 1.766 9.2878714159
3960 1 17.66 37.086 22.958 12 11.015446192 1.766 10.788637564
3961 1 21.192 35.32 21.192 12 11.015446192 1.766 9.2150265028
3962 1 22.958 37.086 21.192 12 11.015446192 1.766 11.2520032908
3963 1 22.958 35.32 22.958 12 11.015446192 1.766 9.9894750845
3964 1 21.192 37.086 22.958 12 11.015446192 1.766 11.2443149387
3965 1 24.724 35.32 21.192 12 11.015446192 1.766 10.1002087234
3966 1 26.49 37.086 21.192 12 11.015446192 1.766 12.4281722245
3967 1 26.49 35.32 22.958 12 11.015446192 1.766 11.3236972672
3968 1 24.724 37.086 22.958 12 11.015446192 1.766 12.1071040963
3969 1 28.256 35.32 21.192 12 11.015446192 1.766 11.9306800746
3970 1 30.022 37.086 21.192 12 11.015446192 1.766 14.3965759689
3971 1 30.022 35.32 22.958 12 11.015446192 1.766 13.4546666471
3972 1 28.256 37.086 22.958 12 11.015446192 1.766 13.6714622621
3973 1 31.788 35.32 21.192 12 11.015446192 1.766 14.4089585268
3974 1 33.554 37.086 21.192 12 11.015446192 1.766 16.8823393643
3975 1 33.554 35.32 22.958 12 11.015446192 1.766 16.0866415814
3976 1 31.788 37.086 22.958 12 11.015446192 1.766 15.8803601713
3977 1 35.32 35.32 21.192 12 11.015446192 1.766 17.2581891464
3978 1 37.086 37.086 21.192 12 11.015446192 1.766 19.6904904255
3979 1 37.086 35.32 22.958 12 11.015446192 1.766 19.0126817718
3980 1 35.32 37.086 22.958 12 11.015446192 1.766 18.5044007186
3981 1 38.852 35.32 21.192 12 11.015446192 1.766 19.715922889
3982 1 40.618 37.086 21.192 12 11.015446192 1.766 19.4234878311
3983 1 40.618 35.32 22.958 12 11.015446192 1.766 18.5392330554
3984 1 38.852 37.086 22.958 12 11.015446192 1.766 20.9816445132
3985 1 0.0 38.852 21.192 12 11.015446192 1.766 19.3170126143
3986 1 1.766 40.618 21.192 12 11.015446192 1.766 19.2981730694
3987 1 1.766 38.852 22.958 12 11.015446192 1.766 18.2644816408
3988 1 0.0 40.618 22.958 12 11.015446192 1.766 20.7243035156
3989 1 3.532 38.852 21.192 12 11.015446192 1.766 16.8152171921
3990 1 5.298 40.618 21.192 12 11.015446192 1.766 17.1609749342
3991 1 5.298 38.852 22.958 12 11.015446192 1.766 15.9897112696
3992 1 3.532 40.618 22.958 12 11.015446192 1.766 18.4147036111
3993 1 7.064 38.852 21.192 12 11.015446192 1.766 14.741306933
3994 1 8.83 40.618 21.192 12 11.015446192 1.766 15.5411931835
3995 1 8.83 38.852 22.958 12 11.015446192 1.766 14.2372922763
3996 1 7.064 40.618 22.958 12 11.015446192 1.766 16.5425484723
3997 1 10.596 38.852 21.192 12 11.015446192 1.766 13.2970214322
3998 1 12.362 40.618 21.192 12 11.015446192 1.766 14.5747111422
3999 1 12.362 38.852 22.958 12 11.015446192 1.766 13.1117355645
4000 1 10.596 40.618 22.958 12 11.015446192 1.766 15.2620142305
4001 1 14.128 38.852 21.192 12 11.015446192 1.766 12.4917995519
4002 1 15.894 40.618 21.192 12 11.015446192 1.766 13.9048301266
4003 1 15.894 38.852 22.958 12 11.015446192 1.766 12.5133907663
4004 1 14.128 40.618 22.958 12 11.015446192 1.766 14.4377819443
4005 1 17.66 38.852 21.192 12 11.015446192 1.766 12.0438823704
4006 1 19.426 40.618 21.192 12 11.015446192 1.766 13.8826839931
4007 1 19.426 38.852 22.958 12 11.015446192 1.766 12.6139860048
4008 1 17.66 40.618 22.958 12 11.015446192 1.766 14.1792832416
4009 1 21.192 38.852 21.192 12 11.015446192 1.766 12.5265561164
4010 1 22.958 40.618 21.192 12 11.015446192 1.766 14.7010616094
4011 1 22.958 38.852 22.958 12 11.015446192 1.766 13.302804524
4012 1 21.192 40.618 22.958 12 11.015446192 1.766 14.5835214783
4013 1 24.724 38.852 21.192 12 11.015446192 1.766 13.3810622389
4014 1 26.49 40.618 21.192 12 11.015446192 1.766 15.6196382554
4015 1 26.49 38.852 22.958 12 11.015446192 1.766 14.3270628597
4016 1 24.724 40.618 22.958 12 11.015446192 1.766 15.3654028253
4017 1 28.256 38.852 21.192 12 11.015446192 1.766 14.8114731687
4018 1 30.022 40.618 21.192 12 11.015446192 1.766 17.2271597779
4019 1 30.022 38.852 22.958 12 11.015446192 1.766 16.06445346
4020 1 28.256 40.618 22.958 12 11.015446192 1.766 16.6259590632
4021 1 31.788 38.852 21.192 12 11.015446192 1.766 16.8717721717
4022 1 33.554 40.618 21.192 12 11.015446192 1.766 19.352700504
4023 1 33.554 38.852 22.958 12 11.015446192 1.766 18.3253553241
4024 1 31.788 40.618 22.958 12 11.015446192 1.766 18.4851149186
4025 1 35.32 38.852 21.192 12 11.015446192 1.766 19.3619137225
4026 1 37.086 40.618 21.192 12 11.015446192 1.766 21.8455727227
4027 1 37.086 38.852 22.958 12 11.015446192 1.766 20.9408853333
4028 1 35.32 40.618 22.958 12 11.015446192 1.766 20.7828410074
4029 1 38.852 38.852 21.192 12 11.015446192 1.766 21.9097155554
4030 1 40.618 40.618 21.192 12 11.015446192 1.766 21.8011457254
4031 1 40.618 38.852 22.958 12 11.015446192 1.766 20.8571614234
4032 1 38.852 40.618 22.958 12 11.015446192 1.766 23.3242888602
4033 1 0.0 0.0 24.724 12 11.015446192 1.766 22.3231171675
4034 1 1.766 1.766 24.724 12 11.015446192 1.766 22.2377355779
4035 1 1.766 0.0 26.49 12 11.015446192 1.766 21.7080836865
4036 1 0.0 1.766 26.49 12 11.015446192 1.766 23.7354383319
4037 1 3.532 0.0 24.724 12 11.015446192 1.766 20.1971808169
4038 1 5.298 1.766 24.724 12 11.015446192 1.766 20.5467600337
4039 1 5.298 0.0 26.49 12 11.015446192 1.766 19.8323088473
4040 1 3.532 1.766 26.49 12 11.015446192 1.766 21.8757507999
4041 1 7.064 0.0 24.724 12 11.015446192 1.766 18.5062344583
4042 1 8.83 1.766 24.724 12 11.015446192 1.766 19.3113220241
4043 1 8.83 0.0 26.49 12 11.015446192 1.766 18.3828340679
4044 1 7.064 1.766 26.49 12 11.015446192 1.766 20.4202291014
4045 1 10.596 0.0 24.724 12 11.015446192 1.766 17.2866725517
4046 1 12.362 1.766 24.724 12 11.015446192 1.766 18.3930524042
4047 1 12.362 0.0 26.49 12 11.015446192 1.766 17.2780747627
4048 1 10.596 1.766 26.49 12 11.015446192 1.766 19.2368720938
4049 1 14.128 0.0 24.724 12 11.015446192 1.766 16.4827215403
4050 1 15.894 1.766 24.724 12 11.015446192 1.766 18.0360396361
4051 1 15.894 0.0 26.49 12 11.015446192 1.766 16.8432139323
4052 1 14.128 1.766 26.49 12 11.015446192 1.766 18.5906612211
4053 1 17.66 0.0 24.724 12 11.015446192 1.766 16.3646943672
4054 1 19.426 1.766 24.724 12 11.015446192 1.766 18.0091048183
4055 1 19.426 0.0 26.49 12 11.015446192 1.766 17.0772173156
4056 1 17.66 1.766 26.49 12 11.015446192 1.766 18.3276855555
4057 1 21.192 0.0 24.724 12 11.015446192 1.766 16.7246852595
4058 1 22.958 1.766 24.724 12 11.015446192 1.766 18.6159537761
4059 1 22.958 0.0 26.49 12 11.015446192 1.766 17.5393167588
4060 1 21.192 1.766 26.49 12 11.015446192 1.766 18.6521320259
4061 1 24.724 0.0 24.724 12 11.015446192 1.766 17.4704054851
4062 1 26.49 1.766 24.724 12 11.015446192 1.766 19.570608113
4063 1 26.49 0.0 26.49 12 11.015446192 1.766 18.5425768947
4064 1 24.724 1.766 26.49 12 11.015446192 1.766 19.5957800648
4065 1 28.256 0.0 24.724 12 11.015446192 1.766 18.5994708557
4066 1 30.022 1.766 24.724 12 11.015446192 1.766 20.8760780967
4067 1 30.022 0.0 26.49 12 11.015446192 1.766 19.9274250131
4068 1 28.256 1.766 26.49 12 11.015446192 1.766 20.6865449376
4069 1 31.788 0.0 24.724 12 11.015446192 1.766 20.2784929148
4070 1 33.554 1.766 24.724 12 11.015446192 1.766 22.6619200308
4071 1 33.554 0.0 26.49 12 11.015446192 1.766 21.7911507369
4072 1 31.788 1.766 26.49 12 11.015446192 1.766 22.2083340267
4073 1 35.32 0.0 24.724 12 11.015446192 1.766 22.3929516072
4074 1 37.086 1.766 24.724 12 11.015446192 1.766 24.8246782511
4075 1 37.086 0.0 26.49 12 11.015446192 1.766 24.0324006546
4076 1 35.32 1.766 26.49 12 11.015446192 1.766 24.154442801
4077 1 38.852 0.0 24.724 12 11.015446192 1.766 24.7723041964
4078 1 40.618 1.766 24.724 12 11.015446192 1.766 24.3272371506
4079 1 40.618 0.0 26.49 12 11.015446192 1.766 23.9606212036
4080 1 38.852 1.766 26.49 12 11.015446192 1.766 25.9450118628
4081 1 0.0 3.532 24.724 12 11.015446192 1.766 21.913926357
4082 1 1.766 5.298 24.724 12 11.015446192 1.766 19.5218055871
4083 1 1.766 3.532 26.49 12 11.015446192 1.766 21.4012673879
4084 1 0.0 5.298 26.49 12 11.015446192 1.766 21.2121237241
4085 1 3.532 3.532 24.724 12 11.015446192 1.766 19.8846073291
4086 1 5.298 5.298 24.724 12 11.015446192 1.766 17.5713789337
4087 1 5.298 3.532 26.49 12 11.015446192 1.766 19.638398867
4088 1 3.532 5.298 26.49 12 11.015446192 1.766 19.1084400936
4089 1 7.064 3.532 24.724 12 11.015446192 1.766 18.3173441547
4090 1 8.83 5.298 24.724 12 11.015446192 1.766 16.1246232995
4091 1 8.83 3.532 26.49 12 11.015446192 1.766 18.2243990502
4092 1 7.064 5.298 26.49 12 11.015446192 1.766 17.4367249356
4093 1 10.596 3.532 24.724 12 11.015446192 1.766 17.151405607
4094 1 12.362 5.298 24.724 12 11.015446192 1.766 15.0325079273
4095 1 12.362 3.532 26.49 12 11.015446192 1.766 17.1919480311
4096 1 10.596 5.298 26.49 12 11.015446192 1.766 16.0539454899
4097 1 14.128 3.532 24.724 12 11.015446192 1.766 16.4331286703
4098 1 15.894 5.298 24.724 12 11.015446192 1.766 14.5832209771
4099 1 15.894 3.532 26.49 12 11.015446192 1.766 16.7161184106
4100 1 14.128 5.298 26.49 12 11.015446192 1.766 15.2648643609
4101 1 17.66 3.532 24.724 12 11.015446192 1.766 16.2248886958
4102 1 19.426 5.298 24.724 12 11.015446192 1.766 14.5835165559
4103 1 19.426 3.532 26.49 12 11.015446192 1.766 16.7035450987
4104 1 17.66 5.298 26.49 12 11.015446192 1.766 14.9189121
4105 1 21.192 3.532 24.724 12 11.015446192 1.766 16.5479473869
4106 1 22.958 5.298 24.724 12 11.015446192 1.766 15.3560907092
4107 1 22.958 3.532 26.49 12 11.015446192 1.766 17.4210306897
4108 1 21.192 5.298 26.49 12 11.015446192 1.766 15.316259462
4109 1 24.724 3.532 24.724 12 11.015446192 1.766 17.5381948542
4110 1 26.49 5.298 24.724 12 11.015446192 1.766 16.5968330062
4111 1 26.49 3.532 26.49 12 11.015446192 1.766 18.582827589
4112 1 24.724 5.298 26.49 12 11.015446192 1.766 16.3944646169
4113 1 28.256 3.532 24.724 12 11.015446192 1.766 18.897622916
4114 1 30.022 5.298 24.724 12 11.015446192 1.766 18.2621318746
4115 1 30.022 3.532 26.49 12 11.015446192 1.766 20.1548097156
4116 1 28.256 5.298 26.49 12 11.015446192 1.766 17.8154467904
4117 1 31.788 3.532 24.724 12 11.015446192 1.766 20.6253195791
4118 1 33.554 5.298 24.724 12 11.015446192 1.766 20.3227319769
4119 1 33.554 3.532 26.49 12 11.015446192 1.766 22.1238304103
4120 1 31.788 5.298 26.49 12 11.015446192 1.766 19.7499358079
4121 1 35.32 3.532 24.724 12 11.015446192 1.766 22.7401028489
4122 1 37.086 5.298 24.724 12 11.015446192 1.766 22.7419640498
4123 1 37.086 3.532 26.49 12 11.015446192 1.766 24.3724395686
4124 1 35.32 5.298 26.49 12 11.015446192 1.766 21.9927137014
4125 1 38.852 3.532 24.724 12 11.015446192 1.766 24.2730460928
4126 1 40.618 5.298 24.724 12 11.015446192 1.766 21.8609782464
4127 1 40.618 3.532 26.49 12 11.015446192 1.766 23.5650552632
4128 1 38.852 5.298 26.49 12 11.015446192 1.766 23.5531430289
4129 1 0.0 7.064 24.724 12 11.015446192 1.766 19.4550847285
4130 1 1.766 8.83 24.724 12 11.015446192 1.766 17.0729134544
4131 1 1.766 7.064 26.49 12 11.015446192 1.766 18.8951106379
4132 1 0.0 8.83 26.49 12 11.015446192 1.766 18.8417868711
4133 1 3.532 7.064 24.724 12 11.015446192 1.766 17.1597389951
4134 1 5.298 8.83 24.724 12 11.015446192 1.766 14.8420825823
4135 1 5.298 7.064 26.49 12 11.015446192 1.766 16.8738182937
4136 1 3.532 8.83 26.49 12 11.015446192 1.766 16.6282579148
4137 1 7.064 7.064 24.724 12 11.015446192 1.766 15.3161395472
4138 1 8.83 8.83 24.724 12 11.015446192 1.766 13.1131071558
4139 1 8.83 7.064 26.49 12 11.015446192 1.766 15.2353995593
4140 1 7.064 8.83 26.49 12 11.015446192 1.766 14.6958082768
4141 1 10.596 7.064 24.724 12 11.015446192 1.766 13.9349234511
4142 1 12.362 8.83 24.724 12 11.015446192 1.766 11.772776241
4143 1 12.362 7.064 26.49 12 11.015446192 1.766 13.9896397002
4144 1 10.596 8.83 26.49 12 11.015446192 1.766 13.0518631478
4145 1 14.128 7.064 24.724 12 11.015446192 1.766 13.0458675347
4146 1 15.894 8.83 24.724 12 11.015446192 1.766 11.1667415437
4147 1 15.894 7.064 26.49 12 11.015446192 1.766 13.3646728964
4148 1 14.128 8.83 26.49 12 11.015446192 1.766 12.0530122031
4149 1 17.66 7.064 24.724 12 11.015446192 1.766 12.7705486275
4150 1 19.426 8.83 24.724 12 11.015446192 1.766 11.1764476048
4151 1 19.426 7.064 26.49 12 11.015446192 1.766 13.3474088605
4152 1 17.66 8.83 26.49 12 11.015446192 1.766 11.584207641
4153 1 21.192 7.064 24.724 12 11.015446192 1.766 13.2128645028
4154 1 22.958 8.83 24.724 12 11.015446192 1.766 12.1369897679
4155 1 22.958 7.064 26.49 12 11.015446192 1.766 14.2277896542
4156 1 21.192 8.83 26.49 12 11.015446192 1.766 12.0916389432
4157 1 24.724 7.064 24.724 12 11.015446192 1.766 14.3307156331
4158 1 26.49 8.83 24.724 12 11.015446192 1.766 13.5518563809
4159 1 26.49 7.064 26.49 12 11.015446192 1.766 15.5248270385
4160 1 24.724 8.83 26.49 12 11.015446192 1.766 13.3088462613
4161 1 28.256 7.064 24.724 12 11.015446192 1.766 15.9041777582
4162 1 30.022 8.83 24.724 12 11.015446192 1.766 15.5529649057
4163 1 30.022 7.064 26.49 12 11.015446192 1.766 17.376092439
4164 1 28.256 8.83 26.49 12 11.015446192 1.766 15.0187862929
4165 1 31.788 7.064 24.724 12 11.015446192 1.766 17.9273427042
4166 1 33.554 8.83 24.724 12 11.015446192 1.766 17.9297035028
4167 1 33.554 7.064 26.49 12 11.015446192 1.766 19.6307772903
4168 1 31.788 8.83 26.49 12 11.015446192 1.766 17.2723655069
4169 1 35.32 7.064 24.724 12 11.015446192 1.766 20.3248145445
4170 1 37.086 8.83 24.724 12 11.015446192 1.766 20.6214424976
4171 1 37.086 7.064 26.49 12 11.015446192 1.766 22.1154013861
4172 1 35.32 8.83 26.49 12 11.015446192 1.766 19.7326035107
4173 1 38.852 7.064 24.724 12 11.015446192 1.766 21.9249811752
4174 1 40.618 8.83 24.724 12 11.015446192 1.766 19.5151544194
4175 1 40.618 7.064 26.49 12 11.015446192 1.766 21.181223466
4176 1 38.852 8.83 26.49 12 11.015446192 1.766 21.3550274821
4177 1 0.0 10.596 24.724 12 11.015446192 1.766 17.1303084908
4178 1 1.766 12.362 24.724 12 11.015446192 1.766 14.7827165963
4179 1 1.766 10.596 26.49 12 11.015446192 1.766 16.5486150922
4180 1 0.0 12.362 26.49 12 11.015446192 1.766 16.7704988809
4181 1 3.532 10.596 24.724 12 11.015446192 1.766 14.7265463697
4182 1 5.298 12.362 24.724 12 11.015446192 1.766 12.4362656882
4183 1 5.298 10.596 26.49 12 11.015446192 1.766 14.4352159206
4184 1 3.532 12.362 26.49 12 11.015446192 1.766 14.3239454917
4185 1 7.064 10.596 24.724 12 11.015446192 1.766 12.5933797044
4186 1 8.83 12.362 24.724 12 11.015446192 1.766 10.4296436424
4187 1 8.83 10.596 26.49 12 11.015446192 1.766 12.5291605154
4188 1 7.064 12.362 26.49 12 11.015446192 1.766 12.2926942437
4189 1 10.596 10.596 24.724 12 11.015446192 1.766 10.9117942329
4190 1 12.362 12.362 24.724 12 11.015446192 1.766 8.7275583217
4191 1 12.362 10.596 26.49 12 11.015446192 1.766 10.9912241711
4192 1 10.596 12.362 26.49 12 11.015446192 1.766 10.3886065219
4193 1 14.128 10.596 24.724 12 11.015446192 1.766 9.7611938147
4194 1 15.894 12.362 24.724 12 11.015446192 1.766 7.8471344598
4195 1 15.894 10.596 26.49 12 11.015446192 1.766 10.1345662981
4196 1 14.128 12.362 26.49 12 11.015446192 1.766 9.0768795445
4197 1 17.66 10.596 24.724 12 11.015446192 1.766 9.3377768
4198 1 19.426 12.362 24.724 12 11.015446192 1.766 7.8413006963
4199 1 19.426 10.596 26.49 12 11.015446192 1.766 10.1117889472
4200 1 17.66 12.362 26.49 12 11.015446192 1.766 8.4121247669
4201 1 21.192 10.596 24.724 12 11.015446192 1.766 9.957368687
4202 1 22.958 12.362 24.724 12 11.015446192 1.766 8.9909561607
4203 1 22.958 10.596 26.49 12 11.015446192 1.766 11.1837784281
4204 1 21.192 12.362 26.49 12 11.015446192 1.766 9.0978389755
4205 1 24.724 10.596 24.724 12 11.015446192 1.766 11.2258461797
4206 1 26.49 12.362 24.724 12 11.015446192 1.766 10.807058925
4207 1 26.49 10.596 26.49 12 11.015446192 1.766 12.7149154911
4208 1 24.724 12.362 26.49 12 11.015446192 1.766 10.4999635323
4209 1 28.256 10.596 24.724 12 11.015446192 1.766 13.1798085783
4210 1 30.022 12.362 24.724 12 11.015446192 1.766 13.1834049897
4211 1 30.022 10.596 26.49 12 11.015446192 1.766 14.9169209413
4212 1 28.256 12.362 26.49 12 11.015446192 1.766 12.5971340822
4213 1 31.788 10.596 24.724 12 11.015446192 1.766 15.5531664196
4214 1 33.554 12.362 24.724 12 11.015446192 1.766 15.836676465
4215 1 33.554 10.596 26.49 12 11.015446192 1.766 17.3676838282
4216 1 31.788 12.362 26.49 12 11.015446192 1.766 15.0456726605
4217 1 35.32 10.596 24.724 12 11.015446192 1.766 18.2265367355
4218 1 37.086 12.362 24.724 12 11.015446192 1.766 18.7791946778
4219 1 37.086 10.596 26.49 12 11.015446192 1.766 20.0871668696
4220 1 35.32 12.362 26.49 12 11.015446192 1.766 17.7694983918
4221 1 38.852 10.596 24.724 12 11.015446192 1.766 19.861312526
4222 1 40.618 12.362 24.724 12 11.015446192 1.766 17.5236398112
4223 1 40.618 10.596 26.49 12 11.015446192 1.766 19.0369615154
4224 1 38.852 12.362 26.49 12 11.015446192 1.766 19.5518259757
4225 1 0.0 14.128 24.724 12 11.015446192 1.766 15.2367710888
4226 1 1.766 15.894 24.724 12 11.015446192 1.766 13.0274885603
4227 1 1.766 14.128 26.49 12 11.015446192 1.766 14.5797251583
4228 1 0.0 15.894 26.49 12 11.015446192 1.766 15.245864388
4229 1 3.532 14.128 24.724 12 11.015446192 1.766 12.4933972539
4230 1 5.298 15.894 24.724 12 11.015446192 1.766 10.3012748687
4231 1 5.298 14.128 26.49 12 11.015446192 1.766 12.1910167003
4232 1 3.532 15.894 26.49 12 11.015446192 1.766 12.5044857019
4233 1 7.064 14.128 24.724 12 11.015446192 1.766 10.2391312939
4234 1 8.83 15.894 24.724 12 11.015446192 1.766 8.0955274679
4235 1 8.83 14.128 26.49 12 11.015446192 1.766 10.1628351112
4236 1 7.064 15.894 26.49 12 11.015446192 1.766 10.0897283023
4237 1 10.596 14.128 24.724 12 11.015446192 1.766 8.2938105592
4238 1 12.362 15.894 24.724 12 11.015446192 1.766 6.194909538
4239 1 12.362 14.128 26.49 12 11.015446192 1.766 8.4032601876
4240 1 10.596 15.894 26.49 12 11.015446192 1.766 8.1189248307
4241 1 14.128 14.128 24.724 12 11.015446192 1.766 6.7257476466
4242 1 15.894 15.894 24.724 12 11.015446192 1.766 4.828513399
4243 1 15.894 14.128 26.49 12 11.015446192 1.766 7.1940554957
4244 1 14.128 15.894 26.49 12 11.015446192 1.766 6.530059481
4245 1 17.66 14.128 24.724 12 11.015446192 1.766 6.0198900314
4246 1 19.426 15.894 24.724 12 11.015446192 1.766 4.7964592184
4247 1 19.426 14.128 26.49 12 11.015446192 1.766 7.1619324304
4248 1 17.66 15.894 26.49 12 11.015446192 1.766 5.6818894321
4249 1 21.192 14.128 24.724 12 11.015446192 1.766 6.8634940361
4250 1 22.958 15.894 24.724 12 11.015446192 1.766 6.237883139
4251 1 22.958 14.128 26.49 12 11.015446192 1.766 8.4441942429
4252 1 21.192 15.894 26.49 12 11.015446192 1.766 6.5929130228
4253 1 24.724 14.128 24.724 12 11.015446192 1.766 8.4627709305
4254 1 26.49 15.894 24.724 12 11.015446192 1.766 8.5494324006
4255 1 26.49 14.128 26.49 12 11.015446192 1.766 10.3570239605
4256 1 24.724 15.894 26.49 12 11.015446192 1.766 8.2657805168
4257 1 28.256 14.128 24.724 12 11.015446192 1.766 10.8319569816
4258 1 30.022 15.894 24.724 12 11.015446192 1.766 11.1902644274
4259 1 30.022 14.128 26.49 12 11.015446192 1.766 12.7899614563
4260 1 28.256 15.894 26.49 12 11.015446192 1.766 10.6427903439
4261 1 31.788 14.128 24.724 12 11.015446192 1.766 13.4823461499
4262 1 33.554 15.894 24.724 12 11.015446192 1.766 14.2172360621
4263 1 33.554 14.128 26.49 12 11.015446192 1.766 15.5077689351
4264 1 31.788 15.894 26.49 12 11.015446192 1.766 13.3304818215
4265 1 35.32 14.128 24.724 12 11.015446192 1.766 16.4668292332
4266 1 37.086 15.894 24.724 12 11.015446192 1.766 17.4352411092
4267 1 37.086 14.128 26.49 12 11.015446192 1.766 18.5026681491
4268 1 35.32 15.894 26.49 12 11.015446192 1.766 16.3427217098
4269 1 38.852 14.128 24.724 12 11.015446192 1.766 18.2533136575
4270 1 40.618 15.894 24.724 12 11.015446192 1.766 16.0706160571
4271 1 40.618 14.128 26.49 12 11.015446192 1.766 17.3527412232
4272 1 38.852 15.894 26.49 12 11.015446192 1.766 18.2609048846
4273 1 0.0 17.66 24.724 12 11.015446192 1.766 13.9936044475
4274 1 1.766 19.426 24.724 12 11.015446192 1.766 12.0637657298
4275 1 1.766 17.66 26.49 12 11.015446192 1.766 13.2751707301
4276 1 0.0 19.426 26.49 12 11.015446192 1.766 14.3874526351
4277 1 3.532 17.66 24.724 12 11.015446192 1.766 10.9428856873
4278 1 5.298 19.426 24.724 12 11.015446192 1.766 9.0519833319
4279 1 5.298 17.66 26.49 12 11.015446192 1.766 10.5484672471
4280 1 3.532 19.426 26.49 12 11.015446192 1.766 11.4425347816
4281 1 7.064 17.66 24.724 12 11.015446192 1.766 8.2544357108
4282 1 8.83 19.426 24.724 12 11.015446192 1.766 6.305405899
4283 1 8.83 17.66 26.49 12 11.015446192 1.766 8.0475194511
4284 1 7.064 19.426 26.49 12 11.015446192 1.766 8.6869914511
4285 1 10.596 17.66 24.724 12 11.015446192 1.766 5.9574885829
4286 1 12.362 19.426 24.724 12 11.015446192 1.766 4.0433696597
4287 1 12.362 17.66 26.49 12 11.015446192 1.766 6.1713703171
4288 1 10.596 19.426 26.49 12 11.015446192 1.766 6.3141403488
4289 1 14.128 17.66 24.724 12 11.015446192 1.766 4.2257447432
4290 1 15.894 19.426 24.724 12 11.015446192 1.766 2.4059149336
4291 1 15.894 17.66 26.49 12 11.015446192 1.766 4.8445610159
4292 1 14.128 19.426 26.49 12 11.015446192 1.766 4.4350976043
4293 1 17.66 17.66 24.724 12 11.015446192 1.766 3.199081808
4294 1 19.426 19.426 24.724 12 11.015446192 1.766 2.6212578823
4295 1 19.426 17.66 26.49 12 11.015446192 1.766 4.9481536891
4296 1 17.66 19.426 26.49 12 11.015446192 1.766 3.9183738351
4297 1 21.192 17.66 24.724 12 11.015446192 1.766 4.3173587327
4298 1 22.958 19.426 24.724 12 11.015446192 1.766 4.6304814112
4299 1 22.958 17.66 26.49 12 11.015446192 1.766 6.4597705518
4300 1 21.192 19.426 26.49 12 11.015446192 1.766 4.8053497396
4301 1 24.724 17.66 24.724 12 11.015446192 1.766 6.4132271951
4302 1 26.49 19.426 24.724 12 11.015446192 1.766 7.0387364243
4303 1 26.49 17.66 26.49 12 11.015446192 1.766 8.6829128161
4304 1 24.724 19.426 26.49 12 11.015446192 1.766 7.0574444747
4305 1 28.256 17.66 24.724 12 11.015446192 1.766 9.0080742783
4306 1 30.022 19.426 24.724 12 11.015446192 1.766 10.0747975534
4307 1 30.022 17.66 26.49 12 11.015446192 1.766 11.286612328
4308 1 28.256 19.426 26.49 12 11.015446192 1.766 9.4630076662
4309 1 31.788 17.66 24.724 12 11.015446192 1.766 12.065577545
4310 1 33.554 19.426 24.724 12 11.015446192 1.766 13.3569955092
4311 1 33.554 17.66 26.49 12 11.015446192 1.766 14.2931942243
4312 1 31.788 19.426 26.49 12 11.015446192 1.766 12.4089191061
4313 1 35.32 17.66 24.724 12 11.015446192 1.766 15.328436606
4314 1 37.086 19.426 24.724 12 11.015446192 1.766 16.7411815689
4315 1 37.086 17.66 26.49 12 11.015446192 1.766 17.4972349937
4316 1 35.32 19.426 26.49 12 11.015446192 1.766 15.6001307902
4317 1 38.852 17.66 24.724 12 11.015446192 1.766 17.2291970707
4318 1 40.618 19.426 24.724 12 11.015446192 1.766 15.2996901017
4319 1 40.618 17.66 26.49 12 11.015446192 1.766 16.2720435158
4320 1 38.852 19.426 26.49 12 11.015446192 1.766 17.5503850872
4321 1 0.0 21.192 24.724 12 11.015446192 1.766 13.4040525099
4322 1 1.766 22.958 24.724 12 11.015446192 1.766 11.6479220127
4323 1 1.766 21.192 26.49 12 11.015446192 1.766 12.5428726101
4324 1 0.0 22.958 26.49 12 11.015446192 1.766 13.9867661729
4325 1 3.532 21.192 24.724 12 11.015446192 1.766 10.1786848144
4326 1 5.298 22.958 24.724 12 11.015446192 1.766 8.4903540607
4327 1 5.298 21.192 26.49 12 11.015446192 1.766 9.6813689973
4328 1 3.532 22.958 26.49 12 11.015446192 1.766 10.934652662
4329 1 7.064 21.192 24.724 12 11.015446192 1.766 7.2426502621
4330 1 8.83 22.958 24.724 12 11.015446192 1.766 5.7825082277
4331 1 8.83 21.192 26.49 12 11.015446192 1.766 7.1073913094
4332 1 7.064 22.958 26.49 12 11.015446192 1.766 8.2736737729
4333 1 10.596 21.192 24.724 12 11.015446192 1.766 4.6159358035
4334 1 12.362 22.958 24.724 12 11.015446192 1.766 3.2555527944
4335 1 12.362 21.192 26.49 12 11.015446192 1.766 4.8350872068
4336 1 10.596 22.958 26.49 12 11.015446192 1.766 5.7392531042
4337 1 14.128 21.192 24.724 12 11.015446192 1.766 2.4962881161
4338 1 15.894 22.958 24.724 12 11.015446192 1.766 1.678390202
4339 1 15.894 21.192 26.49 12 11.015446192 1.766 3.5512662843
4340 1 14.128 22.958 26.49 12 11.015446192 1.766 3.6972312411
4341 1 17.66 21.192 24.724 12 11.015446192 1.766 1.7678534855
4342 1 19.426 22.958 24.724 12 11.015446192 1.766 2.1912485859
4343 1 19.426 21.192 26.49 12 11.015446192 1.766 3.7182983733
4344 1 17.66 22.958 26.49 12 11.015446192 1.766 3.2478964249
4345 1 21.192 21.192 24.724 12 11.015446192 1.766 3.1535269313
4346 1 22.958 22.958 24.724 12 11.015446192 1.766 4.1168005978
4347 1 22.958 21.192 26.49 12 11.015446192 1.766 5.6183462908
4348 1 21.192 22.958 26.49 12 11.015446192 1.766 4.6012761424
4349 1 24.724 21.192 24.724 12 11.015446192 1.766 5.4889502865
4350 1 26.49 22.958 24.724 12 11.015446192 1.766 6.9997079805
4351 1 26.49 21.192 26.49 12 11.015446192 1.766 7.9818217619
4352 1 24.724 22.958 26.49 12 11.015446192 1.766 6.6142463447
4353 1 28.256 21.192 24.724 12 11.015446192 1.766 8.3606192349
4354 1 30.022 22.958 24.724 12 11.015446192 1.766 10.1200742194
4355 1 30.022 21.192 26.49 12 11.015446192 1.766 10.7769276526
4356 1 28.256 22.958 26.49 12 11.015446192 1.766 9.4112981073
4357 1 31.788 21.192 24.724 12 11.015446192 1.766 11.5901990182
4358 1 33.554 22.958 24.724 12 11.015446192 1.766 13.3366081227
4359 1 33.554 21.192 26.49 12 11.015446192 1.766 13.8942417181
4360 1 31.788 22.958 26.49 12 11.015446192 1.766 12.4567894664
4361 1 35.32 21.192 24.724 12 11.015446192 1.766 14.949249116
4362 1 37.086 22.958 24.724 12 11.015446192 1.766 16.6431339071
4363 1 37.086 21.192 26.49 12 11.015446192 1.766 17.1728793221
4364 1 35.32 22.958 26.49 12 11.015446192 1.766 15.6320136743
4365 1 38.852 21.192 24.724 12 11.015446192 1.766 16.7535569605
4366 1 40.618 22.958 24.724 12 11.015446192 1.766 14.9737139799
4367 1 40.618 21.192 26.49 12 11.015446192 1.766 15.6799769276
4368 1 38.852 22.958 26.49 12 11.015446192 1.766 17.2233177732
4369 1 0.0 24.724 24.724 12 11.015446192 1.766 13.4245139159
4370 1 1.766 26.49 24.724 12 11.015446192 1.766 12.1934812007
4371 1 1.766 24.724 26.49 12 11.015446192 1.766 12.5647365075
4372 1 0.0 26.49 26.49 12 11.015446192 1.766 14.444846907
4373 1 3.532 24.724 24.724 12 11.015446192 1.766 10.2056148634
4374 1 5.298 26.49 24.724 12 11.015446192 1.766 9.2179431942
4375 1 5.298 24.724 26.49 12 11.015446192 1.766 9.7100272072
4376 1 3.532 26.49 26.49 12 11.015446192 1.766 11.5147993047
4377 1 7.064 24.724 24.724 12 11.015446192 1.766 7.2829680489
4378 1 8.83 26.49 24.724 12 11.015446192 1.766 6.4852378679
4379 1 8.83 24.724 26.49 12 11.015446192 1.766 7.2678780419
4380 1 7.064 26.49 26.49 12 11.015446192 1.766 8.8625080446
4381 1 10.596 24.724 24.724 12 11.015446192 1.766 4.803143151
4382 1 12.362 26.49 24.724 12 11.015446192 1.766 4.0874691983
4383 1 12.362 24.724 26.49 12 11.015446192 1.766 4.7804202248
4384 1 10.596 26.49 26.49 12 11.015446192 1.766 6.4397988288
4385 1 14.128 24.724 24.724 12 11.015446192 1.766 2.3904740233
4386 1 15.894 26.49 24.724 12 11.015446192 1.766 2.3722861917
4387 1 15.894 24.724 26.49 12 11.015446192 1.766 3.5540303926
4388 1 14.128 26.49 26.49 12 11.015446192 1.766 4.3216590294
4389 1 17.66 24.724 24.724 12 11.015446192 1.766 1.6943841412
4390 1 19.426 26.49 24.724 12 11.015446192 1.766 2.549413447
4391 1 19.426 24.724 26.49 12 11.015446192 1.766 3.7094006943
4392 1 17.66 26.49 26.49 12 11.015446192 1.766 3.7862243572
4393 1 21.192 24.724 24.724 12 11.015446192 1.766 2.9896476346
4394 1 22.958 26.49 24.724 12 11.015446192 1.766 4.78135849
4395 1 22.958 24.724 26.49 12 11.015446192 1.766 5.4823046176
4396 1 21.192 26.49 26.49 12 11.015446192 1.766 4.6601529844
4397 1 24.724 24.724 24.724 12 11.015446192 1.766 5.6508965894
4398 1 26.49 26.49 24.724 12 11.015446192 1.766 7.261937964
4399 1 26.49 24.724 26.49 12 11.015446192 1.766 8.1127366663
4400 1 24.724 26.49 26.49 12 11.015446192 1.766 7.0977377789
4401 1 28.256 24.724 24.724 12 11.015446192 1.766 8.5220007447
4402 1 30.022 26.49 24.724 12 11.015446192 1.766 10.1835234826
4403 1 30.022 24.724 26.49 12 11.015446192 1.766 10.956590189
4404 1 28.256 26.49 26.49 12 11.015446192 1.766 9.7075299709
4405 1 31.788 24.724 24.724 12 11.015446192 1.766 11.6662869696
4406 1 33.554 26.49 24.724 12 11.015446192 1.766 13.4023358429
4407 1 33.554 24.724 26.49 12 11.015446192 1.766 14.0112520068
4408 1 31.788 26.49 26.49 12 11.015446192 1.766 12.5570525866
4409 1 35.32 24.724 24.724 12 11.015446192 1.766 14.9791885486
4410 1 37.086 26.49 24.724 12 11.015446192 1.766 16.7478688069
4411 1 37.086 24.724 26.49 12 11.015446192 1.766 17.2390163967
4412 1 35.32 26.49 26.49 12 11.015446192 1.766 15.6867156916
4413 1 38.852 24.724 24.724 12 11.015446192 1.766 16.7699320516
4414 1 40.618 26.49 24.724 12 11.015446192 1.766 15.4024700792
4415 1 40.618 24.724 26.49 12 11.015446192 1.766 15.6974719825
4416 1 38.852 26.49 26.49 12 11.015446192 1.766 17.5973477918
4417 1 0.0 28.256 24.724 12 11.015446192 1.766 14.261060146
4418 1 1.766 30.022 24.724 12 11.015446192 1.766 13.3961590261
4419 1 1.766 28.256 26.49 12 11.015446192 1.766 13.5200257744
4420 1 0.0 30.022 26.49 12 11.015446192 1.766 15.5696693479
4421 1 3.532 28.256 24.724 12 11.015446192 1.766 11.2513739808
4422 1 5.298 30.022 24.724 12 11.015446192 1.766 10.7010314934
4423 1 5.298 28.256 26.49 12 11.015446192 1.766 10.76189584
4424 1 3.532 30.022 26.49 12 11.015446192 1.766 12.8240274284
4425 1 7.064 28.256 24.724 12 11.015446192 1.766 8.5174430257
4426 1 8.83 30.022 24.724 12 11.015446192 1.766 8.2422681916
4427 1 8.83 28.256 26.49 12 11.015446192 1.766 8.2282066613
4428 1 7.064 30.022 26.49 12 11.015446192 1.766 10.2352346216
4429 1 10.596 28.256 24.724 12 11.015446192 1.766 6.0843996017
4430 1 12.362 30.022 24.724 12 11.015446192 1.766 6.3158780762
4431 1 12.362 28.256 26.49 12 11.015446192 1.766 6.0332139288
4432 1 10.596 30.022 26.49 12 11.015446192 1.766 8.1177040328
4433 1 14.128 28.256 24.724 12 11.015446192 1.766 4.1635522902
4434 1 15.894 30.022 24.724 12 11.015446192 1.766 4.9720056404
4435 1 15.894 28.256 26.49 12 11.015446192 1.766 4.7844263676
4436 1 14.128 30.022 26.49 12 11.015446192 1.766 6.4844996361
4437 1 17.66 28.256 24.724 12 11.015446192 1.766 3.2324510317
4438 1 19.426 30.022 24.724 12 11.015446192 1.766 5.0517411665
4439 1 19.426 28.256 26.49 12 11.015446192 1.766 4.8549223548
4440 1 17.66 30.022 26.49 12 11.015446192 1.766 5.7148839336
4441 1 21.192 28.256 24.724 12 11.015446192 1.766 4.4528420233
4442 1 22.958 30.022 24.724 12 11.015446192 1.766 6.4985791158
4443 1 22.958 28.256 26.49 12 11.015446192 1.766 6.4559613762
4444 1 21.192 30.022 26.49 12 11.015446192 1.766 6.6902496285
4445 1 24.724 28.256 24.724 12 11.015446192 1.766 6.7002574176
4446 1 26.49 30.022 24.724 12 11.015446192 1.766 8.6486480742
4447 1 26.49 28.256 26.49 12 11.015446192 1.766 8.9749971031
4448 1 24.724 30.022 26.49 12 11.015446192 1.766 8.5505949719
4449 1 28.256 28.256 24.724 12 11.015446192 1.766 9.1532001717
4450 1 30.022 30.022 24.724 12 11.015446192 1.766 11.2659500758
4451 1 30.022 28.256 26.49 12 11.015446192 1.766 11.4681725016
4452 1 28.256 30.022 26.49 12 11.015446192 1.766 10.8548404555
4453 1 31.788 28.256 24.724 12 11.015446192 1.766 12.1336105471
4454 1 33.554 30.022 24.724 12 11.015446192 1.766 14.2555211515
4455 1 33.554 28.256 26.49 12 11.015446192 1.766 14.4026885009
4456 1 31.788 30.022 26.49 12 11.015446192 1.766 13.4639090504
4457 1 35.32 28.256 24.724 12 11.015446192 1.766 15.3498529125
4458 1 37.086 30.022 24.724 12 11.015446192 1.766 17.438130256
4459 1 37.086 28.256 26.49 12 11.015446192 1.766 17.5586428741
4460 1 35.32 30.022 26.49 12 11.015446192 1.766 16.4216420142
4461 1 38.852 28.256 24.724 12 11.015446192 1.766 17.4663460798
4462 1 40.618 30.022 24.724 12 11.015446192 1.766 16.3925751694
4463 1 40.618 28.256 26.49 12 11.015446192 1.766 16.4815144782
4464 1 38.852 30.022 26.49 12 11.015446192 1.766 18.5512552577
4465 1 0.0 31.788 24.724 12 11.015446192 1.766 15.6459503018
4466 1 1.766 33.554 24.724 12 11.015446192 1.766 15.2757986701
4467 1 1.766 31.788 26.49 12 11.015446192 1.766 14.9858733378
4468 1 0.0 33.554 26.49 12 11.015446192 1.766 17.2135862609
4469 1 3.532 31.788 24.724 12 11.015446192 1.766 12.9614760011
4470 1 5.298 33.554 24.724 12 11.015446192 1.766 12.8301748279
4471 1 5.298 31.788 26.49 12 11.015446192 1.766 12.419226154
4472 1 3.532 33.554 26.49 12 11.015446192 1.766 14.7016441055
4473 1 7.064 31.788 24.724 12 11.015446192 1.766 10.5157264084
4474 1 8.83 33.554 24.724 12 11.015446192 1.766 10.5998541065
4475 1 8.83 31.788 26.49 12 11.015446192 1.766 10.2750029494
4476 1 7.064 33.554 26.49 12 11.015446192 1.766 12.4405356465
4477 1 10.596 31.788 24.724 12 11.015446192 1.766 8.4717894984
4478 1 12.362 33.554 24.724 12 11.015446192 1.766 8.8946457044
4479 1 12.362 31.788 26.49 12 11.015446192 1.766 8.4484328477
4480 1 10.596 33.554 26.49 12 11.015446192 1.766 10.573093152
4481 1 14.128 31.788 24.724 12 11.015446192 1.766 6.8314615135
4482 1 15.894 33.554 24.724 12 11.015446192 1.766 8.013866997
4483 1 15.894 31.788 26.49 12 11.015446192 1.766 7.3572400516
4484 1 14.128 33.554 26.49 12 11.015446192 1.766 9.198731836
4485 1 17.66 31.788 24.724 12 11.015446192 1.766 6.3957548286
4486 1 19.426 33.554 24.724 12 11.015446192 1.766 8.2167816405
4487 1 19.426 31.788 26.49 12 11.015446192 1.766 7.374149906
4488 1 17.66 33.554 26.49 12 11.015446192 1.766 8.7140317802
4489 1 21.192 31.788 24.724 12 11.015446192 1.766 7.015975434
4490 1 22.958 33.554 24.724 12 11.015446192 1.766 9.0694036111
4491 1 22.958 31.788 26.49 12 11.015446192 1.766 8.6638806762
4492 1 21.192 33.554 26.49 12 11.015446192 1.766 9.3310725608
4493 1 24.724 31.788 24.724 12 11.015446192 1.766 8.5824067665
4494 1 26.49 33.554 24.724 12 11.015446192 1.766 10.6989625083
4495 1 26.49 31.788 26.49 12 11.015446192 1.766 10.5942164079
4496 1 24.724 33.554 26.49 12 11.015446192 1.766 10.6987516397
4497 1 28.256 31.788 24.724 12 11.015446192 1.766 10.7156187388
4498 1 30.022 33.554 24.724 12 11.015446192 1.766 12.9332800766
4499 1 30.022 31.788 26.49 12 11.015446192 1.766 12.8821409434
4500 1 28.256 33.554 26.49 12 11.015446192 1.766 12.6250638928
4501 1 31.788 31.788 24.724 12 11.015446192 1.766 13.4201879175
4502 1 33.554 33.554 24.724 12 11.015446192 1.766 15.6531695297
4503 1 33.554 31.788 26.49 12 11.015446192 1.766 15.5908745814
4504 1 31.788 33.554 26.49 12 11.015446192 1.766 14.9889691801
4505 1 35.32 31.788 24.724 12 11.015446192 1.766 16.4393762878
4506 1 37.086 33.554 24.724 12 11.015446192 1.766 18.6473522815
4507 1 37.086 31.788 26.49 12 11.015446192 1.766 18.557394328
4508 1 35.32 33.554 26.49 12 11.015446192 1.766 17.7453149836
4509 1 38.852 31.788 24.724 12 11.015446192 1.766 18.6153224221
4510 1 40.618 33.554 24.724 12 11.015446192 1.766 17.9613326076
4511 1 40.618 31.788 26.49 12 11.015446192 1.766 17.719785546
4512 1 38.852 33.554 26.49 12 11.015446192 1.766 19.9509904514
4513 1 0.0 35.32 24.724 12 11.015446192 1.766 17.6398337068
4514 1 1.766 37.086 24.724 12 11.015446192 1.766 17.5282092468
4515 1 1.766 35.32 26.49 12 11.015446192 1.766 17.0228541837
4516 1 0.0 37.086 26.49 12 11.015446192 1.766 19.3633503168
4517 1 3.532 35.32 24.724 12 11.015446192 1.766 15.1668598464
4518 1 5.298 37.086 24.724 12 11.015446192 1.766 15.1432392927
4519 1 5.298 35.32 26.49 12 11.015446192 1.766 14.65903298
4520 1 3.532 37.086 26.49 12 11.015446192 1.766 16.9232070221
4521 1 7.064 35.32 24.724 12 11.015446192 1.766 12.8296449552
4522 1 8.83 37.086 24.724 12 11.015446192 1.766 13.2795828681
4523 1 8.83 35.32 26.49 12 11.015446192 1.766 12.7154996276
4524 1 7.064 37.086 26.49 12 11.015446192 1.766 14.8643724907
4525 1 10.596 35.32 24.724 12 11.015446192 1.766 11.0851173673
4526 1 12.362 37.086 24.724 12 11.015446192 1.766 11.9014052053
4527 1 12.362 35.32 26.49 12 11.015446192 1.766 11.1163988862
4528 1 10.596 37.086 26.49 12 11.015446192 1.766 13.218650309
4529 1 14.128 35.32 24.724 12 11.015446192 1.766 9.8347631423
4530 1 15.894 37.086 24.724 12 11.015446192 1.766 11.260791887
4531 1 15.894 35.32 26.49 12 11.015446192 1.766 10.3832418847
4532 1 14.128 37.086 26.49 12 11.015446192 1.766 12.1416506314
4533 1 17.66 35.32 24.724 12 11.015446192 1.766 9.6902802257
4534 1 19.426 37.086 24.724 12 11.015446192 1.766 11.5216839817
4535 1 19.426 35.32 26.49 12 11.015446192 1.766 10.4877799309
4536 1 17.66 37.086 26.49 12 11.015446192 1.766 11.9623735625
4537 1 21.192 35.32 24.724 12 11.015446192 1.766 10.0903416276
4538 1 22.958 37.086 24.724 12 11.015446192 1.766 12.1328422629
4539 1 22.958 35.32 26.49 12 11.015446192 1.766 11.3041192323
4540 1 21.192 37.086 26.49 12 11.015446192 1.766 12.3790723625
4541 1 24.724 35.32 24.724 12 11.015446192 1.766 11.2210308644
4542 1 26.49 37.086 24.724 12 11.015446192 1.766 13.3802610266
4543 1 26.49 35.32 26.49 12 11.015446192 1.766 12.8258348896
4544 1 24.724 37.086 26.49 12 11.015446192 1.766 13.3949937562
4545 1 28.256 35.32 24.724 12 11.015446192 1.766 12.9194832459
4546 1 30.022 37.086 24.724 12 11.015446192 1.766 15.2260736871
4547 1 30.022 35.32 26.49 12 11.015446192 1.766 14.7673626245
4548 1 28.256 37.086 26.49 12 11.015446192 1.766 14.9651536806
4549 1 31.788 35.32 24.724 12 11.015446192 1.766 15.2377821918
4550 1 33.554 37.086 24.724 12 11.015446192 1.766 17.5950363089
4551 1 33.554 35.32 26.49 12 11.015446192 1.766 17.1996215559
4552 1 31.788 37.086 26.49 12 11.015446192 1.766 17.0068451944
4553 1 35.32 35.32 24.724 12 11.015446192 1.766 17.9559742958
4554 1 37.086 37.086 24.724 12 11.015446192 1.766 20.3048598492
4555 1 37.086 35.32 26.49 12 11.015446192 1.766 19.9631914396
4556 1 35.32 37.086 26.49 12 11.015446192 1.766 19.479727674
4557 1 38.852 35.32 24.724 12 11.015446192 1.766 20.3198966837
4558 1 40.618 37.086 24.724 12 11.015446192 1.766 20.0362787313
4559 1 40.618 35.32 26.49 12 11.015446192 1.766 19.5027888302
4560 1 38.852 37.086 26.49 12 11.015446192 1.766 21.8376971393
4561 1 0.0 38.852 24.724 12 11.015446192 1.766 19.9225017003
4562 1 1.766 40.618 24.724 12 11.015446192 1.766 19.9042352647
4563 1 1.766 38.852 26.49 12 11.015446192 1.766 19.2308453082
4564 1 0.0 40.618 26.49 12 11.015446192 1.766 21.5807988236
4565 1 3.532 38.852 24.724 12 11.015446192 1.766 17.5074448985
4566 1 5.298 40.618 24.724 12 11.015446192 1.766 17.8397914324
4567 1 5.298 38.852 26.49 12 11.015446192 1.766 17.0852271902
4568 1 3.532 40.618 26.49 12 11.015446192 1.766 19.3735755797
4569 1 7.064 38.852 24.724 12 11.015446192 1.766 15.5262753985
4570 1 8.83 40.618 24.724 12 11.015446192 1.766 16.2855717951
4571 1 8.83 38.852 26.49 12 11.015446192 1.766 15.4092003036
4572 1 7.064 40.618 26.49 12 11.015446192 1.766 17.603647881
4573 1 10.596 38.852 24.724 12 11.015446192 1.766 14.0887058278
4574 1 12.362 40.618 24.724 12 11.015446192 1.766 15.1367835921
4575 1 12.362 38.852 26.49 12 11.015446192 1.766 14.0917731975
4576 1 10.596 40.618 26.49 12 11.015446192 1.766 16.1929456137
4577 1 14.128 38.852 24.724 12 11.015446192 1.766 13.1044387029
4578 1 15.894 40.618 24.724 12 11.015446192 1.766 14.6384495619
4579 1 15.894 38.852 26.49 12 11.015446192 1.766 13.5550750611
4580 1 14.128 40.618 26.49 12 11.015446192 1.766 15.3263972188
4581 1 17.66 38.852 24.724 12 11.015446192 1.766 13.0050815304
4582 1 19.426 40.618 24.724 12 11.015446192 1.766 14.8434047498
4583 1 19.426 38.852 26.49 12 11.015446192 1.766 13.7703271479
4584 1 17.66 40.618 26.49 12 11.015446192 1.766 15.247423367
4585 1 21.192 38.852 24.724 12 11.015446192 1.766 13.3865776964
4586 1 22.958 40.618 24.724 12 11.015446192 1.766 15.3977141304
4587 1 22.958 38.852 26.49 12 11.015446192 1.766 14.3258629057
4588 1 21.192 40.618 26.49 12 11.015446192 1.766 15.6044932987
4589 1 24.724 38.852 24.724 12 11.015446192 1.766 14.2512217358
4590 1 26.49 40.618 24.724 12 11.015446192 1.766 16.3873432724
4591 1 26.49 38.852 26.49 12 11.015446192 1.766 15.5466594316
4592 1 24.724 40.618 26.49 12 11.015446192 1.766 16.4109837717
4593 1 28.256 38.852 24.724 12 11.015446192 1.766 15.6189518767
4594 1 30.022 40.618 24.724 12 11.015446192 1.766 17.9261528029
4595 1 30.022 38.852 26.49 12 11.015446192 1.766 17.1788710126
4596 1 28.256 40.618 26.49 12 11.015446192 1.766 17.7050687394
4597 1 31.788 38.852 24.724 12 11.015446192 1.766 17.5848973984
4598 1 33.554 40.618 24.724 12 11.015446192 1.766 19.977460727
4599 1 33.554 38.852 26.49 12 11.015446192 1.766 19.3097279125
4600 1 31.788 40.618 26.49 12 11.015446192 1.766 19.4614084242
4601 1 35.32 38.852 24.724 12 11.015446192 1.766 19.9863859489
4602 1 37.086 40.618 24.724 12 11.015446192 1.766 22.400914443
4603 1 37.086 38.852 26.49 12 11.015446192 1.766 21.8075129907
4604 1 35.32 40.618 26.49 12 11.015446192 1.766 21.6557942509
4605 1 38.852 38.852 24.724 12 11.015446192 1.766 22.4547594419
4606 1 40.618 40.618 24.724 12 11.015446192 1.766 22.3394058247
4607 1 40.618 38.852 26.49 12 11.015446192 1.766 21.7181212933
4608 1 38.852 40.618 26.49 12 11.015446192 1.766 24.0972625148
4609 1 0.0 0.0 28.256 12 11.015446192 1.766 23.388687559
4610 1 1.766 1.766 28.256 12 11.015446192 1.766 23.3966369857
4611 1 1.766 0.0 30.022 12 11.015446192 1.766 23.0743378453
4612 1 0.0 1.766 30.022 12 11.015446192 1.766 25.0745248294
4613 1 3.532 0.0 28.256 12 11.015446192 1.766 21.3690256822
4614 1 5.298 1.766 28.256 12 11.015446192 1.766 21.7603451969
4615 1 5.298 0.0 30.022 12 11.015446192 1.766 21.289928802
4616 1 3.532 1.766 30.022 12 11.015446192 1.766 23.2917959362
4617 1 7.064 0.0 28.256 12 11.015446192 1.766 19.7333709368
4618 1 8.83 1.766 28.256 12 11.015446192 1.766 20.3539957542
4619 1 8.83 0.0 30.022 12 11.015446192 1.766 19.739819041
4620 1 7.064 1.766 30.022 12 11.015446192 1.766 21.702259384
4621 1 10.596 0.0 28.256 12 11.015446192 1.766 18.3809316858
4622 1 12.362 1.766 28.256 12 11.015446192 1.766 19.4325727485
4623 1 12.362 0.0 30.022 12 11.015446192 1.766 18.7048762581
4624 1 10.596 1.766 30.022 12 11.015446192 1.766 20.5390549645
4625 1 14.128 0.0 28.256 12 11.015446192 1.766 17.6223044378
4626 1 15.894 1.766 28.256 12 11.015446192 1.766 18.9118198042
4627 1 15.894 0.0 30.022 12 11.015446192 1.766 18.2615683233
4628 1 14.128 1.766 30.022 12 11.015446192 1.766 19.7960809958
4629 1 17.66 0.0 28.256 12 11.015446192 1.766 17.5291450034
4630 1 19.426 1.766 28.256 12 11.015446192 1.766 18.8996235404
4631 1 19.426 0.0 30.022 12 11.015446192 1.766 18.3043600058
4632 1 17.66 1.766 30.022 12 11.015446192 1.766 19.4666032079
4633 1 21.192 0.0 28.256 12 11.015446192 1.766 17.8741229876
4634 1 22.958 1.766 28.256 12 11.015446192 1.766 19.5367515117
4635 1 22.958 0.0 30.022 12 11.015446192 1.766 18.9155021151
4636 1 21.192 1.766 30.022 12 11.015446192 1.766 19.772771837
4637 1 24.724 0.0 28.256 12 11.015446192 1.766 18.6029775526
4638 1 26.49 1.766 28.256 12 11.015446192 1.766 20.6779032935
4639 1 26.49 0.0 30.022 12 11.015446192 1.766 19.9245812824
4640 1 24.724 1.766 30.022 12 11.015446192 1.766 20.686382472
4641 1 28.256 0.0 28.256 12 11.015446192 1.766 19.872288085
4642 1 30.022 1.766 28.256 12 11.015446192 1.766 22.0302656588
4643 1 30.022 0.0 30.022 12 11.015446192 1.766 21.4116112269
4644 1 28.256 1.766 30.022 12 11.015446192 1.766 21.9539699612
4645 1 31.788 0.0 28.256 12 11.015446192 1.766 21.4648373671
4646 1 33.554 1.766 28.256 12 11.015446192 1.766 23.7294034434
4647 1 33.554 0.0 30.022 12 11.015446192 1.766 23.1700505554
4648 1 31.788 1.766 30.022 12 11.015446192 1.766 23.5628328632
4649 1 35.32 0.0 28.256 12 11.015446192 1.766 23.472670278
4650 1 37.086 1.766 28.256 12 11.015446192 1.766 25.8028412886
4651 1 37.086 0.0 30.022 12 11.015446192 1.766 25.2893905329
4652 1 35.32 1.766 30.022 12 11.015446192 1.766 25.405395083
4653 1 38.852 0.0 28.256 12 11.015446192 1.766 25.7366703529
4654 1 40.618 1.766 28.256 12 11.015446192 1.766 25.3909473236
4655 1 40.618 0.0 30.022 12 11.015446192 1.766 25.2049385949
4656 1 38.852 1.766 30.022 12 11.015446192 1.766 27.1700469456
4657 1 0.0 3.532 28.256 12 11.015446192 1.766 23.0890863177
4658 1 1.766 5.298 28.256 12 11.015446192 1.766 20.832345811
4659 1 1.766 3.532 30.022 12 11.015446192 1.766 22.8773907695
4660 1 0.0 5.298 30.022 12 11.015446192 1.766 22.6818585156
4661 1 3.532 3.532 28.256 12 11.015446192 1.766 21.1727028799
4662 1 5.298 5.298 28.256 12 11.015446192 1.766 18.9879842194
4663 1 5.298 3.532 30.022 12 11.015446192 1.766 21.1056755055
4664 1 3.532 5.298 30.022 12 11.015446192 1.766 20.724767339
4665 1 7.064 3.532 28.256 12 11.015446192 1.766 19.5590131522
4666 1 8.83 5.298 28.256 12 11.015446192 1.766 17.3769117222
4667 1 8.83 3.532 30.022 12 11.015446192 1.766 19.596399351
4668 1 7.064 5.298 30.022 12 11.015446192 1.766 18.9383204168
4669 1 10.596 3.532 28.256 12 11.015446192 1.766 18.2634460142
4670 1 12.362 5.298 28.256 12 11.015446192 1.766 16.2868279796
4671 1 12.362 3.532 30.022 12 11.015446192 1.766 18.609076412
4672 1 10.596 5.298 30.022 12 11.015446192 1.766 17.5933139764
4673 1 14.128 3.532 28.256 12 11.015446192 1.766 17.518952706
4674 1 15.894 5.298 28.256 12 11.015446192 1.766 15.630956744
4675 1 15.894 3.532 30.022 12 11.015446192 1.766 17.9586792342
4676 1 14.128 5.298 30.022 12 11.015446192 1.766 16.689958155
4677 1 17.66 3.532 28.256 12 11.015446192 1.766 17.1616950605
4678 1 19.426 5.298 28.256 12 11.015446192 1.766 15.6161983336
4679 1 19.426 3.532 30.022 12 11.015446192 1.766 17.9458352131
4680 1 17.66 5.298 30.022 12 11.015446192 1.766 16.2978072414
4681 1 21.192 3.532 28.256 12 11.015446192 1.766 17.5082164429
4682 1 22.958 5.298 28.256 12 11.015446192 1.766 16.3815304552
4683 1 22.958 3.532 30.022 12 11.015446192 1.766 18.6156356636
4684 1 21.192 5.298 30.022 12 11.015446192 1.766 16.6623043587
4685 1 24.724 3.532 28.256 12 11.015446192 1.766 18.5213547692
4686 1 26.49 5.298 28.256 12 11.015446192 1.766 17.6306141961
4687 1 26.49 3.532 30.022 12 11.015446192 1.766 19.8243519267
4688 1 24.724 5.298 30.022 12 11.015446192 1.766 17.7292256575
4689 1 28.256 3.532 28.256 12 11.015446192 1.766 19.8354722328
4690 1 30.022 5.298 28.256 12 11.015446192 1.766 19.2808748203
4691 1 30.022 3.532 30.022 12 11.015446192 1.766 21.3083425023
4692 1 28.256 5.298 30.022 12 11.015446192 1.766 19.1102209937
4693 1 31.788 3.532 28.256 12 11.015446192 1.766 21.6063546116
4694 1 33.554 5.298 28.256 12 11.015446192 1.766 21.3919554679
4695 1 33.554 3.532 30.022 12 11.015446192 1.766 23.2359438177
4696 1 31.788 5.298 30.022 12 11.015446192 1.766 20.9425200808
4697 1 35.32 3.532 28.256 12 11.015446192 1.766 23.7610677121
4698 1 37.086 5.298 28.256 12 11.015446192 1.766 23.7743499204
4699 1 37.086 3.532 30.022 12 11.015446192 1.766 25.5092346211
4700 1 35.32 5.298 30.022 12 11.015446192 1.766 23.171702489
4701 1 38.852 3.532 28.256 12 11.015446192 1.766 25.3166641657
4702 1 40.618 5.298 28.256 12 11.015446192 1.766 22.9950598969
4703 1 40.618 3.532 30.022 12 11.015446192 1.766 24.9025642718
4704 1 38.852 5.298 30.022 12 11.015446192 1.766 24.831294726
4705 1 0.0 7.064 28.256 12 11.015446192 1.766 20.7126728592
4706 1 1.766 8.83 28.256 12 11.015446192 1.766 18.4840362587
4707 1 1.766 7.064 30.022 12 11.015446192 1.766 20.5200029237
4708 1 0.0 8.83 30.022 12 11.015446192 1.766 20.4170415028
4709 1 3.532 7.064 28.256 12 11.015446192 1.766 18.6371237316
4710 1 5.298 8.83 28.256 12 11.015446192 1.766 16.5030964865
4711 1 5.298 7.064 30.022 12 11.015446192 1.766 18.5847469967
4712 1 3.532 8.83 30.022 12 11.015446192 1.766 18.3763990976
4713 1 7.064 7.064 28.256 12 11.015446192 1.766 16.8083603061
4714 1 8.83 8.83 28.256 12 11.015446192 1.766 14.6485161992
4715 1 8.83 7.064 30.022 12 11.015446192 1.766 16.8572183162
4716 1 7.064 8.83 30.022 12 11.015446192 1.766 16.4694944955
4717 1 10.596 7.064 28.256 12 11.015446192 1.766 15.2872627423
4718 1 12.362 8.83 28.256 12 11.015446192 1.766 13.3324049376
4719 1 12.362 7.064 30.022 12 11.015446192 1.766 15.6827881153
4720 1 10.596 8.83 30.022 12 11.015446192 1.766 14.9045852848
4721 1 14.128 7.064 28.256 12 11.015446192 1.766 14.3642815869
4722 1 15.894 8.83 28.256 12 11.015446192 1.766 12.4878635945
4723 1 15.894 7.064 30.022 12 11.015446192 1.766 14.8882189754
4724 1 14.128 8.83 30.022 12 11.015446192 1.766 13.7903818526
4725 1 17.66 7.064 28.256 12 11.015446192 1.766 13.9164895636
4726 1 19.426 8.83 28.256 12 11.015446192 1.766 12.4693856632
4727 1 19.426 7.064 30.022 12 11.015446192 1.766 14.8727235543
4728 1 17.66 8.83 30.022 12 11.015446192 1.766 13.3130931531
4729 1 21.192 7.064 28.256 12 11.015446192 1.766 14.3416368465
4730 1 22.958 8.83 28.256 12 11.015446192 1.766 13.4120531551
4731 1 22.958 7.064 30.022 12 11.015446192 1.766 15.6743993691
4732 1 21.192 8.83 30.022 12 11.015446192 1.766 13.7569006307
4733 1 24.724 7.064 28.256 12 11.015446192 1.766 15.5040648295
4734 1 26.49 8.83 28.256 12 11.015446192 1.766 14.7990659943
4735 1 26.49 7.064 30.022 12 11.015446192 1.766 16.9950185837
4736 1 24.724 8.83 30.022 12 11.015446192 1.766 14.9799317439
4737 1 28.256 7.064 28.256 12 11.015446192 1.766 17.0042562928
4738 1 30.022 8.83 28.256 12 11.015446192 1.766 16.7309871558
4739 1 30.022 7.064 30.022 12 11.015446192 1.766 18.7014500391
4740 1 28.256 8.83 30.022 12 11.015446192 1.766 16.5340359199
4741 1 31.788 7.064 28.256 12 11.015446192 1.766 19.0403081114
4742 1 33.554 8.83 28.256 12 11.015446192 1.766 19.0930847682
4743 1 33.554 7.064 30.022 12 11.015446192 1.766 20.8712208189
4744 1 31.788 8.83 30.022 12 11.015446192 1.766 18.6215720256
4745 1 35.32 7.064 28.256 12 11.015446192 1.766 21.4201625835
4746 1 37.086 8.83 28.256 12 11.015446192 1.766 21.605680201
4747 1 37.086 7.064 30.022 12 11.015446192 1.766 23.2935953655
4748 1 35.32 8.83 30.022 12 11.015446192 1.766 21.0325510274
4749 1 38.852 7.064 28.256 12 11.015446192 1.766 23.0234160425
4750 1 40.618 8.83 28.256 12 11.015446192 1.766 20.7414772676
4751 1 40.618 7.064 30.022 12 11.015446192 1.766 22.5939566864
4752 1 38.852 8.83 30.022 12 11.015446192 1.766 22.7569736563
4753 1 0.0 10.596 28.256 12 11.015446192 1.766 18.5152665717
4754 1 1.766 12.362 28.256 12 11.015446192 1.766 16.3675391308
4755 1 1.766 10.596 30.022 12 11.015446192 1.766 18.2973830479
4756 1 0.0 12.362 30.022 12 11.015446192 1.766 18.5208630207
4757 1 3.532 10.596 28.256 12 11.015446192 1.766 16.3250724201
4758 1 5.298 12.362 28.256 12 11.015446192 1.766 14.1862261693
4759 1 5.298 10.596 30.022 12 11.015446192 1.766 16.2445877664
4760 1 3.532 12.362 30.022 12 11.015446192 1.766 16.1899143498
4761 1 7.064 10.596 28.256 12 11.015446192 1.766 14.3736289253
4762 1 8.83 12.362 28.256 12 11.015446192 1.766 12.2812489746
4763 1 8.83 10.596 30.022 12 11.015446192 1.766 14.4588388101
4764 1 7.064 12.362 30.022 12 11.015446192 1.766 14.1985548948
4765 1 10.596 10.596 28.256 12 11.015446192 1.766 12.6014837217
4766 1 12.362 12.362 28.256 12 11.015446192 1.766 10.7158342941
4767 1 12.362 10.596 30.022 12 11.015446192 1.766 13.0533305286
4768 1 10.596 12.362 30.022 12 11.015446192 1.766 12.5033168457
4769 1 14.128 10.596 28.256 12 11.015446192 1.766 11.4283457677
4770 1 15.894 12.362 28.256 12 11.015446192 1.766 9.6185608892
4771 1 15.894 10.596 30.022 12 11.015446192 1.766 12.0728628205
4772 1 14.128 12.362 30.022 12 11.015446192 1.766 11.2473364138
4773 1 17.66 10.596 28.256 12 11.015446192 1.766 10.8518954196
4774 1 19.426 12.362 28.256 12 11.015446192 1.766 9.5945586267
4775 1 19.426 10.596 30.022 12 11.015446192 1.766 12.0537487258
4776 1 17.66 12.362 30.022 12 11.015446192 1.766 10.6681031925
4777 1 21.192 10.596 28.256 12 11.015446192 1.766 11.3919927958
4778 1 22.958 12.362 28.256 12 11.015446192 1.766 10.7362721746
4779 1 22.958 10.596 30.022 12 11.015446192 1.766 13.0292407253
4780 1 21.192 12.362 30.022 12 11.015446192 1.766 11.2170535966
4781 1 24.724 10.596 28.256 12 11.015446192 1.766 12.7025588185
4782 1 26.49 12.362 28.256 12 11.015446192 1.766 12.3343503954
4783 1 26.49 10.596 30.022 12 11.015446192 1.766 14.4734058892
4784 1 24.724 12.362 30.022 12 11.015446192 1.766 12.5721770695
4785 1 28.256 10.596 28.256 12 11.015446192 1.766 14.4842519117
4786 1 30.022 12.362 28.256 12 11.015446192 1.766 14.5882311051
4787 1 30.022 10.596 30.022 12 11.015446192 1.766 16.4436326564
4788 1 28.256 12.362 30.022 12 11.015446192 1.766 14.3700448563
4789 1 31.788 10.596 28.256 12 11.015446192 1.766 16.8090330831
4790 1 33.554 12.362 28.256 12 11.015446192 1.766 17.068304469
4791 1 33.554 10.596 30.022 12 11.015446192 1.766 18.827336042
4792 1 31.788 12.362 30.022 12 11.015446192 1.766 16.6986271448
4793 1 35.32 10.596 28.256 12 11.015446192 1.766 19.3087727522
4794 1 37.086 12.362 28.256 12 11.015446192 1.766 19.8288892462
4795 1 37.086 10.596 30.022 12 11.015446192 1.766 21.3657668441
4796 1 35.32 12.362 30.022 12 11.015446192 1.766 19.2030412457
4797 1 38.852 10.596 28.256 12 11.015446192 1.766 21.0674954014
4798 1 40.618 12.362 28.256 12 11.015446192 1.766 18.8797664039
4799 1 40.618 10.596 30.022 12 11.015446192 1.766 20.5972948459
4800 1 38.852 12.362 30.022 12 11.015446192 1.766 21.0740729384
4801 1 0.0 14.128 28.256 12 11.015446192 1.766 16.7787609925
4802 1 1.766 15.894 28.256 12 11.015446192 1.766 14.7967799742
4803 1 1.766 14.128 30.022 12 11.015446192 1.766 16.4947598126
4804 1 0.0 15.894 30.022 12 11.015446192 1.766 17.133946446
4805 1 3.532 14.128 28.256 12 11.015446192 1.766 14.2944476216
4806 1 5.298 15.894 28.256 12 11.015446192 1.766 12.2511647887
4807 1 5.298 14.128 30.022 12 11.015446192 1.766 14.1368094587
4808 1 3.532 15.894 30.022 12 11.015446192 1.766 14.5106086402
4809 1 7.064 14.128 28.256 12 11.015446192 1.766 12.0676606917
4810 1 8.83 15.894 28.256 12 11.015446192 1.766 10.1009900187
4811 1 8.83 14.128 30.022 12 11.015446192 1.766 12.2549037886
4812 1 7.064 15.894 30.022 12 11.015446192 1.766 12.2483083763
4813 1 10.596 14.128 28.256 12 11.015446192 1.766 10.3037655931
4814 1 12.362 15.894 28.256 12 11.015446192 1.766 8.340797226
4815 1 12.362 14.128 30.022 12 11.015446192 1.766 10.6127067318
4816 1 10.596 15.894 30.022 12 11.015446192 1.766 10.4046791764
4817 1 14.128 14.128 28.256 12 11.015446192 1.766 8.8716702379
4818 1 15.894 15.894 28.256 12 11.015446192 1.766 7.2849634463
4819 1 15.894 14.128 30.022 12 11.015446192 1.766 9.7258002035
4820 1 14.128 15.894 30.022 12 11.015446192 1.766 8.9911809224
4821 1 17.66 14.128 28.256 12 11.015446192 1.766 8.1736549121
4822 1 19.426 15.894 28.256 12 11.015446192 1.766 7.3173346314
4823 1 19.426 14.128 30.022 12 11.015446192 1.766 9.7127678223
4824 1 17.66 15.894 30.022 12 11.015446192 1.766 8.668976792
4825 1 21.192 14.128 28.256 12 11.015446192 1.766 8.8782036632
4826 1 22.958 15.894 28.256 12 11.015446192 1.766 8.5859868943
4827 1 22.958 14.128 30.022 12 11.015446192 1.766 10.8454240897
4828 1 21.192 15.894 30.022 12 11.015446192 1.766 9.2053466292
4829 1 24.724 14.128 28.256 12 11.015446192 1.766 10.3418504103
4830 1 26.49 15.894 28.256 12 11.015446192 1.766 10.4980994969
4831 1 26.49 14.128 30.022 12 11.015446192 1.766 12.453045708
4832 1 24.724 15.894 30.022 12 11.015446192 1.766 10.7385099438
4833 1 28.256 14.128 28.256 12 11.015446192 1.766 12.4645323506
4834 1 30.022 15.894 28.256 12 11.015446192 1.766 12.8743432432
4835 1 30.022 14.128 30.022 12 11.015446192 1.766 14.6797445809
4836 1 28.256 15.894 30.022 12 11.015446192 1.766 12.8226689798
4837 1 31.788 14.128 28.256 12 11.015446192 1.766 14.9097402289
4838 1 33.554 15.894 28.256 12 11.015446192 1.766 15.5774355153
4839 1 33.554 14.128 30.022 12 11.015446192 1.766 17.1316262315
4840 1 31.788 15.894 30.022 12 11.015446192 1.766 15.1889257547
4841 1 35.32 14.128 28.256 12 11.015446192 1.766 17.654550716
4842 1 37.086 15.894 28.256 12 11.015446192 1.766 18.56109718
4843 1 37.086 14.128 30.022 12 11.015446192 1.766 19.8834214517
4844 1 35.32 15.894 30.022 12 11.015446192 1.766 17.8909550576
4845 1 38.852 14.128 28.256 12 11.015446192 1.766 19.5589132293
4846 1 40.618 15.894 28.256 12 11.015446192 1.766 17.5394506096
4847 1 40.618 14.128 30.022 12 11.015446192 1.766 19.0515164538
4848 1 38.852 15.894 30.022 12 11.015446192 1.766 19.8822357504
4849 1 0.0 17.66 28.256 12 11.015446192 1.766 15.6552586074
4850 1 1.766 19.426 28.256 12 11.015446192 1.766 13.8362969697
4851 1 1.766 17.66 30.022 12 11.015446192 1.766 15.2854549934
4852 1 0.0 19.426 30.022 12 11.015446192 1.766 16.2443469605
4853 1 3.532 17.66 28.256 12 11.015446192 1.766 12.9011680661
4854 1 5.298 19.426 28.256 12 11.015446192 1.766 11.1093144993
4855 1 5.298 17.66 30.022 12 11.015446192 1.766 12.6779114809
4856 1 3.532 19.426 30.022 12 11.015446192 1.766 13.5580628614
4857 1 7.064 17.66 28.256 12 11.015446192 1.766 10.320295171
4858 1 8.83 19.426 28.256 12 11.015446192 1.766 8.6813186312
4859 1 8.83 17.66 30.022 12 11.015446192 1.766 10.5898270501
4860 1 7.064 19.426 30.022 12 11.015446192 1.766 11.1028092172
4861 1 10.596 17.66 28.256 12 11.015446192 1.766 8.3196616208
4862 1 12.362 19.426 28.256 12 11.015446192 1.766 6.7607933733
4863 1 12.362 17.66 30.022 12 11.015446192 1.766 8.7516702223
4864 1 10.596 19.426 30.022 12 11.015446192 1.766 9.099592464
4865 1 14.128 17.66 28.256 12 11.015446192 1.766 6.6346213584
4866 1 15.894 19.426 28.256 12 11.015446192 1.766 5.5626007203
4867 1 15.894 17.66 30.022 12 11.015446192 1.766 7.8439880535
4868 1 14.128 19.426 30.022 12 11.015446192 1.766 7.5682591052
4869 1 17.66 17.66 28.256 12 11.015446192 1.766 6.2903465635
4870 1 19.426 19.426 28.256 12 11.015446192 1.766 5.682352157
4871 1 19.426 17.66 30.022 12 11.015446192 1.766 7.9451884812
4872 1 17.66 19.426 30.022 12 11.015446192 1.766 7.2879655447
4873 1 21.192 17.66 28.256 12 11.015446192 1.766 6.9058502797
4874 1 22.958 19.426 28.256 12 11.015446192 1.766 7.1944467588
4875 1 22.958 17.66 30.022 12 11.015446192 1.766 9.0882868645
4876 1 21.192 19.426 30.022 12 11.015446192 1.766 7.8075478917
4877 1 24.724 17.66 28.256 12 11.015446192 1.766 8.7875196978
4878 1 26.49 19.426 28.256 12 11.015446192 1.766 9.4904410083
4879 1 26.49 17.66 30.022 12 11.015446192 1.766 11.1858794079
4880 1 24.724 19.426 30.022 12 11.015446192 1.766 9.63865998
4881 1 28.256 17.66 28.256 12 11.015446192 1.766 11.0305076126
4882 1 30.022 19.426 28.256 12 11.015446192 1.766 11.9175602256
4883 1 30.022 17.66 30.022 12 11.015446192 1.766 13.4309097916
4884 1 28.256 19.426 30.022 12 11.015446192 1.766 11.9378146977
4885 1 31.788 17.66 28.256 12 11.015446192 1.766 13.6420254171
4886 1 33.554 19.426 28.256 12 11.015446192 1.766 14.7964869148
4887 1 33.554 17.66 30.022 12 11.015446192 1.766 16.0404838182
4888 1 31.788 19.426 30.022 12 11.015446192 1.766 14.3869035366
4889 1 35.32 17.66 28.256 12 11.015446192 1.766 16.5978210851
4890 1 37.086 19.426 28.256 12 11.015446192 1.766 17.9107190339
4891 1 37.086 17.66 30.022 12 11.015446192 1.766 18.9513839181
4892 1 35.32 19.426 30.022 12 11.015446192 1.766 17.2152781174
4893 1 38.852 17.66 28.256 12 11.015446192 1.766 18.6040209223
4894 1 40.618 19.426 28.256 12 11.015446192 1.766 16.7326988936
4895 1 40.618 17.66 30.022 12 11.015446192 1.766 18.0444694177
4896 1 38.852 19.426 30.022 12 11.015446192 1.766 19.102142689
4897 1 0.0 21.192 28.256 12 11.015446192 1.766 14.950475112
4898 1 1.766 22.958 28.256 12 11.015446192 1.766 13.3985883436
4899 1 1.766 21.192 30.022 12 11.015446192 1.766 14.616660347
4900 1 0.0 22.958 30.022 12 11.015446192 1.766 15.8730190689
4901 1 3.532 21.192 28.256 12 11.015446192 1.766 12.1430517967
4902 1 5.298 22.958 28.256 12 11.015446192 1.766 10.7672742355
4903 1 5.298 21.192 30.022 12 11.015446192 1.766 12.0917039191
4904 1 3.532 22.958 30.022 12 11.015446192 1.766 13.2623427502
4905 1 7.064 21.192 28.256 12 11.015446192 1.766 9.5994352959
4906 1 8.83 22.958 28.256 12 11.015446192 1.766 8.2283307714
4907 1 8.83 21.192 30.022 12 11.015446192 1.766 9.6460599536
4908 1 7.064 22.958 30.022 12 11.015446192 1.766 10.719679353
4909 1 10.596 21.192 28.256 12 11.015446192 1.766 7.211597533
4910 1 12.362 22.958 28.256 12 11.015446192 1.766 5.9936638811
4911 1 12.362 21.192 30.022 12 11.015446192 1.766 7.8235803306
4912 1 10.596 22.958 30.022 12 11.015446192 1.766 8.4055647394
4913 1 14.128 21.192 28.256 12 11.015446192 1.766 5.6105412243
4914 1 15.894 22.958 28.256 12 11.015446192 1.766 5.1691858474
4915 1 15.894 21.192 30.022 12 11.015446192 1.766 7.044406624
4916 1 14.128 22.958 30.022 12 11.015446192 1.766 7.16527245
4917 1 17.66 21.192 28.256 12 11.015446192 1.766 5.2585125603
4918 1 19.426 22.958 28.256 12 11.015446192 1.766 5.3458856484
4919 1 19.426 21.192 30.022 12 11.015446192 1.766 7.1475148353
4920 1 17.66 22.958 30.022 12 11.015446192 1.766 6.7619282208
4921 1 21.192 21.192 28.256 12 11.015446192 1.766 6.0297945334
4922 1 22.958 22.958 28.256 12 11.015446192 1.766 6.9763380091
4923 1 22.958 21.192 30.022 12 11.015446192 1.766 8.4418370134
4924 1 21.192 22.958 30.022 12 11.015446192 1.766 7.6674192333
4925 1 24.724 21.192 28.256 12 11.015446192 1.766 8.0887078117
4926 1 26.49 22.958 28.256 12 11.015446192 1.766 9.1117224636
4927 1 26.49 21.192 30.022 12 11.015446192 1.766 10.5607235969
4928 1 24.724 22.958 30.022 12 11.015446192 1.766 9.3936652588
4929 1 28.256 21.192 28.256 12 11.015446192 1.766 10.4746963382
4930 1 30.022 22.958 28.256 12 11.015446192 1.766 11.8565607858
4931 1 30.022 21.192 30.022 12 11.015446192 1.766 12.9675722271
4932 1 28.256 22.958 30.022 12 11.015446192 1.766 11.6092093529
4933 1 31.788 21.192 28.256 12 11.015446192 1.766 13.2234416575
4934 1 33.554 22.958 28.256 12 11.015446192 1.766 14.8338499042
4935 1 33.554 21.192 30.022 12 11.015446192 1.766 15.6860343271
4936 1 31.788 22.958 30.022 12 11.015446192 1.766 14.3182546637
4937 1 35.32 21.192 28.256 12 11.015446192 1.766 16.2555287998
4938 1 37.086 22.958 28.256 12 11.015446192 1.766 17.945011343
4939 1 37.086 21.192 30.022 12 11.015446192 1.766 18.6523324064
4940 1 35.32 22.958 30.022 12 11.015446192 1.766 17.243650527
4941 1 38.852 21.192 28.256 12 11.015446192 1.766 18.0147093569
4942 1 40.618 22.958 28.256 12 11.015446192 1.766 16.3725438689
4943 1 40.618 21.192 30.022 12 11.015446192 1.766 17.3834629127
4944 1 38.852 22.958 30.022 12 11.015446192 1.766 18.7873835725
4945 1 0.0 24.724 28.256 12 11.015446192 1.766 14.9688228082
4946 1 1.766 26.49 28.256 12 11.015446192 1.766 13.8760997326
4947 1 1.766 24.724 30.022 12 11.015446192 1.766 14.6354265359
4948 1 0.0 26.49 30.022 12 11.015446192 1.766 16.2781051892
4949 1 3.532 24.724 28.256 12 11.015446192 1.766 12.1656342673
4950 1 5.298 26.49 28.256 12 11.015446192 1.766 11.2784531952
4951 1 5.298 24.724 30.022 12 11.015446192 1.766 12.1996378168
4952 1 3.532 26.49 30.022 12 11.015446192 1.766 13.712646831
4953 1 7.064 24.724 28.256 12 11.015446192 1.766 9.7335696164
4954 1 8.83 26.49 28.256 12 11.015446192 1.766 8.8307682306
4955 1 8.83 24.724 30.022 12 11.015446192 1.766 9.6174461964
4956 1 7.064 26.49 30.022 12 11.015446192 1.766 11.2280261634
4957 1 10.596 24.724 28.256 12 11.015446192 1.766 7.178317872
4958 1 12.362 26.49 28.256 12 11.015446192 1.766 6.6210595181
4959 1 12.362 24.724 30.022 12 11.015446192 1.766 7.7870391583
4960 1 10.596 26.49 30.022 12 11.015446192 1.766 8.9948917069
4961 1 14.128 24.724 28.256 12 11.015446192 1.766 5.5899696104
4962 1 15.894 26.49 28.256 12 11.015446192 1.766 5.616149094
4963 1 15.894 24.724 30.022 12 11.015446192 1.766 7.0193043245
4964 1 14.128 26.49 30.022 12 11.015446192 1.766 7.5491301271
4965 1 17.66 24.724 28.256 12 11.015446192 1.766 5.1480968357
4966 1 19.426 26.49 28.256 12 11.015446192 1.766 5.7249987738
4967 1 19.426 24.724 30.022 12 11.015446192 1.766 7.1177003569
4968 1 17.66 26.49 30.022 12 11.015446192 1.766 7.2409641594
4969 1 21.192 24.724 28.256 12 11.015446192 1.766 5.9583915145
4970 1 22.958 26.49 28.256 12 11.015446192 1.766 7.0162189884
4971 1 22.958 24.724 30.022 12 11.015446192 1.766 8.3216731788
4972 1 21.192 26.49 30.022 12 11.015446192 1.766 7.781484435
4973 1 24.724 24.724 28.256 12 11.015446192 1.766 7.9752707742
4974 1 26.49 26.49 28.256 12 11.015446192 1.766 9.5045460526
4975 1 26.49 24.724 30.022 12 11.015446192 1.766 10.4683252236
4976 1 24.724 26.49 30.022 12 11.015446192 1.766 9.4452451503
4977 1 28.256 24.724 28.256 12 11.015446192 1.766 10.5756962141
4978 1 30.022 26.49 28.256 12 11.015446192 1.766 12.1676076516
4979 1 30.022 24.724 30.022 12 11.015446192 1.766 13.0391408786
4980 1 28.256 26.49 30.022 12 11.015446192 1.766 11.946820448
4981 1 31.788 24.724 28.256 12 11.015446192 1.766 13.4020233804
4982 1 33.554 26.49 28.256 12 11.015446192 1.766 14.97097234
4983 1 33.554 24.724 30.022 12 11.015446192 1.766 15.8532830369
4984 1 31.788 26.49 30.022 12 11.015446192 1.766 14.6290884978
4985 1 35.32 24.724 28.256 12 11.015446192 1.766 16.4013151284
4986 1 37.086 26.49 28.256 12 11.015446192 1.766 18.0277152277
4987 1 37.086 24.724 30.022 12 11.015446192 1.766 18.8190622235
4988 1 35.32 26.49 30.022 12 11.015446192 1.766 17.4084887325
4989 1 38.852 24.724 28.256 12 11.015446192 1.766 18.0299390848
4990 1 40.618 26.49 28.256 12 11.015446192 1.766 16.7655649153
4991 1 40.618 24.724 30.022 12 11.015446192 1.766 17.3992451855
4992 1 38.852 26.49 30.022 12 11.015446192 1.766 19.1308587285
4993 1 0.0 28.256 28.256 12 11.015446192 1.766 15.7976154673
4994 1 1.766 30.022 28.256 12 11.015446192 1.766 15.0568970014
4995 1 1.766 28.256 30.022 12 11.015446192 1.766 15.4343432793
4996 1 0.0 30.022 30.022 12 11.015446192 1.766 17.3413186612
4997 1 3.532 28.256 28.256 12 11.015446192 1.766 13.0741048435
4998 1 5.298 30.022 28.256 12 11.015446192 1.766 12.4120478487
4999 1 5.298 28.256 30.022 12 11.015446192 1.766 12.897895539
5000 1 3.532 30.022 30.022 12 11.015446192 1.766 14.6912511325
5001 1 7.064 28.256 28.256 12 11.015446192 1.766 10.5267882997
5002 1 8.83 30.022 28.256 12 11.015446192 1.766 10.1612169997
5003 1 8.83 28.256 30.022 12 11.015446192 1.766 10.5675240204
5004 1 7.064 30.022 30.022 12 11.015446192 1.766 12.3705280309
5005 1 10.596 28.256 28.256 12 11.015446192 1.766 8.2341132241
5006 1 12.362 30.022 28.256 12 11.015446192 1.766 8.2019384592
5007 1 12.362 28.256 30.022 12 11.015446192 1.766 8.6436276655
5008 1 10.596 30.022 30.022 12 11.015446192 1.766 10.2425708084
5009 1 14.128 28.256 28.256 12 11.015446192 1.766 6.5811358399
5010 1 15.894 30.022 28.256 12 11.015446192 1.766 7.2010250068
5011 1 15.894 28.256 30.022 12 11.015446192 1.766 7.8334082579
5012 1 14.128 30.022 30.022 12 11.015446192 1.766 8.96612991
5013 1 17.66 28.256 28.256 12 11.015446192 1.766 6.045382832
5014 1 19.426 30.022 28.256 12 11.015446192 1.766 7.2129972998
5015 1 19.426 28.256 30.022 12 11.015446192 1.766 7.8836278107
5016 1 17.66 30.022 30.022 12 11.015446192 1.766 8.4399547562
5017 1 21.192 28.256 28.256 12 11.015446192 1.766 6.8385741504
5018 1 22.958 30.022 28.256 12 11.015446192 1.766 8.5420149768
5019 1 22.958 28.256 30.022 12 11.015446192 1.766 8.9729544446
5020 1 21.192 30.022 30.022 12 11.015446192 1.766 9.1385672244
5021 1 24.724 28.256 28.256 12 11.015446192 1.766 8.6848864326
5022 1 26.49 30.022 28.256 12 11.015446192 1.766 10.681863124
5023 1 26.49 28.256 30.022 12 11.015446192 1.766 11.0295100255
5024 1 24.724 30.022 30.022 12 11.015446192 1.766 10.6278571179
5025 1 28.256 28.256 28.256 12 11.015446192 1.766 11.3264504653
5026 1 30.022 30.022 28.256 12 11.015446192 1.766 13.1075869073
5027 1 30.022 28.256 30.022 12 11.015446192 1.766 13.7016903825
5028 1 28.256 30.022 30.022 12 11.015446192 1.766 12.9059114694
5029 1 31.788 28.256 28.256 12 11.015446192 1.766 13.846729277
5030 1 33.554 30.022 28.256 12 11.015446192 1.766 15.7393548171
5031 1 33.554 28.256 30.022 12 11.015446192 1.766 16.2609921841
5032 1 31.788 30.022 30.022 12 11.015446192 1.766 15.4356495709
5033 1 35.32 28.256 28.256 12 11.015446192 1.766 16.7369468899
5034 1 37.086 30.022 28.256 12 11.015446192 1.766 18.6707202214
5035 1 37.086 28.256 30.022 12 11.015446192 1.766 19.1125186812
5036 1 35.32 30.022 30.022 12 11.015446192 1.766 18.0735374845
5037 1 38.852 28.256 28.256 12 11.015446192 1.766 18.7237202925
5038 1 40.618 30.022 28.256 12 11.015446192 1.766 17.825130846
5039 1 40.618 28.256 30.022 12 11.015446192 1.766 18.1171943528
5040 1 38.852 30.022 30.022 12 11.015446192 1.766 20.0983684292
5041 1 0.0 31.788 28.256 12 11.015446192 1.766 17.1307852309
5042 1 1.766 33.554 28.256 12 11.015446192 1.766 16.6722308288
5043 1 1.766 31.788 30.022 12 11.015446192 1.766 16.6668843622
5044 1 0.0 33.554 30.022 12 11.015446192 1.766 18.7673182114
5045 1 3.532 31.788 28.256 12 11.015446192 1.766 14.4835629009
5046 1 5.298 33.554 28.256 12 11.015446192 1.766 14.3118302201
5047 1 5.298 31.788 30.022 12 11.015446192 1.766 14.3005885913
5048 1 3.532 33.554 30.022 12 11.015446192 1.766 16.3279641196
5049 1 7.064 31.788 28.256 12 11.015446192 1.766 12.1995102149
5050 1 8.83 33.554 28.256 12 11.015446192 1.766 12.3422281459
5051 1 8.83 31.788 30.022 12 11.015446192 1.766 12.1483841851
5052 1 7.064 33.554 30.022 12 11.015446192 1.766 14.2215577657
5053 1 10.596 31.788 28.256 12 11.015446192 1.766 10.1836763515
5054 1 12.362 33.554 28.256 12 11.015446192 1.766 10.729047974
5055 1 12.362 31.788 30.022 12 11.015446192 1.766 10.5175540248
5056 1 10.596 33.554 30.022 12 11.015446192 1.766 12.3811115902
5057 1 14.128 31.788 28.256 12 11.015446192 1.766 8.8587385428
5058 1 15.894 33.554 28.256 12 11.015446192 1.766 9.7539661731
5059 1 15.894 31.788 30.022 12 11.015446192 1.766 9.6327098636
5060 1 14.128 33.554 30.022 12 11.015446192 1.766 11.2518483077
5061 1 17.66 31.788 28.256 12 11.015446192 1.766 8.2064658091
5062 1 19.426 33.554 28.256 12 11.015446192 1.766 9.7622631361
5063 1 19.426 31.788 30.022 12 11.015446192 1.766 9.6411111781
5064 1 17.66 33.554 30.022 12 11.015446192 1.766 10.7008078096
5065 1 21.192 31.788 28.256 12 11.015446192 1.766 8.9433232363
5066 1 22.958 33.554 28.256 12 11.015446192 1.766 10.9126762951
5067 1 22.958 31.788 30.022 12 11.015446192 1.766 10.8002298237
5068 1 21.192 33.554 30.022 12 11.015446192 1.766 11.275825345
5069 1 24.724 31.788 28.256 12 11.015446192 1.766 10.549386841
5070 1 26.49 33.554 28.256 12 11.015446192 1.766 12.6131108868
5071 1 26.49 31.788 30.022 12 11.015446192 1.766 12.5643864304
5072 1 24.724 33.554 30.022 12 11.015446192 1.766 12.7124512592
5073 1 28.256 31.788 28.256 12 11.015446192 1.766 12.7689244822
5074 1 30.022 33.554 28.256 12 11.015446192 1.766 14.7238480649
5075 1 30.022 31.788 30.022 12 11.015446192 1.766 14.9641697308
5076 1 28.256 33.554 30.022 12 11.015446192 1.766 14.6477169687
5077 1 31.788 31.788 28.256 12 11.015446192 1.766 15.0927128191
5078 1 33.554 33.554 28.256 12 11.015446192 1.766 17.1616260094
5079 1 33.554 31.788 30.022 12 11.015446192 1.766 17.3347099216
5080 1 31.788 33.554 30.022 12 11.015446192 1.766 16.9171936263
5081 1 35.32 31.788 28.256 12 11.015446192 1.766 17.7819484998
5082 1 37.086 33.554 28.256 12 11.015446192 1.766 19.9160869536
5083 1 37.086 31.788 30.022 12 11.015446192 1.766 20.0339879104
5084 1 35.32 33.554 30.022 12 11.015446192 1.766 19.3694039504
5085 1 38.852 31.788 28.256 12 11.015446192 1.766 19.8912257729
5086 1 40.618 33.554 28.256 12 11.015446192 1.766 19.2805628266
5087 1 40.618 31.788 30.022 12 11.015446192 1.766 19.3561894215
5088 1 38.852 33.554 30.022 12 11.015446192 1.766 21.4376119267
5089 1 0.0 35.32 28.256 12 11.015446192 1.766 18.927011503
5090 1 1.766 37.086 28.256 12 11.015446192 1.766 18.7935759629
5091 1 1.766 35.32 30.022 12 11.015446192 1.766 18.4669870524
5092 1 0.0 37.086 30.022 12 11.015446192 1.766 20.686513319
5093 1 3.532 35.32 28.256 12 11.015446192 1.766 16.5232615048
5094 1 5.298 37.086 28.256 12 11.015446192 1.766 16.6617954076
5095 1 5.298 35.32 30.022 12 11.015446192 1.766 16.34614562
5096 1 3.532 37.086 30.022 12 11.015446192 1.766 18.5018479806
5097 1 7.064 35.32 28.256 12 11.015446192 1.766 14.5293718481
5098 1 8.83 37.086 28.256 12 11.015446192 1.766 14.8423184262
5099 1 8.83 35.32 30.022 12 11.015446192 1.766 14.4374488659
5100 1 7.064 37.086 30.022 12 11.015446192 1.766 16.5983559317
5101 1 10.596 35.32 28.256 12 11.015446192 1.766 12.7334361149
5102 1 12.362 37.086 28.256 12 11.015446192 1.766 13.4353619299
5103 1 12.362 35.32 30.022 12 11.015446192 1.766 13.0810885545
5104 1 10.596 37.086 30.022 12 11.015446192 1.766 14.9953538199
5105 1 14.128 35.32 28.256 12 11.015446192 1.766 11.5767768278
5106 1 15.894 37.086 28.256 12 11.015446192 1.766 12.7599768205
5107 1 15.894 35.32 30.022 12 11.015446192 1.766 12.1876402477
5108 1 14.128 37.086 30.022 12 11.015446192 1.766 13.9585996676
5109 1 17.66 35.32 28.256 12 11.015446192 1.766 11.0948436928
5110 1 19.426 37.086 28.256 12 11.015446192 1.766 12.7877394808
5111 1 19.426 35.32 30.022 12 11.015446192 1.766 12.1942814565
5112 1 17.66 37.086 30.022 12 11.015446192 1.766 13.5178321957
5113 1 21.192 35.32 28.256 12 11.015446192 1.766 11.6467582249
5114 1 22.958 37.086 28.256 12 11.015446192 1.766 13.6145577769
5115 1 22.958 35.32 30.022 12 11.015446192 1.766 13.181980147
5116 1 21.192 37.086 30.022 12 11.015446192 1.766 13.9774367
5117 1 24.724 35.32 28.256 12 11.015446192 1.766 12.8928760591
5118 1 26.49 37.086 28.256 12 11.015446192 1.766 14.9704522256
5119 1 26.49 35.32 30.022 12 11.015446192 1.766 14.7219009475
5120 1 24.724 37.086 30.022 12 11.015446192 1.766 15.1636113293
5121 1 28.256 35.32 28.256 12 11.015446192 1.766 14.6820003177
5122 1 30.022 37.086 28.256 12 11.015446192 1.766 16.7736486259
5123 1 30.022 35.32 30.022 12 11.015446192 1.766 16.7059513887
5124 1 28.256 37.086 30.022 12 11.015446192 1.766 16.7711609553
5125 1 31.788 35.32 28.256 12 11.015446192 1.766 16.7842775961
5126 1 33.554 37.086 28.256 12 11.015446192 1.766 18.9501258837
5127 1 33.554 35.32 30.022 12 11.015446192 1.766 18.916235724
5128 1 31.788 37.086 30.022 12 11.015446192 1.766 18.7411252535
5129 1 35.32 35.32 28.256 12 11.015446192 1.766 19.2857196187
5130 1 37.086 37.086 28.256 12 11.015446192 1.766 21.4897487606
5131 1 37.086 35.32 30.022 12 11.015446192 1.766 21.4596055302
5132 1 35.32 37.086 30.022 12 11.015446192 1.766 21.0108729602
5133 1 38.852 35.32 28.256 12 11.015446192 1.766 21.494856015
5134 1 40.618 37.086 28.256 12 11.015446192 1.766 21.2138273414
5135 1 40.618 35.32 30.022 12 11.015446192 1.766 20.9522511362
5136 1 38.852 37.086 30.022 12 11.015446192 1.766 23.1824172341
5137 1 0.0 38.852 28.256 12 11.015446192 1.766 21.0895213612
5138 1 1.766 40.618 28.256 12 11.015446192 1.766 21.0923618197
5139 1 1.766 38.852 30.022 12 11.015446192 1.766 20.7023636748
5140 1 0.0 40.618 30.022 12 11.015446192 1.766 22.9400242374
5141 1 3.532 38.852 28.256 12 11.015446192 1.766 18.8472749365
5142 1 5.298 40.618 28.256 12 11.015446192 1.766 19.1563906832
5143 1 5.298 38.852 30.022 12 11.015446192 1.766 18.7692103106
5144 1 3.532 40.618 30.022 12 11.015446192 1.766 20.8930514861
5145 1 7.064 38.852 28.256 12 11.015446192 1.766 16.9933244481
5146 1 8.83 40.618 28.256 12 11.015446192 1.766 17.5435396023
5147 1 8.83 38.852 30.022 12 11.015446192 1.766 17.0184694024
5148 1 7.064 40.618 30.022 12 11.015446192 1.766 19.126293418
5149 1 10.596 38.852 28.256 12 11.015446192 1.766 15.4241646122
5150 1 12.362 40.618 28.256 12 11.015446192 1.766 16.3703305355
5151 1 12.362 38.852 30.022 12 11.015446192 1.766 15.8045040975
5152 1 10.596 40.618 30.022 12 11.015446192 1.766 17.7074000343
5153 1 14.128 38.852 28.256 12 11.015446192 1.766 14.511566137
5154 1 15.894 40.618 28.256 12 11.015446192 1.766 15.9022773799
5155 1 15.894 38.852 30.022 12 11.015446192 1.766 15.1406061145
5156 1 14.128 40.618 30.022 12 11.015446192 1.766 16.8993432243
5157 1 17.66 38.852 28.256 12 11.015446192 1.766 14.2724868108
5158 1 19.426 40.618 28.256 12 11.015446192 1.766 16.0216193221
5159 1 19.426 38.852 30.022 12 11.015446192 1.766 15.1459573395
5160 1 17.66 40.618 30.022 12 11.015446192 1.766 16.6104284942
5161 1 21.192 38.852 28.256 12 11.015446192 1.766 14.6807919769
5162 1 22.958 40.618 28.256 12 11.015446192 1.766 16.604392207
5163 1 22.958 38.852 30.022 12 11.015446192 1.766 15.9292322049
5164 1 21.192 40.618 30.022 12 11.015446192 1.766 16.9865514968
5165 1 24.724 38.852 28.256 12 11.015446192 1.766 15.610044505
5166 1 26.49 40.618 28.256 12 11.015446192 1.766 17.7206027557
5167 1 26.49 38.852 30.022 12 11.015446192 1.766 17.1636725355
5168 1 24.724 40.618 30.022 12 11.015446192 1.766 17.8992148932
5169 1 28.256 38.852 28.256 12 11.015446192 1.766 17.110479355
5170 1 30.022 40.618 28.256 12 11.015446192 1.766 19.2579573842
5171 1 30.022 38.852 30.022 12 11.015446192 1.766 18.8760953005
5172 1 28.256 40.618 30.022 12 11.015446192 1.766 19.2662326742
5173 1 31.788 38.852 28.256 12 11.015446192 1.766 18.9407123628
5174 1 33.554 40.618 28.256 12 11.015446192 1.766 21.1806729212
5175 1 33.554 38.852 30.022 12 11.015446192 1.766 20.8533590664
5176 1 31.788 40.618 30.022 12 11.015446192 1.766 20.993889829
5177 1 35.32 38.852 28.256 12 11.015446192 1.766 21.1890913348
5178 1 37.086 40.618 28.256 12 11.015446192 1.766 23.4802669529
5179 1 37.086 38.852 30.022 12 11.015446192 1.766 23.1854397227
5180 1 35.32 40.618 30.022 12 11.015446192 1.766 23.0427953369
5181 1 38.852 38.852 28.256 12 11.015446192 1.766 23.5232591765
5182 1 40.618 40.618 28.256 12 11.015446192 1.766 23.4035188013
5183 1 40.618 38.852 30.022 12 11.015446192 1.766 22.9632114436
5184 1 38.852 40.618 30.022 12 11.015446192 1.766 25.2763199204
5185 1 0.0 0.0 31.788 12 11.015446192 1.766 24.9033296827
5186 1 1.766 1.766 31.788 12 11.015446192 1.766 24.9794147465
5187 1 1.766 0.0 33.554 12 11.015446192 1.766 24.8118497036
5188 1 0.0 1.766 33.554 12 11.015446192 1.766 26.7937086667
5189 1 3.532 0.0 31.788 12 11.015446192 1.766 23.0107367975
5190 1 5.298 1.766 31.788 12 11.015446192 1.766 23.2414716742
5191 1 5.298 0.0 33.554 12 11.015446192 1.766 22.9988885734
5192 1 3.532 1.766 33.554 12 11.015446192 1.766 24.9362982977
5193 1 7.064 0.0 31.788 12 11.015446192 1.766 21.3058040426
5194 1 8.83 1.766 31.788 12 11.015446192 1.766 21.8759159361
5195 1 8.83 0.0 33.554 12 11.015446192 1.766 21.5732821583
5196 1 7.064 1.766 33.554 12 11.015446192 1.766 23.4037099891
5197 1 10.596 0.0 31.788 12 11.015446192 1.766 20.0418113444
5198 1 12.362 1.766 31.788 12 11.015446192 1.766 20.9379552019
5199 1 12.362 0.0 33.554 12 11.015446192 1.766 20.5629129941
5200 1 10.596 1.766 33.554 12 11.015446192 1.766 22.2894652274
5201 1 14.128 0.0 31.788 12 11.015446192 1.766 19.2874492795
5202 1 15.894 1.766 31.788 12 11.015446192 1.766 20.3267443271
5203 1 15.894 0.0 33.554 12 11.015446192 1.766 19.960226845
5204 1 14.128 1.766 33.554 12 11.015446192 1.766 21.4448001488
5205 1 17.66 0.0 31.788 12 11.015446192 1.766 18.9866430277
5206 1 19.426 1.766 31.788 12 11.015446192 1.766 20.3153975251
5207 1 19.426 0.0 33.554 12 11.015446192 1.766 19.9642826351
5208 1 17.66 1.766 33.554 12 11.015446192 1.766 21.1410328765
5209 1 21.192 0.0 31.788 12 11.015446192 1.766 19.3165618808
5210 1 22.958 1.766 31.788 12 11.015446192 1.766 20.9094300798
5211 1 22.958 0.0 33.554 12 11.015446192 1.766 20.5835991646
5212 1 21.192 1.766 33.554 12 11.015446192 1.766 21.4232849196
5213 1 24.724 0.0 31.788 12 11.015446192 1.766 20.2131724905
5214 1 26.49 1.766 31.788 12 11.015446192 1.766 22.0476187321
5215 1 26.49 0.0 33.554 12 11.015446192 1.766 21.721248541
5216 1 24.724 1.766 33.554 12 11.015446192 1.766 22.2692849102
5217 1 28.256 0.0 31.788 12 11.015446192 1.766 21.4565171623
5218 1 30.022 1.766 31.788 12 11.015446192 1.766 23.4267755048
5219 1 30.022 0.0 33.554 12 11.015446192 1.766 23.1570797423
5220 1 28.256 1.766 33.554 12 11.015446192 1.766 23.5509939289
5221 1 31.788 0.0 31.788 12 11.015446192 1.766 23.1187141227
5222 1 33.554 1.766 31.788 12 11.015446192 1.766 25.192805232
5223 1 33.554 0.0 33.554 12 11.015446192 1.766 24.9591942138
5224 1 31.788 1.766 33.554 12 11.015446192 1.766 25.0624389884
5225 1 35.32 0.0 31.788 12 11.015446192 1.766 25.0087637895
5226 1 37.086 1.766 31.788 12 11.015446192 1.766 27.2076944055
5227 1 37.086 0.0 33.554 12 11.015446192 1.766 26.9536697654
5228 1 35.32 1.766 33.554 12 11.015446192 1.766 26.9530053418
5229 1 38.852 0.0 31.788 12 11.015446192 1.766 27.0745329681
5230 1 40.618 1.766 31.788 12 11.015446192 1.766 26.8800296242
5231 1 40.618 0.0 33.554 12 11.015446192 1.766 26.7547539659
5232 1 38.852 1.766 33.554 12 11.015446192 1.766 28.7534362884
5233 1 0.0 3.532 31.788 12 11.015446192 1.766 24.7162425806
5234 1 1.766 5.298 31.788 12 11.015446192 1.766 22.5829148526
5235 1 1.766 3.532 33.554 12 11.015446192 1.766 24.6642411055
5236 1 0.0 5.298 33.554 12 11.015446192 1.766 24.4611928533
5237 1 3.532 3.532 31.788 12 11.015446192 1.766 22.8213135009
5238 1 5.298 5.298 31.788 12 11.015446192 1.766 20.684243361
5239 1 5.298 3.532 33.554 12 11.015446192 1.766 22.8555191133
5240 1 3.532 5.298 33.554 12 11.015446192 1.766 22.5583445986
5241 1 7.064 3.532 31.788 12 11.015446192 1.766 21.141411938
5242 1 8.83 5.298 31.788 12 11.015446192 1.766 19.1370743815
5243 1 8.83 3.532 33.554 12 11.015446192 1.766 21.4654244403
5244 1 7.064 5.298 33.554 12 11.015446192 1.766 20.8663738846
5245 1 10.596 3.532 31.788 12 11.015446192 1.766 19.9394252095
5246 1 12.362 5.298 31.788 12 11.015446192 1.766 18.0335783632
5247 1 12.362 3.532 33.554 12 11.015446192 1.766 20.3941167204
5248 1 10.596 5.298 33.554 12 11.015446192 1.766 19.5924852237
5249 1 14.128 3.532 31.788 12 11.015446192 1.766 19.0520226307
5250 1 15.894 5.298 31.788 12 11.015446192 1.766 17.3160739015
5251 1 15.894 3.532 33.554 12 11.015446192 1.766 19.7612952629
5252 1 14.128 5.298 33.554 12 11.015446192 1.766 18.6158355667
5253 1 17.66 3.532 31.788 12 11.015446192 1.766 18.7094463836
5254 1 19.426 5.298 31.788 12 11.015446192 1.766 17.3027528742
5255 1 19.426 3.532 33.554 12 11.015446192 1.766 19.7496235946
5256 1 17.66 5.298 33.554 12 11.015446192 1.766 18.2650801123
5257 1 21.192 3.532 31.788 12 11.015446192 1.766 19.0278020182
5258 1 22.958 5.298 31.788 12 11.015446192 1.766 17.9965037351
5259 1 22.958 3.532 33.554 12 11.015446192 1.766 20.3601699843
5260 1 21.192 5.298 33.554 12 11.015446192 1.766 18.5910466938
5261 1 24.724 3.532 31.788 12 11.015446192 1.766 19.9755140937
5262 1 26.49 5.298 31.788 12 11.015446192 1.766 19.257698374
5263 1 26.49 3.532 33.554 12 11.015446192 1.766 21.5322737505
5264 1 24.724 5.298 33.554 12 11.015446192 1.766 19.5599317697
5265 1 28.256 3.532 31.788 12 11.015446192 1.766 21.3009714517
5266 1 30.022 5.298 31.788 12 11.015446192 1.766 20.7855132225
5267 1 30.022 3.532 33.554 12 11.015446192 1.766 22.9522528367
5268 1 28.256 5.298 33.554 12 11.015446192 1.766 20.9275176864
5269 1 31.788 3.532 31.788 12 11.015446192 1.766 22.9590937472
5270 1 33.554 5.298 31.788 12 11.015446192 1.766 22.7574424053
5271 1 33.554 3.532 33.554 12 11.015446192 1.766 24.7521622326
5272 1 31.788 5.298 33.554 12 11.015446192 1.766 22.6130404285
5273 1 35.32 3.532 31.788 12 11.015446192 1.766 25.0091710098
5274 1 37.086 5.298 31.788 12 11.015446192 1.766 25.0728044549
5275 1 37.086 3.532 33.554 12 11.015446192 1.766 26.8976431698
5276 1 35.32 5.298 33.554 12 11.015446192 1.766 24.6918659952
5277 1 38.852 3.532 31.788 12 11.015446192 1.766 26.7503968807
5278 1 40.618 5.298 31.788 12 11.015446192 1.766 24.5609426174
5279 1 40.618 3.532 33.554 12 11.015446192 1.766 26.6047966793
5280 1 38.852 5.298 33.554 12 11.015446192 1.766 26.5213776421
5281 1 0.0 7.064 31.788 12 11.015446192 1.766 22.4200611518
5282 1 1.766 8.83 31.788 12 11.015446192 1.766 20.2863879653
5283 1 1.766 7.064 33.554 12 11.015446192 1.766 22.3339735869
5284 1 0.0 8.83 33.554 12 11.015446192 1.766 22.2943879399
5285 1 3.532 7.064 31.788 12 11.015446192 1.766 20.4534472914
5286 1 5.298 8.83 31.788 12 11.015446192 1.766 18.3695288403
5287 1 5.298 7.064 33.554 12 11.015446192 1.766 20.5384284539
5288 1 3.532 8.83 33.554 12 11.015446192 1.766 20.2867686089
5289 1 7.064 7.064 31.788 12 11.015446192 1.766 18.6307874383
5290 1 8.83 8.83 31.788 12 11.015446192 1.766 16.6817246298
5291 1 8.83 7.064 33.554 12 11.015446192 1.766 18.9681166485
5292 1 7.064 8.83 33.554 12 11.015446192 1.766 18.5681959992
5293 1 10.596 7.064 31.788 12 11.015446192 1.766 17.2472036117
5294 1 12.362 8.83 31.788 12 11.015446192 1.766 15.3908267632
5295 1 12.362 7.064 33.554 12 11.015446192 1.766 17.7500676401
5296 1 10.596 8.83 33.554 12 11.015446192 1.766 17.1107345618
5297 1 14.128 7.064 31.788 12 11.015446192 1.766 16.1902585138
5298 1 15.894 8.83 31.788 12 11.015446192 1.766 14.5418824018
5299 1 15.894 7.064 33.554 12 11.015446192 1.766 17.0192154605
5300 1 14.128 8.83 33.554 12 11.015446192 1.766 16.0676464447
5301 1 17.66 7.064 31.788 12 11.015446192 1.766 15.7856988571
5302 1 19.426 8.83 31.788 12 11.015446192 1.766 14.5260175358
5303 1 19.426 7.064 33.554 12 11.015446192 1.766 17.0056618969
5304 1 17.66 8.83 33.554 12 11.015446192 1.766 15.6599195379
5305 1 21.192 7.064 31.788 12 11.015446192 1.766 16.1617497217
5306 1 22.958 8.83 31.788 12 11.015446192 1.766 15.3458162087
5307 1 22.958 7.064 33.554 12 11.015446192 1.766 17.7110537861
5308 1 21.192 8.83 33.554 12 11.015446192 1.766 16.0389197141
5309 1 24.724 7.064 31.788 12 11.015446192 1.766 17.2636923915
5310 1 26.49 8.83 31.788 12 11.015446192 1.766 16.7122045341
5311 1 26.49 7.064 33.554 12 11.015446192 1.766 19.0036243034
5312 1 24.724 8.83 33.554 12 11.015446192 1.766 17.1513696309
5313 1 28.256 7.064 31.788 12 11.015446192 1.766 18.693051066
5314 1 30.022 8.83 31.788 12 11.015446192 1.766 18.4448192535
5315 1 30.022 7.064 33.554 12 11.015446192 1.766 20.5549187216
5316 1 28.256 8.83 33.554 12 11.015446192 1.766 18.604698167
5317 1 31.788 7.064 31.788 12 11.015446192 1.766 20.5625572112
5318 1 33.554 8.83 31.788 12 11.015446192 1.766 20.6415838104
5319 1 33.554 7.064 33.554 12 11.015446192 1.766 22.5470243837
5320 1 31.788 8.83 33.554 12 11.015446192 1.766 20.4822702548
5321 1 35.32 7.064 31.788 12 11.015446192 1.766 22.8288722448
5322 1 37.086 8.83 31.788 12 11.015446192 1.766 23.0712409926
5323 1 37.086 7.064 33.554 12 11.015446192 1.766 24.8786344741
5324 1 35.32 8.83 33.554 12 11.015446192 1.766 22.755953301
5325 1 38.852 7.064 31.788 12 11.015446192 1.766 24.5844536546
5326 1 40.618 8.83 31.788 12 11.015446192 1.766 22.461121043
5327 1 40.618 7.064 33.554 12 11.015446192 1.766 24.404032352
5328 1 38.852 8.83 33.554 12 11.015446192 1.766 24.5821310353
5329 1 0.0 10.596 31.788 12 11.015446192 1.766 20.3743953808
5330 1 1.766 12.362 31.788 12 11.015446192 1.766 18.3053602085
5331 1 1.766 10.596 33.554 12 11.015446192 1.766 20.2431800374
5332 1 0.0 12.362 33.554 12 11.015446192 1.766 20.5059678987
5333 1 3.532 10.596 31.788 12 11.015446192 1.766 18.1828309932
5334 1 5.298 12.362 31.788 12 11.015446192 1.766 16.1887146907
5335 1 5.298 10.596 33.554 12 11.015446192 1.766 18.3400586648
5336 1 3.532 12.362 33.554 12 11.015446192 1.766 18.3032228429
5337 1 7.064 10.596 31.788 12 11.015446192 1.766 16.3833552369
5338 1 8.83 12.362 31.788 12 11.015446192 1.766 14.4231588952
5339 1 8.83 10.596 33.554 12 11.015446192 1.766 16.6189511971
5340 1 7.064 12.362 33.554 12 11.015446192 1.766 16.4619665787
5341 1 10.596 10.596 31.788 12 11.015446192 1.766 14.7806981001
5342 1 12.362 12.362 31.788 12 11.015446192 1.766 12.9678530985
5343 1 12.362 10.596 33.554 12 11.015446192 1.766 15.3626485593
5344 1 10.596 12.362 33.554 12 11.015446192 1.766 14.8138881154
5345 1 14.128 10.596 31.788 12 11.015446192 1.766 13.6462237695
5346 1 15.894 12.362 31.788 12 11.015446192 1.766 12.1670177205
5347 1 15.894 10.596 33.554 12 11.015446192 1.766 14.6201452563
5348 1 14.128 12.362 33.554 12 11.015446192 1.766 13.8461952845
5349 1 17.66 10.596 31.788 12 11.015446192 1.766 13.1637092352
5350 1 19.426 12.362 31.788 12 11.015446192 1.766 12.1480517727
5351 1 19.426 10.596 33.554 12 11.015446192 1.766 14.6043654082
5352 1 17.66 12.362 33.554 12 11.015446192 1.766 13.4834363705
5353 1 21.192 10.596 31.788 12 11.015446192 1.766 13.612387979
5354 1 22.958 12.362 31.788 12 11.015446192 1.766 13.1163845951
5355 1 22.958 10.596 33.554 12 11.015446192 1.766 15.4199993074
5356 1 21.192 12.362 33.554 12 11.015446192 1.766 13.9206627526
5357 1 24.724 10.596 31.788 12 11.015446192 1.766 14.8608699785
5358 1 26.49 12.362 31.788 12 11.015446192 1.766 14.574691275
5359 1 26.49 10.596 33.554 12 11.015446192 1.766 16.7999978607
5360 1 24.724 12.362 33.554 12 11.015446192 1.766 15.1028364325
5361 1 28.256 10.596 31.788 12 11.015446192 1.766 16.43407982
5362 1 30.022 12.362 31.788 12 11.015446192 1.766 16.5328522242
5363 1 30.022 10.596 33.554 12 11.015446192 1.766 18.52440296
5364 1 28.256 12.362 33.554 12 11.015446192 1.766 16.7110334587
5365 1 31.788 10.596 31.788 12 11.015446192 1.766 18.5328783635
5366 1 33.554 12.362 31.788 12 11.015446192 1.766 18.8882962888
5367 1 33.554 10.596 33.554 12 11.015446192 1.766 20.7127286935
5368 1 31.788 12.362 33.554 12 11.015446192 1.766 18.7789041258
5369 1 35.32 10.596 31.788 12 11.015446192 1.766 20.935745728
5370 1 37.086 12.362 31.788 12 11.015446192 1.766 21.4163860799
5371 1 37.086 10.596 33.554 12 11.015446192 1.766 23.1181262395
5372 1 35.32 12.362 33.554 12 11.015446192 1.766 21.135481094
5373 1 38.852 10.596 31.788 12 11.015446192 1.766 22.7630630127
5374 1 40.618 12.362 31.788 12 11.015446192 1.766 20.7418823278
5375 1 40.618 10.596 33.554 12 11.015446192 1.766 22.5271674142
5376 1 38.852 12.362 33.554 12 11.015446192 1.766 23.0100960844
5377 1 0.0 14.128 31.788 12 11.015446192 1.766 18.7578915017
5378 1 1.766 15.894 31.788 12 11.015446192 1.766 16.8371982886
5379 1 1.766 14.128 33.554 12 11.015446192 1.766 18.593449058
5380 1 0.0 15.894 33.554 12 11.015446192 1.766 19.2067632179
5381 1 3.532 14.128 31.788 12 11.015446192 1.766 16.3262167318
5382 1 5.298 15.894 31.788 12 11.015446192 1.766 14.5079122269
5383 1 5.298 14.128 33.554 12 11.015446192 1.766 16.5134546104
5384 1 3.532 15.894 33.554 12 11.015446192 1.766 16.8348745253
5385 1 7.064 14.128 31.788 12 11.015446192 1.766 14.3366687286
5386 1 8.83 15.894 31.788 12 11.015446192 1.766 12.6014461069
5387 1 8.83 14.128 33.554 12 11.015446192 1.766 14.6697538628
5388 1 7.064 15.894 33.554 12 11.015446192 1.766 14.8705160898
5389 1 10.596 14.128 31.788 12 11.015446192 1.766 12.5569940386
5390 1 12.362 15.894 31.788 12 11.015446192 1.766 10.9385729183
5391 1 12.362 14.128 33.554 12 11.015446192 1.766 13.2358621668
5392 1 10.596 15.894 33.554 12 11.015446192 1.766 13.0743429892
5393 1 14.128 14.128 31.788 12 11.015446192 1.766 11.4078697481
5394 1 15.894 15.894 31.788 12 11.015446192 1.766 10.2268663037
5395 1 15.894 14.128 33.554 12 11.015446192 1.766 12.6449870122
5396 1 14.128 15.894 33.554 12 11.015446192 1.766 11.9749671191
5397 1 17.66 14.128 31.788 12 11.015446192 1.766 11.0602098196
5398 1 19.426 15.894 31.788 12 11.015446192 1.766 10.3159118282
5399 1 19.426 14.128 33.554 12 11.015446192 1.766 12.7077966261
5400 1 17.66 15.894 33.554 12 11.015446192 1.766 11.811533115
5401 1 21.192 14.128 31.788 12 11.015446192 1.766 11.5558912475
5402 1 22.958 15.894 31.788 12 11.015446192 1.766 11.220912445
5403 1 22.958 14.128 33.554 12 11.015446192 1.766 13.4794591162
5404 1 21.192 15.894 33.554 12 11.015446192 1.766 12.1483184027
5405 1 24.724 14.128 31.788 12 11.015446192 1.766 12.8688506779
5406 1 26.49 15.894 31.788 12 11.015446192 1.766 13.0124382614
5407 1 26.49 14.128 33.554 12 11.015446192 1.766 15.0239751554
5408 1 24.724 15.894 33.554 12 11.015446192 1.766 13.3987910702
5409 1 28.256 14.128 31.788 12 11.015446192 1.766 14.6859745642
5410 1 30.022 15.894 31.788 12 11.015446192 1.766 15.1838655464
5411 1 30.022 14.128 33.554 12 11.015446192 1.766 16.9927153333
5412 1 28.256 15.894 33.554 12 11.015446192 1.766 15.3539256228
5413 1 31.788 14.128 31.788 12 11.015446192 1.766 16.9564489688
5414 1 33.554 15.894 31.788 12 11.015446192 1.766 17.553724426
5415 1 33.554 14.128 33.554 12 11.015446192 1.766 19.2728925002
5416 1 31.788 15.894 33.554 12 11.015446192 1.766 17.5662925094
5417 1 35.32 14.128 31.788 12 11.015446192 1.766 19.420605165
5418 1 37.086 15.894 31.788 12 11.015446192 1.766 20.2482362815
5419 1 37.086 14.128 33.554 12 11.015446192 1.766 21.7555100288
5420 1 35.32 15.894 33.554 12 11.015446192 1.766 19.9508907285
5421 1 38.852 14.128 31.788 12 11.015446192 1.766 21.3744385373
5422 1 40.618 15.894 31.788 12 11.015446192 1.766 19.4996171211
5423 1 40.618 14.128 33.554 12 11.015446192 1.766 21.0636683628
5424 1 38.852 15.894 33.554 12 11.015446192 1.766 21.88455023
5425 1 0.0 17.66 31.788 12 11.015446192 1.766 17.6863469044
5426 1 1.766 19.426 31.788 12 11.015446192 1.766 16.0211241865
5427 1 1.766 17.66 33.554 12 11.015446192 1.766 17.5098945091
5428 1 0.0 19.426 33.554 12 11.015446192 1.766 18.4927803097
5429 1 3.532 17.66 31.788 12 11.015446192 1.766 15.0806303124
5430 1 5.298 19.426 31.788 12 11.015446192 1.766 13.550108883
5431 1 5.298 17.66 33.554 12 11.015446192 1.766 15.2791043755
5432 1 3.532 19.426 33.554 12 11.015446192 1.766 16.0113874434
5433 1 7.064 17.66 31.788 12 11.015446192 1.766 12.916840884
5434 1 8.83 19.426 31.788 12 11.015446192 1.766 11.4383980816
5435 1 8.83 17.66 33.554 12 11.015446192 1.766 13.364785113
5436 1 7.064 19.426 33.554 12 11.015446192 1.766 13.8048982531
5437 1 10.596 17.66 31.788 12 11.015446192 1.766 11.0290655447
5438 1 12.362 19.426 31.788 12 11.015446192 1.766 9.7881251972
5439 1 12.362 17.66 33.554 12 11.015446192 1.766 11.7961957767
5440 1 10.596 19.426 33.554 12 11.015446192 1.766 12.0589930285
5441 1 14.128 17.66 31.788 12 11.015446192 1.766 9.7006020273
5442 1 15.894 19.426 31.788 12 11.015446192 1.766 9.0014446561
5443 1 15.894 17.66 33.554 12 11.015446192 1.766 11.1394188227
5444 1 14.128 19.426 33.554 12 11.015446192 1.766 10.9470109622
5445 1 17.66 17.66 31.788 12 11.015446192 1.766 9.4910062912
5446 1 19.426 19.426 31.788 12 11.015446192 1.766 9.0901357524
5447 1 19.426 17.66 33.554 12 11.015446192 1.766 11.2224099891
5448 1 17.66 19.426 33.554 12 11.015446192 1.766 10.7618114635
5449 1 21.192 17.66 31.788 12 11.015446192 1.766 9.901121656
5450 1 22.958 19.426 31.788 12 11.015446192 1.766 10.1045289908
5451 1 22.958 17.66 33.554 12 11.015446192 1.766 12.058748861
5452 1 21.192 19.426 33.554 12 11.015446192 1.766 11.1253885344
5453 1 24.724 17.66 31.788 12 11.015446192 1.766 11.4007969975
5454 1 26.49 19.426 31.788 12 11.015446192 1.766 12.1042965612
5455 1 26.49 17.66 33.554 12 11.015446192 1.766 13.7780408703
5456 1 24.724 19.426 33.554 12 11.015446192 1.766 12.4787912945
5457 1 28.256 17.66 31.788 12 11.015446192 1.766 13.6175923953
5458 1 30.022 19.426 31.788 12 11.015446192 1.766 14.4008072805
5459 1 30.022 17.66 33.554 12 11.015446192 1.766 16.0617901456
5460 1 28.256 19.426 33.554 12 11.015446192 1.766 14.5748835918
5461 1 31.788 17.66 31.788 12 11.015446192 1.766 15.8613240768
5462 1 33.554 19.426 31.788 12 11.015446192 1.766 16.864541767
5463 1 33.554 17.66 33.554 12 11.015446192 1.766 18.3098030877
5464 1 31.788 19.426 33.554 12 11.015446192 1.766 16.8725801895
5465 1 35.32 17.66 31.788 12 11.015446192 1.766 18.4652216007
5466 1 37.086 19.426 31.788 12 11.015446192 1.766 19.6537680942
5467 1 37.086 17.66 33.554 12 11.015446192 1.766 20.9070973691
5468 1 35.32 19.426 33.554 12 11.015446192 1.766 19.3472884056
5469 1 38.852 17.66 31.788 12 11.015446192 1.766 20.436210516
5470 1 40.618 19.426 31.788 12 11.015446192 1.766 18.6757703171
5471 1 40.618 17.66 33.554 12 11.015446192 1.766 20.1089543738
5472 1 38.852 19.426 33.554 12 11.015446192 1.766 21.1226184385
5473 1 0.0 21.192 31.788 12 11.015446192 1.766 17.097217214
5474 1 1.766 22.958 31.788 12 11.015446192 1.766 15.7581820013
5475 1 1.766 21.192 33.554 12 11.015446192 1.766 17.0765216503
5476 1 0.0 22.958 33.554 12 11.015446192 1.766 18.2544758552
5477 1 3.532 21.192 31.788 12 11.015446192 1.766 14.5840820151
5478 1 5.298 22.958 31.788 12 11.015446192 1.766 13.2132919933
5479 1 5.298 21.192 33.554 12 11.015446192 1.766 14.5749405631
5480 1 3.532 22.958 33.554 12 11.015446192 1.766 15.70814022
5481 1 7.064 21.192 31.788 12 11.015446192 1.766 12.1042067294
5482 1 8.83 22.958 31.788 12 11.015446192 1.766 10.856244952
5483 1 8.83 21.192 33.554 12 11.015446192 1.766 12.4778147756
5484 1 7.064 22.958 33.554 12 11.015446192 1.766 13.3243241602
5485 1 10.596 21.192 31.788 12 11.015446192 1.766 10.1120627819
5486 1 12.362 22.958 31.788 12 11.015446192 1.766 9.2776652028
5487 1 12.362 21.192 33.554 12 11.015446192 1.766 11.1277243251
5488 1 10.596 22.958 33.554 12 11.015446192 1.766 11.5446787519
5489 1 14.128 21.192 31.788 12 11.015446192 1.766 9.0330541207
5490 1 15.894 22.958 31.788 12 11.015446192 1.766 8.6626295895
5491 1 15.894 21.192 33.554 12 11.015446192 1.766 10.543980878
5492 1 14.128 22.958 33.554 12 11.015446192 1.766 10.6601722738
5493 1 17.66 21.192 31.788 12 11.015446192 1.766 8.749171635
5494 1 19.426 22.958 31.788 12 11.015446192 1.766 8.7389300588
5495 1 19.426 21.192 33.554 12 11.015446192 1.766 10.6185298849
5496 1 17.66 22.958 33.554 12 11.015446192 1.766 10.2882730981
5497 1 21.192 21.192 31.788 12 11.015446192 1.766 9.3000400562
5498 1 22.958 22.958 31.788 12 11.015446192 1.766 10.0481788793
5499 1 22.958 21.192 33.554 12 11.015446192 1.766 11.579102386
5500 1 21.192 22.958 33.554 12 11.015446192 1.766 10.9285569345
5501 1 24.724 21.192 31.788 12 11.015446192 1.766 10.8877065963
5502 1 26.49 22.958 31.788 12 11.015446192 1.766 11.8424748695
5503 1 26.49 21.192 33.554 12 11.015446192 1.766 13.3439286424
5504 1 24.724 22.958 33.554 12 11.015446192 1.766 12.4168228261
5505 1 28.256 21.192 31.788 12 11.015446192 1.766 13.0334524024
5506 1 30.022 22.958 31.788 12 11.015446192 1.766 14.1067012922
5507 1 30.022 21.192 33.554 12 11.015446192 1.766 15.5065531297
5508 1 28.256 22.958 33.554 12 11.015446192 1.766 14.3066098059
5509 1 31.788 21.192 31.788 12 11.015446192 1.766 15.4604487936
5510 1 33.554 22.958 31.788 12 11.015446192 1.766 16.7891536687
5511 1 33.554 21.192 33.554 12 11.015446192 1.766 17.9533257554
5512 1 31.788 22.958 33.554 12 11.015446192 1.766 16.6041960026
5513 1 35.32 21.192 31.788 12 11.015446192 1.766 18.1581651207
5514 1 37.086 22.958 31.788 12 11.015446192 1.766 19.6741644133
5515 1 37.086 21.192 33.554 12 11.015446192 1.766 20.6364041796
5516 1 35.32 22.958 33.554 12 11.015446192 1.766 19.265716352
5517 1 38.852 21.192 31.788 12 11.015446192 1.766 19.8324956473
5518 1 40.618 22.958 31.788 12 11.015446192 1.766 18.3537005295
5519 1 40.618 21.192 33.554 12 11.015446192 1.766 19.5820820452
5520 1 38.852 22.958 33.554 12 11.015446192 1.766 20.8384005117
5521 1 0.0 24.724 31.788 12 11.015446192 1.766 17.1132634717
5522 1 1.766 26.49 31.788 12 11.015446192 1.766 16.1568430934
5523 1 1.766 24.724 33.554 12 11.015446192 1.766 17.1329352395
5524 1 0.0 26.49 33.554 12 11.015446192 1.766 18.6071006171
5525 1 3.532 24.724 31.788 12 11.015446192 1.766 14.6658926556
5526 1 5.298 26.49 31.788 12 11.015446192 1.766 13.6480772939
5527 1 5.298 24.724 33.554 12 11.015446192 1.766 14.5552186888
5528 1 3.532 26.49 33.554 12 11.015446192 1.766 16.0822857596
5529 1 7.064 24.724 31.788 12 11.015446192 1.766 12.0804519456
5530 1 8.83 26.49 31.788 12 11.015446192 1.766 11.3769232459
5531 1 8.83 24.724 33.554 12 11.015446192 1.766 12.4547725887
5532 1 7.064 26.49 33.554 12 11.015446192 1.766 13.7636527488
5533 1 10.596 24.724 31.788 12 11.015446192 1.766 10.0836160363
5534 1 12.362 26.49 31.788 12 11.015446192 1.766 9.7256695226
5535 1 12.362 24.724 33.554 12 11.015446192 1.766 11.105170809
5536 1 10.596 26.49 33.554 12 11.015446192 1.766 11.9962686898
5537 1 14.128 24.724 31.788 12 11.015446192 1.766 9.0354822451
5538 1 15.894 26.49 31.788 12 11.015446192 1.766 9.0577094418
5539 1 15.894 24.724 33.554 12 11.015446192 1.766 10.4851598891
5540 1 14.128 26.49 33.554 12 11.015446192 1.766 10.9659492331
5541 1 17.66 24.724 31.788 12 11.015446192 1.766 8.61539759
5542 1 19.426 26.49 31.788 12 11.015446192 1.766 9.1432050177
5543 1 19.426 24.724 33.554 12 11.015446192 1.766 10.5407690869
5544 1 17.66 26.49 33.554 12 11.015446192 1.766 10.695979779
5545 1 21.192 24.724 31.788 12 11.015446192 1.766 9.2820604471
5546 1 22.958 26.49 31.788 12 11.015446192 1.766 10.0268054268
5547 1 22.958 24.724 33.554 12 11.015446192 1.766 11.5338634085
5548 1 21.192 26.49 33.554 12 11.015446192 1.766 11.1506063596
5549 1 24.724 24.724 31.788 12 11.015446192 1.766 10.7458402906
5550 1 26.49 26.49 31.788 12 11.015446192 1.766 11.9026470587
5551 1 26.49 24.724 33.554 12 11.015446192 1.766 13.1973840819
5552 1 24.724 26.49 33.554 12 11.015446192 1.766 12.3692028087
5553 1 28.256 24.724 31.788 12 11.015446192 1.766 12.961417018
5554 1 30.022 26.49 31.788 12 11.015446192 1.766 14.4065350113
5555 1 30.022 24.724 33.554 12 11.015446192 1.766 15.4545280841
5556 1 28.256 26.49 33.554 12 11.015446192 1.766 14.3738784627
5557 1 31.788 24.724 31.788 12 11.015446192 1.766 15.5075032915
5558 1 33.554 26.49 31.788 12 11.015446192 1.766 17.0913655051
5559 1 33.554 24.724 33.554 12 11.015446192 1.766 17.9838948474
5560 1 31.788 26.49 33.554 12 11.015446192 1.766 16.8760656643
5561 1 35.32 24.724 31.788 12 11.015446192 1.766 18.3080289942
5562 1 37.086 26.49 31.788 12 11.015446192 1.766 19.860915666
5563 1 37.086 24.724 33.554 12 11.015446192 1.766 20.7650248856
5564 1 35.32 26.49 33.554 12 11.015446192 1.766 19.5541379157
5565 1 38.852 24.724 31.788 12 11.015446192 1.766 19.8463304867
5566 1 40.618 26.49 31.788 12 11.015446192 1.766 18.7051409328
5567 1 40.618 24.724 33.554 12 11.015446192 1.766 19.5960936774
5568 1 38.852 26.49 33.554 12 11.015446192 1.766 21.1485912078
5569 1 0.0 28.256 31.788 12 11.015446192 1.766 17.8235632371
5570 1 1.766 30.022 31.788 12 11.015446192 1.766 17.031788276
5571 1 1.766 28.256 33.554 12 11.015446192 1.766 17.7275974425
5572 1 0.0 30.022 33.554 12 11.015446192 1.766 19.4114859791
5573 1 3.532 28.256 31.788 12 11.015446192 1.766 15.3044871214
5574 1 5.298 30.022 31.788 12 11.015446192 1.766 14.6709242147
5575 1 5.298 28.256 33.554 12 11.015446192 1.766 15.3453477652
5576 1 3.532 30.022 33.554 12 11.015446192 1.766 17.0255247074
5577 1 7.064 28.256 31.788 12 11.015446192 1.766 12.9542996565
5578 1 8.83 30.022 31.788 12 11.015446192 1.766 12.4508531049
5579 1 8.83 28.256 33.554 12 11.015446192 1.766 13.2264610449
5580 1 7.064 30.022 33.554 12 11.015446192 1.766 14.7516864567
5581 1 10.596 28.256 31.788 12 11.015446192 1.766 10.8898243097
5582 1 12.362 30.022 31.788 12 11.015446192 1.766 10.8655164349
5583 1 12.362 28.256 33.554 12 11.015446192 1.766 11.7462749895
5584 1 10.596 30.022 33.554 12 11.015446192 1.766 12.9681507422
5585 1 14.128 28.256 31.788 12 11.015446192 1.766 9.7004640019
5586 1 15.894 30.022 31.788 12 11.015446192 1.766 10.1431982538
5587 1 15.894 28.256 33.554 12 11.015446192 1.766 11.1702709153
5588 1 14.128 30.022 33.554 12 11.015446192 1.766 11.986352692
5589 1 17.66 28.256 31.788 12 11.015446192 1.766 9.3591995116
5590 1 19.426 30.022 31.788 12 11.015446192 1.766 10.1526002561
5591 1 19.426 28.256 33.554 12 11.015446192 1.766 11.2104675715
5592 1 17.66 30.022 33.554 12 11.015446192 1.766 11.6084375435
5593 1 21.192 28.256 31.788 12 11.015446192 1.766 9.9033072886
5594 1 22.958 30.022 31.788 12 11.015446192 1.766 11.1478929865
5595 1 22.958 28.256 33.554 12 11.015446192 1.766 12.012428299
5596 1 21.192 30.022 33.554 12 11.015446192 1.766 12.1298880818
5597 1 24.724 28.256 31.788 12 11.015446192 1.766 11.2577418038
5598 1 26.49 30.022 31.788 12 11.015446192 1.766 12.8612479167
5599 1 26.49 28.256 33.554 12 11.015446192 1.766 13.6174378492
5600 1 24.724 30.022 33.554 12 11.015446192 1.766 13.2942043422
5601 1 28.256 28.256 31.788 12 11.015446192 1.766 13.4293691012
5602 1 30.022 30.022 31.788 12 11.015446192 1.766 15.2150558957
5603 1 30.022 28.256 33.554 12 11.015446192 1.766 15.8594086117
5604 1 28.256 30.022 33.554 12 11.015446192 1.766 15.1771892335
5605 1 31.788 28.256 31.788 12 11.015446192 1.766 16.0906558721
5606 1 33.554 30.022 31.788 12 11.015446192 1.766 17.8096812105
5607 1 33.554 28.256 33.554 12 11.015446192 1.766 18.5082831766
5608 1 31.788 30.022 33.554 12 11.015446192 1.766 17.5757880326
5609 1 35.32 28.256 31.788 12 11.015446192 1.766 18.6971346991
5610 1 37.086 30.022 31.788 12 11.015446192 1.766 20.4463504896
5611 1 37.086 28.256 33.554 12 11.015446192 1.766 21.1475967689
5612 1 35.32 30.022 33.554 12 11.015446192 1.766 20.2134914342
5613 1 38.852 28.256 31.788 12 11.015446192 1.766 20.4786677296
5614 1 40.618 30.022 31.788 12 11.015446192 1.766 19.6630451681
5615 1 40.618 28.256 33.554 12 11.015446192 1.766 20.2314996842
5616 1 38.852 30.022 33.554 12 11.015446192 1.766 22.0164274271
5617 1 0.0 31.788 31.788 12 11.015446192 1.766 18.9280611364
5618 1 1.766 33.554 31.788 12 11.015446192 1.766 18.4621603375
5619 1 1.766 31.788 33.554 12 11.015446192 1.766 18.7921171054
5620 1 0.0 33.554 33.554 12 11.015446192 1.766 20.6778949695
5621 1 3.532 31.788 31.788 12 11.015446192 1.766 16.5109672439
5622 1 5.298 33.554 31.788 12 11.015446192 1.766 16.2665680356
5623 1 5.298 31.788 33.554 12 11.015446192 1.766 16.5154551515
5624 1 3.532 33.554 33.554 12 11.015446192 1.766 18.4221656363
5625 1 7.064 31.788 31.788 12 11.015446192 1.766 14.2805544915
5626 1 8.83 33.554 31.788 12 11.015446192 1.766 14.2620268716
5627 1 8.83 31.788 33.554 12 11.015446192 1.766 14.5205342608
5628 1 7.064 33.554 33.554 12 11.015446192 1.766 16.3093200582
5629 1 10.596 31.788 31.788 12 11.015446192 1.766 12.4295984224
5630 1 12.362 33.554 31.788 12 11.015446192 1.766 12.9012059453
5631 1 12.362 31.788 33.554 12 11.015446192 1.766 13.1864179963
5632 1 10.596 33.554 33.554 12 11.015446192 1.766 14.7157942741
5633 1 14.128 31.788 31.788 12 11.015446192 1.766 11.3743332175
5634 1 15.894 33.554 31.788 12 11.015446192 1.766 12.0908154406
5635 1 15.894 31.788 33.554 12 11.015446192 1.766 12.5024831626
5636 1 14.128 33.554 33.554 12 11.015446192 1.766 13.7862416311
5637 1 17.66 31.788 31.788 12 11.015446192 1.766 10.8809026735
5638 1 19.426 33.554 31.788 12 11.015446192 1.766 12.0975098037
5639 1 19.426 31.788 33.554 12 11.015446192 1.766 12.5089572172
5640 1 17.66 33.554 33.554 12 11.015446192 1.766 13.3427985704
5641 1 21.192 31.788 31.788 12 11.015446192 1.766 11.4468769724
5642 1 22.958 33.554 31.788 12 11.015446192 1.766 13.0923019189
5643 1 22.958 31.788 33.554 12 11.015446192 1.766 13.4302195477
5644 1 21.192 33.554 33.554 12 11.015446192 1.766 13.8082302676
5645 1 24.724 31.788 31.788 12 11.015446192 1.766 12.7652052663
5646 1 26.49 33.554 31.788 12 11.015446192 1.766 14.6321712997
5647 1 26.49 31.788 33.554 12 11.015446192 1.766 14.8878584271
5648 1 24.724 33.554 33.554 12 11.015446192 1.766 15.0141469309
5649 1 28.256 31.788 31.788 12 11.015446192 1.766 14.7160344328
5650 1 30.022 33.554 31.788 12 11.015446192 1.766 16.7387772815
5651 1 30.022 31.788 33.554 12 11.015446192 1.766 16.962740241
5652 1 28.256 33.554 33.554 12 11.015446192 1.766 16.7043650583
5653 1 31.788 31.788 31.788 12 11.015446192 1.766 17.1791420439
5654 1 33.554 33.554 31.788 12 11.015446192 1.766 19.1241227269
5655 1 33.554 31.788 33.554 12 11.015446192 1.766 19.46203567
5656 1 31.788 33.554 33.554 12 11.015446192 1.766 18.9102370143
5657 1 35.32 31.788 31.788 12 11.015446192 1.766 19.6381044709
5658 1 37.086 33.554 31.788 12 11.015446192 1.766 21.6009391833
5659 1 37.086 31.788 33.554 12 11.015446192 1.766 21.9839293656
5660 1 35.32 33.554 33.554 12 11.015446192 1.766 21.3806585777
5661 1 38.852 31.788 31.788 12 11.015446192 1.766 21.631016067
5662 1 40.618 33.554 31.788 12 11.015446192 1.766 20.9508044926
5663 1 40.618 31.788 33.554 12 11.015446192 1.766 21.2422453244
5664 1 38.852 33.554 33.554 12 11.015446192 1.766 23.1977414618
5665 1 0.0 35.32 31.788 12 11.015446192 1.766 20.5308566512
5666 1 1.766 37.086 31.788 12 11.015446192 1.766 20.4100701807
5667 1 1.766 35.32 33.554 12 11.015446192 1.766 20.3989769726
5668 1 0.0 37.086 33.554 12 11.015446192 1.766 22.434235909
5669 1 3.532 35.32 31.788 12 11.015446192 1.766 18.3151346905
5670 1 5.298 37.086 31.788 12 11.015446192 1.766 18.3983380275
5671 1 5.298 35.32 33.554 12 11.015446192 1.766 18.2651841027
5672 1 3.532 37.086 33.554 12 11.015446192 1.766 20.3326405092
5673 1 7.064 35.32 31.788 12 11.015446192 1.766 16.2723977345
5674 1 8.83 37.086 31.788 12 11.015446192 1.766 16.6354178166
5675 1 8.83 35.32 33.554 12 11.015446192 1.766 16.4834039768
5676 1 7.064 37.086 33.554 12 11.015446192 1.766 18.4207935825
5677 1 10.596 35.32 31.788 12 11.015446192 1.766 14.6748631471
5678 1 12.362 37.086 31.788 12 11.015446192 1.766 15.4439805438
5679 1 12.362 35.32 33.554 12 11.015446192 1.766 15.315082202
5680 1 10.596 37.086 33.554 12 11.015446192 1.766 17.0260481781
5681 1 14.128 35.32 31.788 12 11.015446192 1.766 13.6549118287
5682 1 15.894 37.086 31.788 12 11.015446192 1.766 14.6428247791
5683 1 15.894 35.32 33.554 12 11.015446192 1.766 14.562333629
5684 1 14.128 37.086 33.554 12 11.015446192 1.766 16.0800457633
5685 1 17.66 35.32 31.788 12 11.015446192 1.766 13.1963448909
5686 1 19.426 37.086 31.788 12 11.015446192 1.766 14.6483529088
5687 1 19.426 35.32 33.554 12 11.015446192 1.766 14.567892303
5688 1 17.66 37.086 33.554 12 11.015446192 1.766 15.692506912
5689 1 21.192 35.32 31.788 12 11.015446192 1.766 13.6667650859
5690 1 22.958 37.086 31.788 12 11.015446192 1.766 15.4818027495
5691 1 22.958 35.32 33.554 12 11.015446192 1.766 15.4056956865
5692 1 21.192 37.086 33.554 12 11.015446192 1.766 16.0901125731
5693 1 24.724 35.32 31.788 12 11.015446192 1.766 14.956174361
5694 1 26.49 37.086 31.788 12 11.015446192 1.766 16.9268465677
5695 1 26.49 35.32 33.554 12 11.015446192 1.766 16.8170179139
5696 1 24.724 37.086 33.554 12 11.015446192 1.766 17.2185574322
5697 1 28.256 35.32 31.788 12 11.015446192 1.766 16.6596819628
5698 1 30.022 37.086 31.788 12 11.015446192 1.766 18.7281414375
5699 1 30.022 35.32 33.554 12 11.015446192 1.766 18.6788200766
5700 1 28.256 37.086 33.554 12 11.015446192 1.766 18.7796261878
5701 1 31.788 35.32 31.788 12 11.015446192 1.766 18.8437012296
5702 1 33.554 37.086 31.788 12 11.015446192 1.766 20.82256678
5703 1 33.554 35.32 33.554 12 11.015446192 1.766 20.9746178842
5704 1 31.788 37.086 33.554 12 11.015446192 1.766 20.7555349283
5705 1 35.32 35.32 31.788 12 11.015446192 1.766 21.1185554014
5706 1 37.086 37.086 31.788 12 11.015446192 1.766 23.1577485541
5707 1 37.086 35.32 33.554 12 11.015446192 1.766 23.330570066
5708 1 35.32 37.086 33.554 12 11.015446192 1.766 22.9870359736
5709 1 38.852 35.32 31.788 12 11.015446192 1.766 23.0667022843
5710 1 40.618 37.086 31.788 12 11.015446192 1.766 22.686026742
5711 1 40.618 35.32 33.554 12 11.015446192 1.766 22.6820978499
5712 1 38.852 37.086 33.554 12 11.015446192 1.766 24.7760935052
5713 1 0.0 38.852 31.788 12 11.015446192 1.766 22.5767734472
5714 1 1.766 40.618 31.788 12 11.015446192 1.766 22.7251301971
5715 1 1.766 38.852 33.554 12 11.015446192 1.766 22.441596332
5716 1 0.0 40.618 33.554 12 11.015446192 1.766 24.5756910233
5717 1 3.532 38.852 31.788 12 11.015446192 1.766 20.5623117937
5718 1 5.298 40.618 31.788 12 11.015446192 1.766 20.8600316466
5719 1 5.298 38.852 33.554 12 11.015446192 1.766 20.4798361749
5720 1 3.532 40.618 33.554 12 11.015446192 1.766 22.6271682185
5721 1 7.064 38.852 31.788 12 11.015446192 1.766 18.7171003467
5722 1 8.83 40.618 31.788 12 11.015446192 1.766 19.2699852034
5723 1 8.83 38.852 33.554 12 11.015446192 1.766 18.9079175508
5724 1 7.064 40.618 33.554 12 11.015446192 1.766 20.9170781195
5725 1 10.596 38.852 31.788 12 11.015446192 1.766 17.3190941299
5726 1 12.362 40.618 31.788 12 11.015446192 1.766 18.1824103454
5727 1 12.362 38.852 33.554 12 11.015446192 1.766 17.8187324096
5728 1 10.596 40.618 33.554 12 11.015446192 1.766 19.6776774729
5729 1 14.128 38.852 31.788 12 11.015446192 1.766 16.344911763
5730 1 15.894 40.618 31.788 12 11.015446192 1.766 17.5381545495
5731 1 15.894 38.852 33.554 12 11.015446192 1.766 17.1102625407
5732 1 14.128 40.618 33.554 12 11.015446192 1.766 18.7547972328
5733 1 17.66 38.852 31.788 12 11.015446192 1.766 15.9638041197
5734 1 19.426 40.618 31.788 12 11.015446192 1.766 17.5427703181
5735 1 19.426 38.852 33.554 12 11.015446192 1.766 17.1149937086
5736 1 17.66 40.618 33.554 12 11.015446192 1.766 18.4236076997
5737 1 21.192 38.852 31.788 12 11.015446192 1.766 16.3548155417
5738 1 22.958 40.618 31.788 12 11.015446192 1.766 18.2444721454
5739 1 22.958 38.852 33.554 12 11.015446192 1.766 17.8335353499
5740 1 21.192 40.618 33.554 12 11.015446192 1.766 18.7634290604
5741 1 24.724 38.852 31.788 12 11.015446192 1.766 17.4476187024
5742 1 26.49 40.618 31.788 12 11.015446192 1.766 19.4299293662
5743 1 26.49 38.852 33.554 12 11.015446192 1.766 19.1716036642
5744 1 24.724 40.618 33.554 12 11.015446192 1.766 19.7396369657
5745 1 28.256 38.852 31.788 12 11.015446192 1.766 18.920487424
5746 1 30.022 40.618 31.788 12 11.015446192 1.766 20.9958154556
5747 1 30.022 38.852 33.554 12 11.015446192 1.766 20.8134472235
5748 1 28.256 40.618 33.554 12 11.015446192 1.766 21.1453680682
5749 1 31.788 38.852 31.788 12 11.015446192 1.766 20.7921626962
5750 1 33.554 40.618 31.788 12 11.015446192 1.766 22.8712247528
5751 1 33.554 38.852 33.554 12 11.015446192 1.766 22.8208166186
5752 1 31.788 40.618 33.554 12 11.015446192 1.766 22.8676742822
5753 1 35.32 38.852 31.788 12 11.015446192 1.766 22.8790211306
5754 1 37.086 40.618 31.788 12 11.015446192 1.766 25.0158939972
5755 1 37.086 38.852 33.554 12 11.015446192 1.766 24.9902312001
5756 1 35.32 40.618 33.554 12 11.015446192 1.766 24.8579455554
5757 1 38.852 38.852 31.788 12 11.015446192 1.766 24.9052317364
5758 1 40.618 40.618 31.788 12 11.015446192 1.766 24.8057545297
5759 1 40.618 38.852 33.554 12 11.015446192 1.766 24.5493826261
5760 1 38.852 40.618 33.554 12 11.015446192 1.766 26.7305903008
5761 1 0.0 0.0 35.32 12 11.015446192 1.766 26.6279945855
5762 1 1.766 1.766 35.32 12 11.015446192 1.766 26.757185278
5763 1 1.766 0.0 37.086 12 11.015446192 1.766 26.5566864226
5764 1 0.0 1.766 37.086 12 11.015446192 1.766 28.6473718579
5765 1 3.532 0.0 35.32 12 11.015446192 1.766 24.7281524476
5766 1 5.298 1.766 35.32 12 11.015446192 1.766 25.0875787684
5767 1 5.298 0.0 37.086 12 11.015446192 1.766 24.8675129859
5768 1 3.532 1.766 37.086 12 11.015446192 1.766 26.8968641973
5769 1 7.064 0.0 35.32 12 11.015446192 1.766 23.1751723431
5770 1 8.83 1.766 35.32 12 11.015446192 1.766 23.8147324991
5771 1 8.83 0.0 37.086 12 11.015446192 1.766 23.5898041209
5772 1 7.064 1.766 37.086 12 11.015446192 1.766 25.4764977186
5773 1 10.596 0.0 35.32 12 11.015446192 1.766 22.0394314684
5774 1 12.362 1.766 35.32 12 11.015446192 1.766 22.7828311653
5775 1 12.362 0.0 37.086 12 11.015446192 1.766 22.6201638408
5776 1 10.596 1.766 37.086 12 11.015446192 1.766 24.3045337827
5777 1 14.128 0.0 35.32 12 11.015446192 1.766 21.1849881271
5778 1 15.894 1.766 35.32 12 11.015446192 1.766 22.2181500033
5779 1 15.894 0.0 37.086 12 11.015446192 1.766 22.0654410701
5780 1 14.128 1.766 37.086 12 11.015446192 1.766 23.5122124024
5781 1 17.66 0.0 35.32 12 11.015446192 1.766 20.8923580138
5782 1 19.426 1.766 35.32 12 11.015446192 1.766 22.2077696141
5783 1 19.426 0.0 37.086 12 11.015446192 1.766 22.0691099741
5784 1 17.66 1.766 37.086 12 11.015446192 1.766 23.235489014
5785 1 21.192 0.0 35.32 12 11.015446192 1.766 21.1926301531
5786 1 22.958 1.766 35.32 12 11.015446192 1.766 22.7524486791
5787 1 22.958 0.0 37.086 12 11.015446192 1.766 22.6308989764
5788 1 21.192 1.766 37.086 12 11.015446192 1.766 23.4925906485
5789 1 24.724 0.0 35.32 12 11.015446192 1.766 22.0616085143
5790 1 26.49 1.766 35.32 12 11.015446192 1.766 23.8141314886
5791 1 26.49 0.0 37.086 12 11.015446192 1.766 23.7111705724
5792 1 24.724 1.766 37.086 12 11.015446192 1.766 24.2665557721
5793 1 28.256 0.0 35.32 12 11.015446192 1.766 23.3990834949
5794 1 30.022 1.766 35.32 12 11.015446192 1.766 25.1803352765
5795 1 30.022 0.0 37.086 12 11.015446192 1.766 25.1899204132
5796 1 28.256 1.766 37.086 12 11.015446192 1.766 25.5023549856
5797 1 31.788 0.0 35.32 12 11.015446192 1.766 24.9918702711
5798 1 33.554 1.766 35.32 12 11.015446192 1.766 26.8311928461
5799 1 33.554 0.0 37.086 12 11.015446192 1.766 26.9157664369
5800 1 31.788 1.766 37.086 12 11.015446192 1.766 26.9413501171
5801 1 35.32 0.0 35.32 12 11.015446192 1.766 26.9056944656
5802 1 37.086 1.766 35.32 12 11.015446192 1.766 28.8223278458
5803 1 37.086 0.0 37.086 12 11.015446192 1.766 28.936827734
5804 1 35.32 1.766 37.086 12 11.015446192 1.766 28.7084481475
5805 1 38.852 0.0 35.32 12 11.015446192 1.766 28.6575185914
5806 1 40.618 1.766 35.32 12 11.015446192 1.766 28.6627743984
5807 1 40.618 0.0 37.086 12 11.015446192 1.766 28.5457876665
5808 1 38.852 1.766 37.086 12 11.015446192 1.766 30.5486372404
5809 1 0.0 3.532 35.32 12 11.015446192 1.766 26.535291952
5810 1 1.766 5.298 35.32 12 11.015446192 1.766 24.4583001147
5811 1 1.766 3.532 37.086 12 11.015446192 1.766 26.6197714129
5812 1 0.0 5.298 37.086 12 11.015446192 1.766 26.3882564969
5813 1 3.532 3.532 35.32 12 11.015446192 1.766 24.7035469751
5814 1 5.298 5.298 35.32 12 11.015446192 1.766 22.7276492305
5815 1 5.298 3.532 37.086 12 11.015446192 1.766 24.9605542277
5816 1 3.532 5.298 37.086 12 11.015446192 1.766 24.6477856431
5817 1 7.064 3.532 35.32 12 11.015446192 1.766 23.1555587627
5818 1 8.83 5.298 35.32 12 11.015446192 1.766 21.2963503776
5819 1 8.83 3.532 37.086 12 11.015446192 1.766 23.6338466122
5820 1 7.064 5.298 37.086 12 11.015446192 1.766 23.0497844585
5821 1 10.596 3.532 35.32 12 11.015446192 1.766 21.9393584977
5822 1 12.362 5.298 35.32 12 11.015446192 1.766 20.1426730186
5823 1 12.362 3.532 37.086 12 11.015446192 1.766 22.5580290681
5824 1 10.596 5.298 37.086 12 11.015446192 1.766 21.8359289178
5825 1 14.128 3.532 35.32 12 11.015446192 1.766 21.0582340416
5826 1 15.894 5.298 35.32 12 11.015446192 1.766 19.5016940288
5827 1 15.894 3.532 37.086 12 11.015446192 1.766 21.9875753347
5828 1 14.128 5.298 37.086 12 11.015446192 1.766 20.9641124897
5829 1 17.66 3.532 35.32 12 11.015446192 1.766 20.7488081251
5830 1 19.426 5.298 35.32 12 11.015446192 1.766 19.4898668968
5831 1 19.426 3.532 37.086 12 11.015446192 1.766 21.9770860389
5832 1 17.66 5.298 37.086 12 11.015446192 1.766 20.6532764989
5833 1 21.192 3.532 35.32 12 11.015446192 1.766 21.0363234496
5834 1 22.958 5.298 35.32 12 11.015446192 1.766 20.108301801
5835 1 22.958 3.532 37.086 12 11.015446192 1.766 22.5273433947
5836 1 21.192 5.298 37.086 12 11.015446192 1.766 20.9421034236
5837 1 24.724 3.532 35.32 12 11.015446192 1.766 21.8972787793
5838 1 26.49 5.298 35.32 12 11.015446192 1.766 21.2980024094
5839 1 26.49 3.532 37.086 12 11.015446192 1.766 23.5991554528
5840 1 24.724 5.298 37.086 12 11.015446192 1.766 21.8067789796
5841 1 28.256 3.532 35.32 12 11.015446192 1.766 23.2111997445
5842 1 30.022 5.298 35.32 12 11.015446192 1.766 22.7436372203
5843 1 30.022 3.532 37.086 12 11.015446192 1.766 24.9903262957
5844 1 28.256 5.298 37.086 12 11.015446192 1.766 23.1364440821
5845 1 31.788 3.532 35.32 12 11.015446192 1.766 24.7458170158
5846 1 33.554 5.298 35.32 12 11.015446192 1.766 24.5588407486
5847 1 33.554 3.532 37.086 12 11.015446192 1.766 26.6529554323
5848 1 31.788 5.298 37.086 12 11.015446192 1.766 24.6791429249
5849 1 35.32 3.532 35.32 12 11.015446192 1.766 26.6588467245
5850 1 37.086 5.298 35.32 12 11.015446192 1.766 26.7198490232
5851 1 37.086 3.532 37.086 12 11.015446192 1.766 28.6564775606
5852 1 35.32 5.298 37.086 12 11.015446192 1.766 26.5969687072
5853 1 38.852 3.532 35.32 12 11.015446192 1.766 28.5201599749
5854 1 40.618 5.298 35.32 12 11.015446192 1.766 26.3897390452
5855 1 40.618 3.532 37.086 12 11.015446192 1.766 28.4348997631
5856 1 38.852 5.298 37.086 12 11.015446192 1.766 28.4038180879
5857 1 0.0 7.064 35.32 12 11.015446192 1.766 24.299226228
5858 1 1.766 8.83 35.32 12 11.015446192 1.766 22.2926330363
5859 1 1.766 7.064 37.086 12 11.015446192 1.766 24.4256231542
5860 1 0.0 8.83 37.086 12 11.015446192 1.766 24.3894448234
5861 1 3.532 7.064 35.32 12 11.015446192 1.766 22.4629448808
5862 1 5.298 8.83 35.32 12 11.015446192 1.766 20.5089807548
5863 1 5.298 7.064 37.086 12 11.015446192 1.766 22.684789565
5864 1 3.532 8.83 37.086 12 11.015446192 1.766 22.5347191727
5865 1 7.064 7.064 35.32 12 11.015446192 1.766 20.7820384355
5866 1 8.83 8.83 35.32 12 11.015446192 1.766 18.8858480535
5867 1 8.83 7.064 37.086 12 11.015446192 1.766 21.2046221025
5868 1 7.064 8.83 37.086 12 11.015446192 1.766 20.8065223382
5869 1 10.596 7.064 35.32 12 11.015446192 1.766 19.4636257252
5870 1 12.362 8.83 35.32 12 11.015446192 1.766 17.7705068435
5871 1 12.362 7.064 37.086 12 11.015446192 1.766 20.1863922581
5872 1 10.596 8.83 37.086 12 11.015446192 1.766 19.5044281309
5873 1 14.128 7.064 35.32 12 11.015446192 1.766 18.5092983491
5874 1 15.894 8.83 35.32 12 11.015446192 1.766 17.0861346834
5875 1 15.894 7.064 37.086 12 11.015446192 1.766 19.5601220222
5876 1 14.128 8.83 37.086 12 11.015446192 1.766 18.7255305046
5877 1 17.66 7.064 35.32 12 11.015446192 1.766 18.1564848756
5878 1 19.426 8.83 35.32 12 11.015446192 1.766 17.0726342455
5879 1 19.426 7.064 37.086 12 11.015446192 1.766 19.5483302403
5880 1 17.66 8.83 37.086 12 11.015446192 1.766 18.3896100711
5881 1 21.192 7.064 35.32 12 11.015446192 1.766 18.4843666026
5882 1 22.958 8.83 35.32 12 11.015446192 1.766 17.7753686247
5883 1 22.958 7.064 37.086 12 11.015446192 1.766 20.1649722253
5884 1 21.192 8.83 37.086 12 11.015446192 1.766 18.713407606
5885 1 24.724 7.064 35.32 12 11.015446192 1.766 19.458564242
5886 1 26.49 8.83 35.32 12 11.015446192 1.766 19.0746244868
5887 1 26.49 7.064 37.086 12 11.015446192 1.766 21.3540575312
5888 1 24.724 8.83 37.086 12 11.015446192 1.766 19.6756483632
5889 1 28.256 7.064 35.32 12 11.015446192 1.766 20.8486362202
5890 1 30.022 8.83 35.32 12 11.015446192 1.766 20.626362534
5891 1 30.022 7.064 37.086 12 11.015446192 1.766 22.8082261857
5892 1 28.256 8.83 37.086 12 11.015446192 1.766 21.064399015
5893 1 31.788 7.064 35.32 12 11.015446192 1.766 22.5400584105
5894 1 33.554 8.83 35.32 12 11.015446192 1.766 22.6121749571
5895 1 33.554 7.064 37.086 12 11.015446192 1.766 24.6186678487
5896 1 31.788 8.83 37.086 12 11.015446192 1.766 22.7427767188
5897 1 35.32 7.064 35.32 12 11.015446192 1.766 24.6250458285
5898 1 37.086 8.83 35.32 12 11.015446192 1.766 24.932385388
5899 1 37.086 7.064 37.086 12 11.015446192 1.766 26.7748478903
5900 1 35.32 8.83 37.086 12 11.015446192 1.766 24.8107344064
5901 1 38.852 7.064 35.32 12 11.015446192 1.766 26.4667710889
5902 1 40.618 8.83 35.32 12 11.015446192 1.766 24.3910488647
5903 1 40.618 7.064 37.086 12 11.015446192 1.766 26.354761209
5904 1 38.852 8.83 37.086 12 11.015446192 1.766 26.5571425387
5905 1 0.0 10.596 35.32 12 11.015446192 1.766 22.3926853487
5906 1 1.766 12.362 35.32 12 11.015446192 1.766 20.5040599282
5907 1 1.766 10.596 37.086 12 11.015446192 1.766 22.5297941225
5908 1 0.0 12.362 37.086 12 11.015446192 1.766 22.766203123
5909 1 3.532 10.596 35.32 12 11.015446192 1.766 20.3946463727
5910 1 5.298 12.362 35.32 12 11.015446192 1.766 18.5946735473
5911 1 5.298 10.596 37.086 12 11.015446192 1.766 20.7007672231
5912 1 3.532 12.362 37.086 12 11.015446192 1.766 20.7924056952
5913 1 7.064 10.596 35.32 12 11.015446192 1.766 18.6061318387
5914 1 8.83 12.362 35.32 12 11.015446192 1.766 16.8289147661
5915 1 8.83 10.596 37.086 12 11.015446192 1.766 19.0708701955
5916 1 7.064 12.362 37.086 12 11.015446192 1.766 18.9591267551
5917 1 10.596 10.596 35.32 12 11.015446192 1.766 17.1376628192
5918 1 12.362 12.362 35.32 12 11.015446192 1.766 15.5948305893
5919 1 12.362 10.596 37.086 12 11.015446192 1.766 17.9912328349
5920 1 10.596 12.362 37.086 12 11.015446192 1.766 17.5202691822
5921 1 14.128 10.596 35.32 12 11.015446192 1.766 16.2856231125
5922 1 15.894 12.362 35.32 12 11.015446192 1.766 15.0706518253
5923 1 15.894 10.596 37.086 12 11.015446192 1.766 17.5006563462
5924 1 14.128 12.362 37.086 12 11.015446192 1.766 16.7158973771
5925 1 17.66 10.596 35.32 12 11.015446192 1.766 15.9296232053
5926 1 19.426 12.362 35.32 12 11.015446192 1.766 15.0998068305
5927 1 19.426 10.596 37.086 12 11.015446192 1.766 17.4994904957
5928 1 17.66 12.362 37.086 12 11.015446192 1.766 16.5642045386
5929 1 21.192 10.596 35.32 12 11.015446192 1.766 16.3023544657
5930 1 22.958 12.362 35.32 12 11.015446192 1.766 15.8092031473
5931 1 22.958 10.596 37.086 12 11.015446192 1.766 18.1636501806
5932 1 21.192 12.362 37.086 12 11.015446192 1.766 16.8548382935
5933 1 24.724 10.596 35.32 12 11.015446192 1.766 17.3772173858
5934 1 26.49 12.362 35.32 12 11.015446192 1.766 17.1555454012
5935 1 26.49 10.596 37.086 12 11.015446192 1.766 19.367905414
5936 1 24.724 12.362 37.086 12 11.015446192 1.766 17.7778382847
5937 1 28.256 10.596 35.32 12 11.015446192 1.766 18.8497865669
5938 1 30.022 12.362 35.32 12 11.015446192 1.766 18.9359625252
5939 1 30.022 10.596 37.086 12 11.015446192 1.766 20.9960375018
5940 1 28.256 12.362 37.086 12 11.015446192 1.766 19.3116891169
5941 1 31.788 10.596 35.32 12 11.015446192 1.766 20.7051456049
5942 1 33.554 12.362 35.32 12 11.015446192 1.766 21.081476701
5943 1 33.554 10.596 37.086 12 11.015446192 1.766 22.9505474448
5944 1 31.788 12.362 37.086 12 11.015446192 1.766 21.2216337319
5945 1 35.32 10.596 35.32 12 11.015446192 1.766 22.9540553571
5946 1 37.086 12.362 35.32 12 11.015446192 1.766 23.4326350357
5947 1 37.086 10.596 37.086 12 11.015446192 1.766 25.2324728626
5948 1 35.32 12.362 37.086 12 11.015446192 1.766 23.416241411
5949 1 38.852 10.596 35.32 12 11.015446192 1.766 24.7359269106
5950 1 40.618 12.362 35.32 12 11.015446192 1.766 22.7679215249
5951 1 40.618 10.596 37.086 12 11.015446192 1.766 24.6079946405
5952 1 38.852 12.362 37.086 12 11.015446192 1.766 25.0746247363
5953 1 0.0 14.128 35.32 12 11.015446192 1.766 20.913210346
5954 1 1.766 15.894 35.32 12 11.015446192 1.766 19.2047261731
5955 1 1.766 14.128 37.086 12 11.015446192 1.766 21.0599533012
5956 1 0.0 15.894 37.086 12 11.015446192 1.766 21.6033571115
5957 1 3.532 14.128 35.32 12 11.015446192 1.766 18.758347847
5958 1 5.298 15.894 35.32 12 11.015446192 1.766 17.1832698616
5959 1 5.298 14.128 37.086 12 11.015446192 1.766 19.152853673
5960 1 3.532 15.894 37.086 12 11.015446192 1.766 19.5205272787
5961 1 7.064 14.128 35.32 12 11.015446192 1.766 16.8845450547
5962 1 8.83 15.894 35.32 12 11.015446192 1.766 15.3199065176
5963 1 8.83 14.128 37.086 12 11.015446192 1.766 17.398569755
5964 1 7.064 15.894 37.086 12 11.015446192 1.766 17.6332466339
5965 1 10.596 14.128 35.32 12 11.015446192 1.766 15.2548886069
5966 1 12.362 15.894 35.32 12 11.015446192 1.766 13.9529890924
5967 1 12.362 14.128 37.086 12 11.015446192 1.766 16.2079177695
5968 1 10.596 15.894 37.086 12 11.015446192 1.766 16.0762867517
5969 1 14.128 14.128 35.32 12 11.015446192 1.766 14.3238618854
5970 1 15.894 15.894 35.32 12 11.015446192 1.766 13.402325228
5971 1 15.894 14.128 37.086 12 11.015446192 1.766 15.7363596593
5972 1 14.128 15.894 37.086 12 11.015446192 1.766 15.1956700618
5973 1 17.66 14.128 35.32 12 11.015446192 1.766 14.185547813
5974 1 19.426 15.894 35.32 12 11.015446192 1.766 13.4807057653
5975 1 19.426 14.128 37.086 12 11.015446192 1.766 15.8111161496
5976 1 17.66 15.894 37.086 12 11.015446192 1.766 15.0715784913
5977 1 21.192 14.128 35.32 12 11.015446192 1.766 14.477779318
5978 1 22.958 15.894 35.32 12 11.015446192 1.766 14.1845114847
5979 1 22.958 14.128 37.086 12 11.015446192 1.766 16.4153078566
5980 1 21.192 15.894 37.086 12 11.015446192 1.766 15.3410610446
5981 1 24.724 14.128 35.32 12 11.015446192 1.766 15.5419450555
5982 1 26.49 15.894 35.32 12 11.015446192 1.766 15.6723116415
5983 1 26.49 14.128 37.086 12 11.015446192 1.766 17.716752472
5984 1 24.724 15.894 37.086 12 11.015446192 1.766 16.3491319679
5985 1 28.256 14.128 35.32 12 11.015446192 1.766 17.269738562
5986 1 30.022 15.894 35.32 12 11.015446192 1.766 17.7362353216
5987 1 30.022 14.128 37.086 12 11.015446192 1.766 19.5749697154
5988 1 28.256 15.894 37.086 12 11.015446192 1.766 18.0052805097
5989 1 31.788 14.128 35.32 12 11.015446192 1.766 19.3468840875
5990 1 33.554 15.894 35.32 12 11.015446192 1.766 19.9639683733
5991 1 33.554 14.128 37.086 12 11.015446192 1.766 21.7310428474
5992 1 31.788 15.894 37.086 12 11.015446192 1.766 20.144889763
5993 1 35.32 14.128 35.32 12 11.015446192 1.766 21.623753073
5994 1 37.086 15.894 35.32 12 11.015446192 1.766 22.3700215579
5995 1 37.086 14.128 37.086 12 11.015446192 1.766 24.0042503029
5996 1 35.32 15.894 37.086 12 11.015446192 1.766 22.3816857464
5997 1 38.852 14.128 35.32 12 11.015446192 1.766 23.4051098694
5998 1 40.618 15.894 35.32 12 11.015446192 1.766 21.6051680024
5999 1 40.618 14.128 37.086 12 11.015446192 1.766 23.2697960901
6000 1 38.852 15.894 37.086 12 11.015446192 1.766 24.0237765456
6001 1 0.0 17.66 35.32 12 11.015446192 1.766 19.9560122475
6002 1 1.766 19.426 35.32 12 11.015446192 1.766 18.4810606805
6003 1 1.766 17.66 37.086 12 11.015446192 1.766 20.0982847222
6004 1 0.0 19.426 37.086 12 11.015446192 1.766 20.9561608788
6005 1 3.532 17.66 35.32 12 11.015446192 1.766 17.6771898276
6006 1 5.298 19.426 35.32 12 11.015446192 1.766 16.2093097797
6007 1 5.298 17.66 37.086 12 11.015446192 1.766 18.0423184665
6008 1 3.532 19.426 37.086 12 11.015446192 1.766 18.6379004022
6009 1 7.064 17.66 35.32 12 11.015446192 1.766 15.7029021869
6010 1 8.83 19.426 35.32 12 11.015446192 1.766 14.3527430396
6011 1 8.83 17.66 37.086 12 11.015446192 1.766 16.314014272
6012 1 7.064 19.426 37.086 12 11.015446192 1.766 16.6782276204
6013 1 10.596 17.66 35.32 12 11.015446192 1.766 14.0240441354
6014 1 12.362 19.426 35.32 12 11.015446192 1.766 13.0711888135
6015 1 12.362 17.66 37.086 12 11.015446192 1.766 15.0551913281
6016 1 10.596 19.426 37.086 12 11.015446192 1.766 15.2632840677
6017 1 14.128 17.66 35.32 12 11.015446192 1.766 13.0051992225
6018 1 15.894 19.426 35.32 12 11.015446192 1.766 12.4923697316
6019 1 15.894 17.66 37.086 12 11.015446192 1.766 14.5463123447
6020 1 14.128 19.426 37.086 12 11.015446192 1.766 14.3994999958
6021 1 17.66 17.66 35.32 12 11.015446192 1.766 12.8550062702
6022 1 19.426 19.426 35.32 12 11.015446192 1.766 12.566704335
6023 1 19.426 17.66 37.086 12 11.015446192 1.766 14.618789277
6024 1 17.66 19.426 37.086 12 11.015446192 1.766 14.2524705383
6025 1 21.192 17.66 35.32 12 11.015446192 1.766 13.1652459152
6026 1 22.958 19.426 35.32 12 11.015446192 1.766 13.3188962038
6027 1 22.958 17.66 37.086 12 11.015446192 1.766 15.2702304519
6028 1 21.192 19.426 37.086 12 11.015446192 1.766 14.5444416876
6029 1 24.724 17.66 35.32 12 11.015446192 1.766 14.3272349788
6030 1 26.49 19.426 35.32 12 11.015446192 1.766 14.8934207695
6031 1 26.49 17.66 37.086 12 11.015446192 1.766 16.6613602141
6032 1 24.724 19.426 37.086 12 11.015446192 1.766 15.6040618473
6033 1 28.256 17.66 35.32 12 11.015446192 1.766 16.1915308809
6034 1 30.022 19.426 35.32 12 11.015446192 1.766 17.046430066
6035 1 30.022 17.66 37.086 12 11.015446192 1.766 18.6271833167
6036 1 28.256 19.426 37.086 12 11.015446192 1.766 17.3315537752
6037 1 31.788 17.66 35.32 12 11.015446192 1.766 18.4933653292
6038 1 33.554 19.426 35.32 12 11.015446192 1.766 19.349768875
6039 1 33.554 17.66 37.086 12 11.015446192 1.766 20.9320479271
6040 1 31.788 19.426 37.086 12 11.015446192 1.766 19.5185715174
6041 1 35.32 17.66 35.32 12 11.015446192 1.766 20.7699590936
6042 1 37.086 19.426 35.32 12 11.015446192 1.766 21.8334008411
6043 1 37.086 17.66 37.086 12 11.015446192 1.766 23.2380837504
6044 1 35.32 19.426 37.086 12 11.015446192 1.766 21.8305297721
6045 1 38.852 17.66 35.32 12 11.015446192 1.766 22.547380711
6046 1 40.618 19.426 35.32 12 11.015446192 1.766 20.9699923391
6047 1 40.618 17.66 37.086 12 11.015446192 1.766 22.4134662184
6048 1 38.852 19.426 37.086 12 11.015446192 1.766 23.4509996708
6049 1 0.0 21.192 35.32 12 11.015446192 1.766 19.5689993105
6050 1 1.766 22.958 35.32 12 11.015446192 1.766 18.2037160228
6051 1 1.766 21.192 37.086 12 11.015446192 1.766 19.5368397689
6052 1 0.0 22.958 37.086 12 11.015446192 1.766 20.6997562524
6053 1 3.532 21.192 35.32 12 11.015446192 1.766 17.0534743758
6054 1 5.298 22.958 35.32 12 11.015446192 1.766 15.8016517553
6055 1 5.298 21.192 37.086 12 11.015446192 1.766 17.3206532588
6056 1 3.532 22.958 37.086 12 11.015446192 1.766 18.284468985
6057 1 7.064 21.192 35.32 12 11.015446192 1.766 14.8866696559
6058 1 8.83 22.958 35.32 12 11.015446192 1.766 13.8909743126
6059 1 8.83 21.192 37.086 12 11.015446192 1.766 15.5971791831
6060 1 7.064 22.958 37.086 12 11.015446192 1.766 16.2823140623
6061 1 10.596 21.192 35.32 12 11.015446192 1.766 13.3174669739
6062 1 12.362 22.958 35.32 12 11.015446192 1.766 12.6955182844
6063 1 12.362 21.192 37.086 12 11.015446192 1.766 14.53938525
6064 1 10.596 22.958 37.086 12 11.015446192 1.766 14.8612161137
6065 1 14.128 21.192 35.32 12 11.015446192 1.766 12.5154838665
6066 1 15.894 22.958 35.32 12 11.015446192 1.766 12.1574360828
6067 1 15.894 21.192 37.086 12 11.015446192 1.766 14.0455886862
6068 1 14.128 22.958 37.086 12 11.015446192 1.766 14.1551174099
6069 1 17.66 21.192 35.32 12 11.015446192 1.766 12.2398307097
6070 1 19.426 22.958 35.32 12 11.015446192 1.766 12.2052780652
6071 1 19.426 21.192 37.086 12 11.015446192 1.766 14.100509515
6072 1 17.66 22.958 37.086 12 11.015446192 1.766 13.8175070623
6073 1 21.192 21.192 35.32 12 11.015446192 1.766 12.6898480585
6074 1 22.958 22.958 35.32 12 11.015446192 1.766 13.2174339947
6075 1 22.958 21.192 37.086 12 11.015446192 1.766 14.8826207663
6076 1 21.192 22.958 37.086 12 11.015446192 1.766 14.3025901835
6077 1 24.724 21.192 35.32 12 11.015446192 1.766 13.9261378769
6078 1 26.49 22.958 35.32 12 11.015446192 1.766 14.8010381343
6079 1 26.49 21.192 37.086 12 11.015446192 1.766 16.3177381463
6080 1 24.724 22.958 37.086 12 11.015446192 1.766 15.5539775117
6081 1 28.256 21.192 35.32 12 11.015446192 1.766 15.8056641147
6082 1 30.022 22.958 35.32 12 11.015446192 1.766 16.7793196019
6083 1 30.022 21.192 37.086 12 11.015446192 1.766 18.2706845631
6084 1 28.256 22.958 37.086 12 11.015446192 1.766 17.2156820355
6085 1 31.788 21.192 35.32 12 11.015446192 1.766 17.9830758061
6086 1 33.554 22.958 35.32 12 11.015446192 1.766 19.1016923972
6087 1 33.554 21.192 37.086 12 11.015446192 1.766 20.4646977743
6088 1 31.788 22.958 37.086 12 11.015446192 1.766 19.2573014082
6089 1 35.32 21.192 35.32 12 11.015446192 1.766 20.446202968
6090 1 37.086 22.958 35.32 12 11.015446192 1.766 21.7460077611
6091 1 37.086 21.192 37.086 12 11.015446192 1.766 22.9390803496
6092 1 35.32 22.958 37.086 12 11.015446192 1.766 21.5991898919
6093 1 38.852 21.192 35.32 12 11.015446192 1.766 22.0697997722
6094 1 40.618 22.958 35.32 12 11.015446192 1.766 20.7510602503
6095 1 40.618 21.192 37.086 12 11.015446192 1.766 22.0615021077
6096 1 38.852 22.958 37.086 12 11.015446192 1.766 23.2478415831
6097 1 0.0 24.724 35.32 12 11.015446192 1.766 19.6062385427
6098 1 1.766 26.49 35.32 12 11.015446192 1.766 18.5277035733
6099 1 1.766 24.724 37.086 12 11.015446192 1.766 19.5221312058
6100 1 0.0 26.49 37.086 12 11.015446192 1.766 20.9852431859
6101 1 3.532 24.724 35.32 12 11.015446192 1.766 17.0366219348
6102 1 5.298 26.49 35.32 12 11.015446192 1.766 16.1738282685
6103 1 5.298 24.724 37.086 12 11.015446192 1.766 17.3040610255
6104 1 3.532 26.49 37.086 12 11.015446192 1.766 18.6070505112
6105 1 7.064 24.724 35.32 12 11.015446192 1.766 14.8673613027
6106 1 8.83 26.49 35.32 12 11.015446192 1.766 14.3069540902
6107 1 8.83 24.724 37.086 12 11.015446192 1.766 15.5787514625
6108 1 7.064 26.49 37.086 12 11.015446192 1.766 16.6437457889
6109 1 10.596 24.724 35.32 12 11.015446192 1.766 13.2958800108
6110 1 12.362 26.49 35.32 12 11.015446192 1.766 13.0476106893
6111 1 12.362 24.724 37.086 12 11.015446192 1.766 14.5228962087
6112 1 10.596 26.49 37.086 12 11.015446192 1.766 15.2254433976
6113 1 14.128 24.724 35.32 12 11.015446192 1.766 12.5001418077
6114 1 15.894 26.49 35.32 12 11.015446192 1.766 12.5040543059
6115 1 15.894 24.724 37.086 12 11.015446192 1.766 13.9648555481
6116 1 14.128 26.49 37.086 12 11.015446192 1.766 14.4303128492
6117 1 17.66 24.724 35.32 12 11.015446192 1.766 12.1171362009
6118 1 19.426 26.49 35.32 12 11.015446192 1.766 12.5665310531
6119 1 19.426 24.724 37.086 12 11.015446192 1.766 14.0065253014
6120 1 17.66 26.49 37.086 12 11.015446192 1.766 14.1510045784
6121 1 21.192 24.724 35.32 12 11.015446192 1.766 12.6597570135
6122 1 22.958 26.49 35.32 12 11.015446192 1.766 13.2964797312
6123 1 22.958 24.724 37.086 12 11.015446192 1.766 14.8626389465
6124 1 21.192 26.49 37.086 12 11.015446192 1.766 14.571672456
6125 1 24.724 24.724 35.32 12 11.015446192 1.766 13.8467552056
6126 1 26.49 26.49 35.32 12 11.015446192 1.766 14.7625388459
6127 1 26.49 24.724 37.086 12 11.015446192 1.766 16.2143614361
6128 1 24.724 26.49 37.086 12 11.015446192 1.766 15.5477248592
6129 1 28.256 24.724 35.32 12 11.015446192 1.766 15.6634553551
6130 1 30.022 26.49 35.32 12 11.015446192 1.766 16.8528567642
6131 1 30.022 24.724 37.086 12 11.015446192 1.766 18.1381295815
6132 1 28.256 26.49 37.086 12 11.015446192 1.766 17.1855448628
6133 1 31.788 24.724 35.32 12 11.015446192 1.766 17.9476503909
6134 1 33.554 26.49 35.32 12 11.015446192 1.766 19.3516547779
6135 1 33.554 24.724 37.086 12 11.015446192 1.766 20.4407798253
6136 1 31.788 26.49 37.086 12 11.015446192 1.766 19.336602705
6137 1 35.32 24.724 35.32 12 11.015446192 1.766 20.4654174995
6138 1 37.086 26.49 35.32 12 11.015446192 1.766 22.0172394879
6139 1 37.086 24.724 37.086 12 11.015446192 1.766 22.9504069022
6140 1 35.32 26.49 37.086 12 11.015446192 1.766 21.8312414224
6141 1 38.852 24.724 35.32 12 11.015446192 1.766 22.0822329527
6142 1 40.618 26.49 35.32 12 11.015446192 1.766 21.062537257
6143 1 40.618 24.724 37.086 12 11.015446192 1.766 22.0849888762
6144 1 38.852 26.49 37.086 12 11.015446192 1.766 23.5262855645
6145 1 0.0 28.256 35.32 12 11.015446192 1.766 20.1612637317
6146 1 1.766 30.022 35.32 12 11.015446192 1.766 19.4120512032
6147 1 1.766 28.256 37.086 12 11.015446192 1.766 20.136761246
6148 1 0.0 30.022 37.086 12 11.015446192 1.766 21.8033486979
6149 1 3.532 28.256 35.32 12 11.015446192 1.766 17.7369317788
6150 1 5.298 30.022 35.32 12 11.015446192 1.766 17.1077698019
6151 1 5.298 28.256 37.086 12 11.015446192 1.766 17.9805996503
6152 1 3.532 30.022 37.086 12 11.015446192 1.766 19.4964934522
6153 1 7.064 28.256 35.32 12 11.015446192 1.766 15.6008783023
6154 1 8.83 30.022 35.32 12 11.015446192 1.766 15.1908342085
6155 1 8.83 28.256 37.086 12 11.015446192 1.766 16.2218590754
6156 1 7.064 30.022 37.086 12 11.015446192 1.766 17.4878523045
6157 1 10.596 28.256 35.32 12 11.015446192 1.766 13.9400851649
6158 1 12.362 30.022 35.32 12 11.015446192 1.766 13.9211044212
6159 1 12.362 28.256 37.086 12 11.015446192 1.766 15.0395379263
6160 1 10.596 30.022 37.086 12 11.015446192 1.766 16.0120472951
6161 1 14.128 28.256 35.32 12 11.015446192 1.766 13.0321411426
6162 1 15.894 30.022 35.32 12 11.015446192 1.766 13.3736793217
6163 1 15.894 28.256 37.086 12 11.015446192 1.766 14.5979957607
6164 1 14.128 30.022 37.086 12 11.015446192 1.766 15.2280968695
6165 1 17.66 28.256 35.32 12 11.015446192 1.766 12.7901608101
6166 1 19.426 30.022 35.32 12 11.015446192 1.766 13.3818272995
6167 1 19.426 28.256 37.086 12 11.015446192 1.766 14.6301787198
6168 1 17.66 30.022 37.086 12 11.015446192 1.766 14.9408452275
6169 1 21.192 28.256 35.32 12 11.015446192 1.766 13.2032364801
6170 1 22.958 30.022 35.32 12 11.015446192 1.766 14.1610403647
6171 1 22.958 28.256 37.086 12 11.015446192 1.766 15.26541856
6172 1 21.192 30.022 37.086 12 11.015446192 1.766 15.3521776151
6173 1 24.724 28.256 35.32 12 11.015446192 1.766 14.2476768876
6174 1 26.49 30.022 35.32 12 11.015446192 1.766 15.5457789817
6175 1 26.49 28.256 37.086 12 11.015446192 1.766 16.5580549507
6176 1 24.724 30.022 37.086 12 11.015446192 1.766 16.2932636162
6177 1 28.256 28.256 35.32 12 11.015446192 1.766 16.0189731453
6178 1 30.022 30.022 35.32 12 11.015446192 1.766 17.5430177588
6179 1 30.022 28.256 37.086 12 11.015446192 1.766 18.4460134361
6180 1 28.256 30.022 37.086 12 11.015446192 1.766 17.8628565242
6181 1 31.788 28.256 35.32 12 11.015446192 1.766 18.3076146062
6182 1 33.554 30.022 35.32 12 11.015446192 1.766 19.9698209311
6183 1 33.554 28.256 37.086 12 11.015446192 1.766 20.7675633531
6184 1 31.788 30.022 37.086 12 11.015446192 1.766 19.9409853102
6185 1 35.32 28.256 35.32 12 11.015446192 1.766 20.9439903211
6186 1 37.086 30.022 35.32 12 11.015446192 1.766 22.6375959657
6187 1 37.086 28.256 37.086 12 11.015446192 1.766 23.3918046344
6188 1 35.32 30.022 37.086 12 11.015446192 1.766 22.3864734846
6189 1 38.852 28.256 35.32 12 11.015446192 1.766 22.6521846953
6190 1 40.618 30.022 35.32 12 11.015446192 1.766 21.8175339568
6191 1 40.618 28.256 37.086 12 11.015446192 1.766 22.6020764217
6192 1 38.852 30.022 37.086 12 11.015446192 1.766 24.23935341
6193 1 0.0 31.788 35.32 12 11.015446192 1.766 21.1213074857
6194 1 1.766 33.554 35.32 12 11.015446192 1.766 20.653754102
6195 1 1.766 31.788 37.086 12 11.015446192 1.766 21.1609178249
6196 1 0.0 33.554 37.086 12 11.015446192 1.766 22.9391663097
6197 1 3.532 31.788 35.32 12 11.015446192 1.766 18.8163705969
6198 1 5.298 33.554 35.32 12 11.015446192 1.766 18.4677409295
6199 1 5.298 31.788 37.086 12 11.015446192 1.766 18.9992890333
6200 1 3.532 33.554 37.086 12 11.015446192 1.766 20.7025605497
6201 1 7.064 31.788 35.32 12 11.015446192 1.766 16.7233949153
6202 1 8.83 33.554 35.32 12 11.015446192 1.766 16.7075764668
6203 1 8.83 31.788 37.086 12 11.015446192 1.766 17.2933120057
6204 1 7.064 33.554 37.086 12 11.015446192 1.766 18.8203784678
6205 1 10.596 31.788 35.32 12 11.015446192 1.766 15.1734181334
6206 1 12.362 33.554 35.32 12 11.015446192 1.766 15.5620954807
6207 1 12.362 31.788 37.086 12 11.015446192 1.766 16.1893281047
6208 1 10.596 33.554 37.086 12 11.015446192 1.766 17.4575864892
6209 1 14.128 31.788 35.32 12 11.015446192 1.766 14.3253196067
6210 1 15.894 33.554 35.32 12 11.015446192 1.766 14.9058990984
6211 1 15.894 31.788 37.086 12 11.015446192 1.766 15.6456102196
6212 1 14.128 33.554 37.086 12 11.015446192 1.766 16.6870591897
6213 1 17.66 31.788 35.32 12 11.015446192 1.766 13.9424550529
6214 1 19.426 33.554 35.32 12 11.015446192 1.766 14.911329698
6215 1 19.426 31.788 37.086 12 11.015446192 1.766 15.6507841521
6216 1 17.66 33.554 37.086 12 11.015446192 1.766 16.324929023
6217 1 21.192 31.788 35.32 12 11.015446192 1.766 14.3885024354
6218 1 22.958 33.554 35.32 12 11.015446192 1.766 15.7302071423
6219 1 22.958 31.788 37.086 12 11.015446192 1.766 16.4021653644
6220 1 21.192 33.554 37.086 12 11.015446192 1.766 16.7074910455
6221 1 24.724 31.788 35.32 12 11.015446192 1.766 15.4664156049
6222 1 26.49 33.554 35.32 12 11.015446192 1.766 17.0399525562
6223 1 26.49 31.788 37.086 12 11.015446192 1.766 17.617687099
6224 1 24.724 33.554 37.086 12 11.015446192 1.766 17.7245360514
6225 1 28.256 31.788 35.32 12 11.015446192 1.766 17.1120196237
6226 1 30.022 33.554 35.32 12 11.015446192 1.766 18.8797831305
6227 1 30.022 31.788 37.086 12 11.015446192 1.766 19.4028123388
6228 1 28.256 33.554 37.086 12 11.015446192 1.766 19.1773403311
6229 1 31.788 31.788 35.32 12 11.015446192 1.766 19.2712860894
6230 1 33.554 33.554 35.32 12 11.015446192 1.766 21.1537818603
6231 1 33.554 31.788 37.086 12 11.015446192 1.766 21.6218732443
6232 1 31.788 33.554 37.086 12 11.015446192 1.766 21.126562288
6233 1 35.32 31.788 35.32 12 11.015446192 1.766 21.7920574401
6234 1 37.086 33.554 35.32 12 11.015446192 1.766 23.6856090561
6235 1 37.086 31.788 37.086 12 11.015446192 1.766 24.1555734051
6236 1 35.32 33.554 37.086 12 11.015446192 1.766 23.4487299026
6237 1 38.852 31.788 35.32 12 11.015446192 1.766 23.5938445037
6238 1 40.618 33.554 35.32 12 11.015446192 1.766 22.9515650972
6239 1 40.618 31.788 37.086 12 11.015446192 1.766 23.4850195219
6240 1 38.852 33.554 37.086 12 11.015446192 1.766 25.2675357811
6241 1 0.0 35.32 35.32 12 11.015446192 1.766 22.5658765624
6242 1 1.766 37.086 35.32 12 11.015446192 1.766 22.3776700904
6243 1 1.766 35.32 37.086 12 11.015446192 1.766 22.5542472022
6244 1 0.0 37.086 37.086 12 11.015446192 1.766 24.5057215355
6245 1 3.532 35.32 35.32 12 11.015446192 1.766 20.3695359933
6246 1 5.298 37.086 35.32 12 11.015446192 1.766 20.3565510459
6247 1 5.298 35.32 37.086 12 11.015446192 1.766 20.5384925254
6248 1 3.532 37.086 37.086 12 11.015446192 1.766 22.4037436327
6249 1 7.064 35.32 35.32 12 11.015446192 1.766 18.4534178119
6250 1 8.83 37.086 35.32 12 11.015446192 1.766 18.7743129525
6251 1 8.83 35.32 37.086 12 11.015446192 1.766 18.9714346208
6252 1 7.064 37.086 37.086 12 11.015446192 1.766 20.6770007766
6253 1 10.596 35.32 35.32 12 11.015446192 1.766 17.0613396102
6254 1 12.362 37.086 35.32 12 11.015446192 1.766 17.731315837
6255 1 12.362 35.32 37.086 12 11.015446192 1.766 17.9671290653
6256 1 10.596 37.086 37.086 12 11.015446192 1.766 19.4447690002
6257 1 14.128 35.32 35.32 12 11.015446192 1.766 16.2004514431
6258 1 15.894 37.086 35.32 12 11.015446192 1.766 17.0414297353
6259 1 15.894 35.32 37.086 12 11.015446192 1.766 17.3359336245
6260 1 14.128 37.086 37.086 12 11.015446192 1.766 18.6290339434
6261 1 17.66 35.32 35.32 12 11.015446192 1.766 15.8158631884
6262 1 19.426 37.086 35.32 12 11.015446192 1.766 17.0461800077
6263 1 19.426 35.32 37.086 12 11.015446192 1.766 17.3406032209
6264 1 17.66 37.086 37.086 12 11.015446192 1.766 18.2955679632
6265 1 21.192 35.32 35.32 12 11.015446192 1.766 16.2104434802
6266 1 22.958 37.086 35.32 12 11.015446192 1.766 17.7675047851
6267 1 22.958 35.32 37.086 12 11.015446192 1.766 18.0501660241
6268 1 21.192 37.086 37.086 12 11.015446192 1.766 18.6377240168
6269 1 24.724 35.32 35.32 12 11.015446192 1.766 17.3154052108
6270 1 26.49 37.086 35.32 12 11.015446192 1.766 19.0781767567
6271 1 26.49 35.32 37.086 12 11.015446192 1.766 19.2755456911
6272 1 24.724 37.086 37.086 12 11.015446192 1.766 19.6201874089
6273 1 28.256 35.32 35.32 12 11.015446192 1.766 18.814488528
6274 1 30.022 37.086 35.32 12 11.015446192 1.766 20.7384907364
6275 1 30.022 35.32 37.086 12 11.015446192 1.766 20.9196770918
6276 1 28.256 37.086 37.086 12 11.015446192 1.766 21.0097398638
6277 1 31.788 35.32 35.32 12 11.015446192 1.766 20.7977458035
6278 1 33.554 37.086 35.32 12 11.015446192 1.766 22.8280808208
6279 1 33.554 35.32 37.086 12 11.015446192 1.766 22.9928068222
6280 1 31.788 37.086 37.086 12 11.015446192 1.766 22.802859932
6281 1 35.32 35.32 35.32 12 11.015446192 1.766 23.1529162406
6282 1 37.086 37.086 35.32 12 11.015446192 1.766 25.187228105
6283 1 37.086 35.32 37.086 12 11.015446192 1.766 25.3900667486
6284 1 35.32 37.086 37.086 12 11.015446192 1.766 24.9696159565
6285 1 38.852 35.32 35.32 12 11.015446192 1.766 24.8980737189
6286 1 40.618 37.086 35.32 12 11.015446192 1.766 24.5457519921
6287 1 40.618 35.32 37.086 12 11.015446192 1.766 24.7940664117
6288 1 38.852 37.086 37.086 12 11.015446192 1.766 26.7239212112
6289 1 0.0 38.852 35.32 12 11.015446192 1.766 24.430887136
6290 1 1.766 40.618 35.32 12 11.015446192 1.766 24.4841799335
6291 1 1.766 38.852 37.086 12 11.015446192 1.766 24.3823872151
6292 1 0.0 40.618 37.086 12 11.015446192 1.766 26.4459413359
6293 1 3.532 38.852 35.32 12 11.015446192 1.766 22.3768794971
6294 1 5.298 40.618 35.32 12 11.015446192 1.766 22.6422378295
6295 1 5.298 38.852 37.086 12 11.015446192 1.766 22.53078815
6296 1 3.532 40.618 37.086 12 11.015446192 1.766 24.4991732964
6297 1 7.064 38.852 35.32 12 11.015446192 1.766 20.6478901679
6298 1 8.83 40.618 35.32 12 11.015446192 1.766 21.2310289502
6299 1 8.83 38.852 37.086 12 11.015446192 1.766 21.1121308971
6300 1 7.064 40.618 37.086 12 11.015446192 1.766 22.9307680761
6301 1 10.596 38.852 35.32 12 11.015446192 1.766 19.4136844796
6302 1 12.362 40.618 35.32 12 11.015446192 1.766 20.208240831
6303 1 12.362 38.852 37.086 12 11.015446192 1.766 20.1481614883
6304 1 10.596 40.618 37.086 12 11.015446192 1.766 21.8151731558
6305 1 14.128 38.852 35.32 12 11.015446192 1.766 18.524420381
6306 1 15.894 40.618 35.32 12 11.015446192 1.766 19.5853229464
6307 1 15.894 38.852 37.086 12 11.015446192 1.766 19.5252174924
6308 1 14.128 40.618 37.086 12 11.015446192 1.766 20.9813119979
6309 1 17.66 38.852 35.32 12 11.015446192 1.766 18.1890365848
6310 1 19.426 40.618 35.32 12 11.015446192 1.766 19.5894563566
6311 1 19.426 38.852 37.086 12 11.015446192 1.766 19.529363624
6312 1 17.66 40.618 37.086 12 11.015446192 1.766 20.6858007964
6313 1 21.192 38.852 35.32 12 11.015446192 1.766 18.5331595071
6314 1 22.958 40.618 35.32 12 11.015446192 1.766 20.2202565211
6315 1 22.958 38.852 37.086 12 11.015446192 1.766 20.1620439685
6316 1 21.192 40.618 37.086 12 11.015446192 1.766 20.9890281819
6317 1 24.724 38.852 35.32 12 11.015446192 1.766 19.5208862183
6318 1 26.49 40.618 35.32 12 11.015446192 1.766 21.4224367244
6319 1 26.49 38.852 37.086 12 11.015446192 1.766 21.3642897564
6320 1 24.724 40.618 37.086 12 11.015446192 1.766 21.8660993652
6321 1 28.256 38.852 35.32 12 11.015446192 1.766 20.9785316345
6322 1 30.022 40.618 35.32 12 11.015446192 1.766 22.9738080191
6323 1 30.022 38.852 37.086 12 11.015446192 1.766 22.8855128978
6324 1 28.256 40.618 37.086 12 11.015446192 1.766 23.2321689946
6325 1 31.788 38.852 35.32 12 11.015446192 1.766 22.7726617509
6326 1 33.554 40.618 35.32 12 11.015446192 1.766 24.8433024557
6327 1 33.554 38.852 37.086 12 11.015446192 1.766 24.7948175338
6328 1 31.788 40.618 37.086 12 11.015446192 1.766 24.8708515345
6329 1 35.32 38.852 35.32 12 11.015446192 1.766 24.9268549601
6330 1 37.086 40.618 35.32 12 11.015446192 1.766 26.9298536345
6331 1 37.086 38.852 37.086 12 11.015446192 1.766 27.0327449674
6332 1 35.32 40.618 37.086 12 11.015446192 1.766 26.866755064
6333 1 38.852 38.852 35.32 12 11.015446192 1.766 26.610311899
6334 1 40.618 40.618 35.32 12 11.015446192 1.766 26.5172319315
6335 1 40.618 38.852 37.086 12 11.015446192 1.766 26.5054271287
6336 1 38.852 40.618 37.086 12 11.015446192 1.766 28.5453606274
6337 1 0.0 0.0 38.852 12 11.015446192 1.766 28.486991558
6338 1 1.766 1.766 38.852 12 11.015446192 1.766 28.6959036437
6339 1 1.766 0.0 40.618 12 11.015446192 1.766 27.0340224745
6340 1 0.0 1.766 40.618 12 11.015446192 1.766 28.9555449455
6341 1 3.532 0.0 38.852 12 11.015446192 1.766 26.6864998151
6342 1 5.298 1.766 38.852 12 11.015446192 1.766 27.1402007045
6343 1 5.298 0.0 40.618 12 11.015446192 1.766 25.540174242
6344 1 3.532 1.766 40.618 12 11.015446192 1.766 27.3481428562
6345 1 7.064 0.0 38.852 12 11.015446192 1.766 25.2543046774
6346 1 8.83 1.766 38.852 12 11.015446192 1.766 25.9724298792
6347 1 8.83 0.0 40.618 12 11.015446192 1.766 24.369358154
6348 1 7.064 1.766 40.618 12 11.015446192 1.766 25.9522133748
6349 1 10.596 0.0 38.852 12 11.015446192 1.766 24.2201041731
6350 1 12.362 1.766 38.852 12 11.015446192 1.766 24.9895397825
6351 1 12.362 0.0 40.618 12 11.015446192 1.766 23.5967996146
6352 1 10.596 1.766 40.618 12 11.015446192 1.766 24.981234152
6353 1 14.128 0.0 38.852 12 11.015446192 1.766 23.4467861307
6354 1 15.894 1.766 38.852 12 11.015446192 1.766 24.4758226052
6355 1 15.894 0.0 40.618 12 11.015446192 1.766 23.3388589109
6356 1 14.128 1.766 40.618 12 11.015446192 1.766 24.485848739
6357 1 17.66 0.0 38.852 12 11.015446192 1.766 23.1827237677
6358 1 19.426 1.766 38.852 12 11.015446192 1.766 24.4664001002
6359 1 19.426 0.0 40.618 12 11.015446192 1.766 23.6124070453
6360 1 17.66 1.766 40.618 12 11.015446192 1.766 24.4949293768
6361 1 21.192 0.0 38.852 12 11.015446192 1.766 23.4536911961
6362 1 22.958 1.766 38.852 12 11.015446192 1.766 24.9618433519
6363 1 22.958 0.0 40.618 12 11.015446192 1.766 24.3995747029
6364 1 21.192 1.766 40.618 12 11.015446192 1.766 25.0079265411
6365 1 24.724 0.0 38.852 12 11.015446192 1.766 24.2417538176
6366 1 26.49 1.766 38.852 12 11.015446192 1.766 25.9332327562
6367 1 26.49 0.0 40.618 12 11.015446192 1.766 25.5007658252
6368 1 24.724 1.766 40.618 12 11.015446192 1.766 25.9950238044
6369 1 28.256 0.0 38.852 12 11.015446192 1.766 25.499012817
6370 1 30.022 1.766 38.852 12 11.015446192 1.766 27.2778035585
6371 1 30.022 0.0 40.618 12 11.015446192 1.766 26.916388946
6372 1 28.256 1.766 40.618 12 11.015446192 1.766 27.2660487569
6373 1 31.788 0.0 38.852 12 11.015446192 1.766 27.0357817461
6374 1 33.554 1.766 38.852 12 11.015446192 1.766 28.811428837
6375 1 33.554 0.0 40.618 12 11.015446192 1.766 28.5383910051
6376 1 31.788 1.766 40.618 12 11.015446192 1.766 28.8029428797
6377 1 35.32 0.0 38.852 12 11.015446192 1.766 28.8866218705
6378 1 37.086 1.766 38.852 12 11.015446192 1.766 30.6742906118
6379 1 37.086 0.0 40.618 12 11.015446192 1.766 30.4089367473
6380 1 35.32 1.766 40.618 12 11.015446192 1.766 30.5291264205
6381 1 38.852 0.0 38.852 12 11.015446192 1.766 30.546690689
6382 1 40.618 1.766 38.852 12 11.015446192 1.766 30.5474016276
6383 1 40.618 0.0 40.618 12 11.015446192 1.766 28.8847068532
6384 1 38.852 1.766 40.618 12 11.015446192 1.766 30.8065961174
6385 1 0.0 3.532 38.852 12 11.015446192 1.766 28.5429989772
6386 1 1.766 5.298 38.852 12 11.015446192 1.766 26.5948735731
6387 1 1.766 3.532 40.618 12 11.015446192 1.766 27.0440617083
6388 1 0.0 5.298 40.618 12 11.015446192 1.766 26.8856728759
6389 1 3.532 3.532 38.852 12 11.015446192 1.766 26.8358776552
6390 1 5.298 5.298 38.852 12 11.015446192 1.766 24.9005109067
6391 1 5.298 3.532 40.618 12 11.015446192 1.766 25.4522151606
6392 1 3.532 5.298 40.618 12 11.015446192 1.766 25.184118179
6393 1 7.064 3.532 38.852 12 11.015446192 1.766 25.3573969902
6394 1 8.83 5.298 38.852 12 11.015446192 1.766 23.5599610424
6395 1 8.83 3.532 40.618 12 11.015446192 1.766 24.205059663
6396 1 7.064 5.298 40.618 12 11.015446192 1.766 23.6681809783
6397 1 10.596 3.532 38.852 12 11.015446192 1.766 24.2219411535
6398 1 12.362 5.298 38.852 12 11.015446192 1.766 22.6077315875
6399 1 12.362 3.532 40.618 12 11.015446192 1.766 23.428713537
6400 1 10.596 5.298 40.618 12 11.015446192 1.766 22.5992803322
6401 1 14.128 3.532 38.852 12 11.015446192 1.766 23.4279517582
6402 1 15.894 5.298 38.852 12 11.015446192 1.766 22.0394140718
6403 1 15.894 3.532 40.618 12 11.015446192 1.766 23.1705496419
6404 1 14.128 5.298 40.618 12 11.015446192 1.766 22.050446713
6405 1 17.66 3.532 38.852 12 11.015446192 1.766 23.1502211921
6406 1 19.426 5.298 38.852 12 11.015446192 1.766 22.0289494595
6407 1 19.426 3.532 40.618 12 11.015446192 1.766 23.4476901084
6408 1 17.66 5.298 40.618 12 11.015446192 1.766 22.0605298429
6409 1 21.192 3.532 38.852 12 11.015446192 1.766 23.4082593737
6410 1 22.958 5.298 38.852 12 11.015446192 1.766 22.5779428636
6411 1 22.958 3.532 40.618 12 11.015446192 1.766 24.2417825278
6412 1 21.192 5.298 40.618 12 11.015446192 1.766 22.6287825934
6413 1 24.724 3.532 38.852 12 11.015446192 1.766 24.1849234146
6414 1 26.49 5.298 38.852 12 11.015446192 1.766 23.6474616315
6415 1 26.49 3.532 40.618 12 11.015446192 1.766 25.4755450989
6416 1 24.724 5.298 40.618 12 11.015446192 1.766 23.7128240694
6417 1 28.256 3.532 38.852 12 11.015446192 1.766 25.428186423
6418 1 30.022 5.298 38.852 12 11.015446192 1.766 25.0491228608
6419 1 30.022 3.532 40.618 12 11.015446192 1.766 26.9024517883
6420 1 28.256 5.298 40.618 12 11.015446192 1.766 25.0864059592
6421 1 31.788 3.532 38.852 12 11.015446192 1.766 26.8801224302
6422 1 33.554 5.298 38.852 12 11.015446192 1.766 26.708092051
6423 1 33.554 3.532 40.618 12 11.015446192 1.766 28.532599024
6424 1 31.788 5.298 40.618 12 11.015446192 1.766 26.6073068942
6425 1 35.32 3.532 38.852 12 11.015446192 1.766 28.6509970292
6426 1 37.086 5.298 38.852 12 11.015446192 1.766 28.7077664389
6427 1 37.086 3.532 40.618 12 11.015446192 1.766 30.4104445711
6428 1 35.32 5.298 40.618 12 11.015446192 1.766 28.3929513808
6429 1 38.852 3.532 38.852 12 11.015446192 1.766 30.4161074373
6430 1 40.618 5.298 38.852 12 11.015446192 1.766 28.4024406706
6431 1 40.618 3.532 40.618 12 11.015446192 1.766 28.8046068045
6432 1 38.852 5.298 40.618 12 11.015446192 1.766 28.8697451883
6433 1 0.0 7.064 38.852 12 11.015446192 1.766 26.4713563018
6434 1 1.766 8.83 38.852 12 11.015446192 1.766 24.6334235208
6435 1 1.766 7.064 40.618 12 11.015446192 1.766 25.032605651
6436 1 0.0 8.83 40.618 12 11.015446192 1.766 25.1076604505
6437 1 3.532 7.064 38.852 12 11.015446192 1.766 24.6855770413
6438 1 5.298 8.83 38.852 12 11.015446192 1.766 22.8390566994
6439 1 5.298 7.064 40.618 12 11.015446192 1.766 23.3628523923
6440 1 3.532 8.83 40.618 12 11.015446192 1.766 23.1884152459
6441 1 7.064 7.064 38.852 12 11.015446192 1.766 23.0675015036
6442 1 8.83 8.83 38.852 12 11.015446192 1.766 21.3695772495
6443 1 8.83 7.064 40.618 12 11.015446192 1.766 22.0232910589
6444 1 7.064 8.83 40.618 12 11.015446192 1.766 21.6496998245
6445 1 10.596 7.064 38.852 12 11.015446192 1.766 21.9002504672
6446 1 12.362 8.83 38.852 12 11.015446192 1.766 20.4118887105
6447 1 12.362 7.064 40.618 12 11.015446192 1.766 21.1670747571
6448 1 10.596 8.83 40.618 12 11.015446192 1.766 20.5491136023
6449 1 14.128 7.064 38.852 12 11.015446192 1.766 21.1657516144
6450 1 15.894 8.83 38.852 12 11.015446192 1.766 19.9334135276
6451 1 15.894 7.064 40.618 12 11.015446192 1.766 20.8809675657
6452 1 14.128 8.83 40.618 12 11.015446192 1.766 19.9458682442
6453 1 17.66 7.064 38.852 12 11.015446192 1.766 20.858514944
6454 1 19.426 8.83 38.852 12 11.015446192 1.766 19.9222122946
6455 1 19.426 7.064 40.618 12 11.015446192 1.766 21.1880770055
6456 1 17.66 8.83 40.618 12 11.015446192 1.766 19.9570147247
6457 1 21.192 7.064 38.852 12 11.015446192 1.766 21.1445385698
6458 1 22.958 8.83 38.852 12 11.015446192 1.766 20.5268478974
6459 1 22.958 7.064 40.618 12 11.015446192 1.766 22.054838098
6460 1 21.192 8.83 40.618 12 11.015446192 1.766 20.5629813932
6461 1 24.724 7.064 38.852 12 11.015446192 1.766 22.0012596229
6462 1 26.49 8.83 38.852 12 11.015446192 1.766 21.64007552
6463 1 26.49 7.064 40.618 12 11.015446192 1.766 23.2929091506
6464 1 24.724 8.83 40.618 12 11.015446192 1.766 21.5752099069
6465 1 28.256 7.064 38.852 12 11.015446192 1.766 23.3270026399
6466 1 30.022 8.83 38.852 12 11.015446192 1.766 23.1372560035
6467 1 30.022 7.064 40.618 12 11.015446192 1.766 24.7817310834
6468 1 28.256 8.83 40.618 12 11.015446192 1.766 23.012493546
6469 1 31.788 7.064 38.852 12 11.015446192 1.766 24.8644275067
6470 1 33.554 8.83 38.852 12 11.015446192 1.766 24.9298210658
6471 1 33.554 7.064 40.618 12 11.015446192 1.766 26.4574991488
6472 1 31.788 8.83 40.618 12 11.015446192 1.766 24.6234412361
6473 1 35.32 7.064 38.852 12 11.015446192 1.766 26.7689821275
6474 1 37.086 8.83 38.852 12 11.015446192 1.766 27.0612204322
6475 1 37.086 7.064 40.618 12 11.015446192 1.766 28.4725340136
6476 1 35.32 8.83 40.618 12 11.015446192 1.766 26.5428854169
6477 1 38.852 7.064 38.852 12 11.015446192 1.766 28.4810376476
6478 1 40.618 8.83 38.852 12 11.015446192 1.766 26.5556693362
6479 1 40.618 7.064 40.618 12 11.015446192 1.766 26.955448801
6480 1 38.852 8.83 40.618 12 11.015446192 1.766 27.2245174687
6481 1 0.0 10.596 38.852 12 11.015446192 1.766 24.7328256838
6482 1 1.766 12.362 38.852 12 11.015446192 1.766 23.0365599521
6483 1 1.766 10.596 40.618 12 11.015446192 1.766 23.2695339874
6484 1 0.0 12.362 40.618 12 11.015446192 1.766 23.6159870927
6485 1 3.532 10.596 38.852 12 11.015446192 1.766 22.8625335789
6486 1 5.298 12.362 38.852 12 11.015446192 1.766 21.1697809725
6487 1 5.298 10.596 40.618 12 11.015446192 1.766 21.4478049895
6488 1 3.532 12.362 40.618 12 11.015446192 1.766 21.5354811704
6489 1 7.064 10.596 38.852 12 11.015446192 1.766 21.1227772114
6490 1 8.83 12.362 38.852 12 11.015446192 1.766 19.575391371
6491 1 8.83 10.596 40.618 12 11.015446192 1.766 20.0871977574
6492 1 7.064 12.362 40.618 12 11.015446192 1.766 19.8693004436
6493 1 10.596 10.596 38.852 12 11.015446192 1.766 19.8414480829
6494 1 12.362 12.362 38.852 12 11.015446192 1.766 18.5251805992
6495 1 12.362 10.596 40.618 12 11.015446192 1.766 19.2663929206
6496 1 10.596 12.362 40.618 12 11.015446192 1.766 18.7283554803
6497 1 14.128 10.596 38.852 12 11.015446192 1.766 19.1349014874
6498 1 15.894 12.362 38.852 12 11.015446192 1.766 18.11404795
6499 1 15.894 10.596 40.618 12 11.015446192 1.766 18.9764404
6500 1 14.128 12.362 40.618 12 11.015446192 1.766 18.2108718037
6501 1 17.66 10.596 38.852 12 11.015446192 1.766 18.9516576559
6502 1 19.426 12.362 38.852 12 11.015446192 1.766 18.1855506343
6503 1 19.426 10.596 40.618 12 11.015446192 1.766 19.2758653784
6504 1 17.66 12.362 40.618 12 11.015446192 1.766 18.2368920175
6505 1 21.192 10.596 38.852 12 11.015446192 1.766 19.24429006
6506 1 22.958 12.362 38.852 12 11.015446192 1.766 18.71361328
6507 1 22.958 10.596 40.618 12 11.015446192 1.766 20.0215250395
6508 1 21.192 12.362 40.618 12 11.015446192 1.766 18.6737321199
6509 1 24.724 10.596 38.852 12 11.015446192 1.766 20.0755083632
6510 1 26.49 12.362 38.852 12 11.015446192 1.766 19.8650524319
6511 1 26.49 10.596 40.618 12 11.015446192 1.766 21.2910087063
6512 1 24.724 12.362 40.618 12 11.015446192 1.766 19.7149393636
6513 1 28.256 10.596 38.852 12 11.015446192 1.766 21.4457932045
6514 1 30.022 12.362 38.852 12 11.015446192 1.766 21.5404582647
6515 1 30.022 10.596 40.618 12 11.015446192 1.766 22.9119508363
6516 1 28.256 12.362 40.618 12 11.015446192 1.766 21.2792135776
6517 1 31.788 10.596 38.852 12 11.015446192 1.766 23.2112961962
6518 1 33.554 12.362 38.852 12 11.015446192 1.766 23.5498400896
6519 1 33.554 10.596 40.618 12 11.015446192 1.766 24.7151646435
6520 1 31.788 12.362 40.618 12 11.015446192 1.766 23.0136695129
6521 1 35.32 10.596 38.852 12 11.015446192 1.766 25.2433600282
6522 1 37.086 12.362 38.852 12 11.015446192 1.766 25.7702927839
6523 1 37.086 10.596 40.618 12 11.015446192 1.766 26.8612228929
6524 1 35.32 12.362 40.618 12 11.015446192 1.766 25.0567334743
6525 1 38.852 10.596 38.852 12 11.015446192 1.766 26.8728388402
6526 1 40.618 12.362 38.852 12 11.015446192 1.766 25.0730644266
6527 1 40.618 10.596 40.618 12 11.015446192 1.766 25.4289774358
6528 1 38.852 12.362 40.618 12 11.015446192 1.766 25.8391015336
6529 1 0.0 14.128 38.852 12 11.015446192 1.766 23.4017665177
6530 1 1.766 15.894 38.852 12 11.015446192 1.766 21.881086042
6531 1 1.766 14.128 40.618 12 11.015446192 1.766 21.9093720498
6532 1 0.0 15.894 40.618 12 11.015446192 1.766 22.5552486572
6533 1 3.532 14.128 38.852 12 11.015446192 1.766 21.4562917464
6534 1 5.298 15.894 38.852 12 11.015446192 1.766 19.9693946942
6535 1 5.298 14.128 40.618 12 11.015446192 1.766 19.9639102005
6536 1 3.532 15.894 40.618 12 11.015446192 1.766 20.3666724053
6537 1 7.064 14.128 38.852 12 11.015446192 1.766 19.6261014118
6538 1 8.83 15.894 38.852 12 11.015446192 1.766 18.2943464172
6539 1 8.83 14.128 40.618 12 11.015446192 1.766 18.4944555305
6540 1 7.064 15.894 40.618 12 11.015446192 1.766 18.5960612965
6541 1 10.596 14.128 38.852 12 11.015446192 1.766 18.2399342524
6542 1 12.362 15.894 38.852 12 11.015446192 1.766 17.1659395238
6543 1 12.362 14.128 40.618 12 11.015446192 1.766 17.6205024971
6544 1 10.596 15.894 40.618 12 11.015446192 1.766 17.3716923362
6545 1 14.128 14.128 38.852 12 11.015446192 1.766 17.4687319069
6546 1 15.894 15.894 38.852 12 11.015446192 1.766 16.7214202937
6547 1 15.894 14.128 40.618 12 11.015446192 1.766 17.4227170915
6548 1 14.128 15.894 40.618 12 11.015446192 1.766 16.8133263069
6549 1 17.66 14.128 38.852 12 11.015446192 1.766 17.3643924657
6550 1 19.426 15.894 38.852 12 11.015446192 1.766 16.7919911235
6551 1 19.426 14.128 40.618 12 11.015446192 1.766 17.5792520224
6552 1 17.66 15.894 40.618 12 11.015446192 1.766 16.7877025243
6553 1 21.192 14.128 38.852 12 11.015446192 1.766 17.6024893677
6554 1 22.958 15.894 38.852 12 11.015446192 1.766 17.3620823642
6555 1 22.958 14.128 40.618 12 11.015446192 1.766 18.3446351965
6556 1 21.192 15.894 40.618 12 11.015446192 1.766 17.2292620524
6557 1 24.724 14.128 38.852 12 11.015446192 1.766 18.4876605895
6558 1 26.49 15.894 38.852 12 11.015446192 1.766 18.597389337
6559 1 26.49 14.128 40.618 12 11.015446192 1.766 19.7193733015
6560 1 24.724 15.894 40.618 12 11.015446192 1.766 18.3508299884
6561 1 28.256 14.128 38.852 12 11.015446192 1.766 19.9672132307
6562 1 30.022 15.894 38.852 12 11.015446192 1.766 20.3772894243
6563 1 30.022 14.128 40.618 12 11.015446192 1.766 21.4050126425
6564 1 28.256 15.894 40.618 12 11.015446192 1.766 19.8532648227
6565 1 31.788 14.128 38.852 12 11.015446192 1.766 21.9209155271
6566 1 33.554 15.894 38.852 12 11.015446192 1.766 22.5714565896
6567 1 33.554 14.128 40.618 12 11.015446192 1.766 23.3769923525
6568 1 31.788 15.894 40.618 12 11.015446192 1.766 21.7436984961
6569 1 35.32 14.128 38.852 12 11.015446192 1.766 24.1273397638
6570 1 37.086 15.894 38.852 12 11.015446192 1.766 24.8152111514
6571 1 37.086 14.128 40.618 12 11.015446192 1.766 25.638163847
6572 1 35.32 15.894 40.618 12 11.015446192 1.766 23.9814765992
6573 1 38.852 14.128 38.852 12 11.015446192 1.766 25.6530598014
6574 1 40.618 15.894 38.852 12 11.015446192 1.766 24.0221479803
6575 1 40.618 14.128 40.618 12 11.015446192 1.766 24.207916336
6576 1 38.852 15.894 40.618 12 11.015446192 1.766 24.8782013306
6577 1 0.0 17.66 38.852 12 11.015446192 1.766 22.5349740679
6578 1 1.766 19.426 38.852 12 11.015446192 1.766 21.0825985892
6579 1 1.766 17.66 40.618 12 11.015446192 1.766 21.0599146067
6580 1 0.0 19.426 40.618 12 11.015446192 1.766 22.0162141526
6581 1 3.532 17.66 38.852 12 11.015446192 1.766 20.4058006096
6582 1 5.298 19.426 38.852 12 11.015446192 1.766 19.0471227336
6583 1 5.298 17.66 40.618 12 11.015446192 1.766 19.0277988774
6584 1 3.532 19.426 40.618 12 11.015446192 1.766 19.7680496886
6585 1 7.064 17.66 38.852 12 11.015446192 1.766 18.6174827297
6586 1 8.83 19.426 38.852 12 11.015446192 1.766 17.4942763777
6587 1 8.83 17.66 40.618 12 11.015446192 1.766 17.4798256569
6588 1 7.064 19.426 40.618 12 11.015446192 1.766 17.9384486333
6589 1 10.596 17.66 38.852 12 11.015446192 1.766 17.223744919
6590 1 12.362 19.426 38.852 12 11.015446192 1.766 16.4576485091
6591 1 12.362 17.66 40.618 12 11.015446192 1.766 16.5523873769
6592 1 10.596 19.426 40.618 12 11.015446192 1.766 16.6658374601
6593 1 14.128 17.66 38.852 12 11.015446192 1.766 16.4048401985
6594 1 15.894 19.426 38.852 12 11.015446192 1.766 15.9946817057
6595 1 15.894 17.66 40.618 12 11.015446192 1.766 16.3074885025
6596 1 14.128 19.426 40.618 12 11.015446192 1.766 16.076267665
6597 1 17.66 17.66 38.852 12 11.015446192 1.766 16.290064199
6598 1 19.426 19.426 38.852 12 11.015446192 1.766 16.0589759711
6599 1 19.426 17.66 40.618 12 11.015446192 1.766 16.4208503206
6600 1 17.66 19.426 40.618 12 11.015446192 1.766 15.966095441
6601 1 21.192 17.66 38.852 12 11.015446192 1.766 16.5398076763
6602 1 22.958 19.426 38.852 12 11.015446192 1.766 16.6623688007
6603 1 22.958 17.66 40.618 12 11.015446192 1.766 17.2369330703
6604 1 21.192 19.426 40.618 12 11.015446192 1.766 16.42955826
6605 1 24.724 17.66 38.852 12 11.015446192 1.766 17.4788786854
6606 1 26.49 19.426 38.852 12 11.015446192 1.766 17.9459053875
6607 1 26.49 17.66 40.618 12 11.015446192 1.766 18.5035641244
6608 1 24.724 19.426 40.618 12 11.015446192 1.766 17.4093845524
6609 1 28.256 17.66 38.852 12 11.015446192 1.766 19.0369958299
6610 1 30.022 19.426 38.852 12 11.015446192 1.766 19.7845028825
6611 1 30.022 17.66 40.618 12 11.015446192 1.766 20.2124506549
6612 1 28.256 19.426 40.618 12 11.015446192 1.766 18.8884335683
6613 1 31.788 17.66 38.852 12 11.015446192 1.766 21.0773164411
6614 1 33.554 19.426 38.852 12 11.015446192 1.766 21.9911072931
6615 1 33.554 17.66 40.618 12 11.015446192 1.766 22.352952504
6616 1 31.788 19.426 40.618 12 11.015446192 1.766 20.866461675
6617 1 35.32 17.66 38.852 12 11.015446192 1.766 23.3825205981
6618 1 37.086 19.426 38.852 12 11.015446192 1.766 24.3137694752
6619 1 37.086 17.66 40.618 12 11.015446192 1.766 24.8084029411
6620 1 35.32 19.426 40.618 12 11.015446192 1.766 23.2162781471
6621 1 38.852 17.66 38.852 12 11.015446192 1.766 24.8788973836
6622 1 40.618 19.426 38.852 12 11.015446192 1.766 23.4349685849
6623 1 40.618 17.66 40.618 12 11.015446192 1.766 23.4470460978
6624 1 38.852 19.426 40.618 12 11.015446192 1.766 24.3955053817
6625 1 0.0 21.192 38.852 12 11.015446192 1.766 22.0234023717
6626 1 1.766 22.958 38.852 12 11.015446192 1.766 20.7708073491
6627 1 1.766 21.192 40.618 12 11.015446192 1.766 20.783875261
6628 1 0.0 22.958 40.618 12 11.015446192 1.766 21.8629898581
6629 1 3.532 21.192 38.852 12 11.015446192 1.766 19.7704868221
6630 1 5.298 22.958 38.852 12 11.015446192 1.766 18.7014266592
6631 1 5.298 21.192 40.618 12 11.015446192 1.766 18.7189156776
6632 1 3.532 22.958 40.618 12 11.015446192 1.766 19.67328583
6633 1 7.064 21.192 38.852 12 11.015446192 1.766 17.9349963574
6634 1 8.83 22.958 38.852 12 11.015446192 1.766 17.1175444573
6635 1 8.83 21.192 40.618 12 11.015446192 1.766 17.1129855392
6636 1 7.064 22.958 40.618 12 11.015446192 1.766 17.8021021043
6637 1 10.596 21.192 38.852 12 11.015446192 1.766 16.6555122255
6638 1 12.362 22.958 38.852 12 11.015446192 1.766 16.1625290535
6639 1 12.362 21.192 40.618 12 11.015446192 1.766 16.0988379539
6640 1 10.596 22.958 40.618 12 11.015446192 1.766 16.4060772645
6641 1 14.128 21.192 38.852 12 11.015446192 1.766 16.0058467032
6642 1 15.894 22.958 38.852 12 11.015446192 1.766 15.663754792
6643 1 15.894 21.192 40.618 12 11.015446192 1.766 15.7747497634
6644 1 14.128 22.958 40.618 12 11.015446192 1.766 15.6951900235
6645 1 17.66 21.192 38.852 12 11.015446192 1.766 15.7320385558
6646 1 19.426 22.958 38.852 12 11.015446192 1.766 15.7009163658
6647 1 19.426 21.192 40.618 12 11.015446192 1.766 15.9752495078
6648 1 17.66 22.958 40.618 12 11.015446192 1.766 15.755151577
6649 1 21.192 21.192 38.852 12 11.015446192 1.766 16.1238557895
6650 1 22.958 22.958 38.852 12 11.015446192 1.766 16.5113558968
6651 1 22.958 21.192 40.618 12 11.015446192 1.766 16.6212658868
6652 1 21.192 22.958 40.618 12 11.015446192 1.766 16.1839832201
6653 1 24.724 21.192 38.852 12 11.015446192 1.766 17.15032502
6654 1 26.49 22.958 38.852 12 11.015446192 1.766 17.8964165153
6655 1 26.49 21.192 40.618 12 11.015446192 1.766 17.8179041374
6656 1 24.724 22.958 40.618 12 11.015446192 1.766 17.0486808005
6657 1 28.256 21.192 38.852 12 11.015446192 1.766 18.7369918679
6658 1 30.022 22.958 38.852 12 11.015446192 1.766 19.6499438956
6659 1 30.022 21.192 40.618 12 11.015446192 1.766 19.5867042664
6660 1 28.256 22.958 40.618 12 11.015446192 1.766 18.5565020736
6661 1 31.788 21.192 38.852 12 11.015446192 1.766 20.7378186054
6662 1 33.554 22.958 38.852 12 11.015446192 1.766 21.7387524439
6663 1 33.554 21.192 40.618 12 11.015446192 1.766 21.7887656417
6664 1 31.788 22.958 40.618 12 11.015446192 1.766 20.5664792655
6665 1 35.32 21.192 38.852 12 11.015446192 1.766 22.9497651086
6666 1 37.086 22.958 38.852 12 11.015446192 1.766 24.0966881444
6667 1 37.086 21.192 40.618 12 11.015446192 1.766 24.3066180363
6668 1 35.32 22.958 40.618 12 11.015446192 1.766 22.9470350492
6669 1 38.852 21.192 38.852 12 11.015446192 1.766 24.5540223868
6670 1 40.618 22.958 38.852 12 11.015446192 1.766 23.1961109839
6671 1 40.618 21.192 40.618 12 11.015446192 1.766 23.1518640177
6672 1 38.852 22.958 40.618 12 11.015446192 1.766 24.3162987351
6673 1 0.0 24.724 38.852 12 11.015446192 1.766 22.0103555329
6674 1 1.766 26.49 38.852 12 11.015446192 1.766 21.0553309306
6675 1 1.766 24.724 40.618 12 11.015446192 1.766 20.6314994888
6676 1 0.0 26.49 40.618 12 11.015446192 1.766 21.8342192573
6677 1 3.532 24.724 38.852 12 11.015446192 1.766 19.755952213
6678 1 5.298 26.49 38.852 12 11.015446192 1.766 19.0169367079
6679 1 5.298 24.724 40.618 12 11.015446192 1.766 18.6311808621
6680 1 3.532 26.49 40.618 12 11.015446192 1.766 19.6397616008
6681 1 7.064 24.724 38.852 12 11.015446192 1.766 17.9189729896
6682 1 8.83 26.49 38.852 12 11.015446192 1.766 17.4598043132
6683 1 8.83 24.724 40.618 12 11.015446192 1.766 17.0604713028
6684 1 7.064 26.49 40.618 12 11.015446192 1.766 17.878964984
6685 1 10.596 24.724 38.852 12 11.015446192 1.766 16.6382567043
6686 1 12.362 26.49 38.852 12 11.015446192 1.766 16.4557868318
6687 1 12.362 24.724 40.618 12 11.015446192 1.766 15.9937522949
6688 1 10.596 26.49 40.618 12 11.015446192 1.766 16.6526766962
6689 1 14.128 24.724 38.852 12 11.015446192 1.766 15.9674635995
6690 1 15.894 26.49 38.852 12 11.015446192 1.766 15.9580226943
6691 1 15.894 24.724 40.618 12 11.015446192 1.766 15.6669957278
6692 1 14.128 26.49 40.618 12 11.015446192 1.766 15.9660852351
6693 1 17.66 24.724 38.852 12 11.015446192 1.766 15.6324966588
6694 1 19.426 26.49 38.852 12 11.015446192 1.766 15.9959905411
6695 1 19.426 24.724 40.618 12 11.015446192 1.766 15.9979865351
6696 1 17.66 26.49 40.618 12 11.015446192 1.766 15.9944081195
6697 1 21.192 24.724 38.852 12 11.015446192 1.766 16.0628620217
6698 1 22.958 26.49 38.852 12 11.015446192 1.766 16.673093611
6699 1 22.958 24.724 40.618 12 11.015446192 1.766 16.6226457047
6700 1 21.192 26.49 40.618 12 11.015446192 1.766 16.4204169019
6701 1 24.724 24.724 38.852 12 11.015446192 1.766 17.1144674612
6702 1 26.49 26.49 38.852 12 11.015446192 1.766 17.8645500182
6703 1 26.49 24.724 40.618 12 11.015446192 1.766 17.8191912946
6704 1 24.724 26.49 40.618 12 11.015446192 1.766 17.4120191702
6705 1 28.256 24.724 38.852 12 11.015446192 1.766 18.6159455262
6706 1 30.022 26.49 38.852 12 11.015446192 1.766 19.6272355488
6707 1 30.022 24.724 40.618 12 11.015446192 1.766 19.5878751927
6708 1 28.256 26.49 40.618 12 11.015446192 1.766 18.8908619113
6709 1 31.788 24.724 38.852 12 11.015446192 1.766 20.6183093335
6710 1 33.554 26.49 38.852 12 11.015446192 1.766 21.823488521
6711 1 33.554 24.724 40.618 12 11.015446192 1.766 21.7898182355
6712 1 31.788 26.49 40.618 12 11.015446192 1.766 20.8686598497
6713 1 35.32 24.724 38.852 12 11.015446192 1.766 22.9339140628
6714 1 37.086 26.49 38.852 12 11.015446192 1.766 24.3136025817
6715 1 37.086 24.724 40.618 12 11.015446192 1.766 24.3075615993
6716 1 35.32 26.49 40.618 12 11.015446192 1.766 23.2182538554
6717 1 38.852 24.724 38.852 12 11.015446192 1.766 24.5675375553
6718 1 40.618 26.49 38.852 12 11.015446192 1.766 23.451227845
6719 1 40.618 24.724 40.618 12 11.015446192 1.766 23.0031886919
6720 1 38.852 26.49 40.618 12 11.015446192 1.766 24.3453501395
6721 1 0.0 28.256 38.852 12 11.015446192 1.766 22.5572892287
6722 1 1.766 30.022 38.852 12 11.015446192 1.766 21.8898127911
6723 1 1.766 28.256 40.618 12 11.015446192 1.766 20.8996314598
6724 1 0.0 30.022 40.618 12 11.015446192 1.766 22.3683700474
6725 1 3.532 28.256 38.852 12 11.015446192 1.766 20.3635260823
6726 1 5.298 30.022 38.852 12 11.015446192 1.766 19.8333944775
6727 1 5.298 28.256 40.618 12 11.015446192 1.766 18.9276708635
6728 1 3.532 30.022 40.618 12 11.015446192 1.766 20.2319322789
6729 1 7.064 28.256 38.852 12 11.015446192 1.766 18.5434295893
6730 1 8.83 30.022 38.852 12 11.015446192 1.766 18.2057461494
6731 1 8.83 28.256 40.618 12 11.015446192 1.766 17.4547672994
6732 1 7.064 30.022 40.618 12 11.015446192 1.766 18.5274994777
6733 1 10.596 28.256 38.852 12 11.015446192 1.766 17.1759635338
6734 1 12.362 30.022 38.852 12 11.015446192 1.766 17.1605622639
6735 1 12.362 28.256 40.618 12 11.015446192 1.766 16.6015403931
6736 1 10.596 30.022 40.618 12 11.015446192 1.766 17.3826188492
6737 1 14.128 28.256 38.852 12 11.015446192 1.766 16.4476275392
6738 1 15.894 30.022 38.852 12 11.015446192 1.766 16.726244184
6739 1 15.894 28.256 40.618 12 11.015446192 1.766 16.3240132563
6740 1 14.128 30.022 40.618 12 11.015446192 1.766 16.9102982795
6741 1 17.66 28.256 38.852 12 11.015446192 1.766 16.2450328743
6742 1 19.426 30.022 38.852 12 11.015446192 1.766 16.7338387642
6743 1 19.426 28.256 40.618 12 11.015446192 1.766 16.456221835
6744 1 17.66 30.022 40.618 12 11.015446192 1.766 16.8659244317
6745 1 21.192 28.256 38.852 12 11.015446192 1.766 16.5984876359
6746 1 22.958 30.022 38.852 12 11.015446192 1.766 17.370799014
6747 1 22.958 28.256 40.618 12 11.015446192 1.766 17.1971975714
6748 1 21.192 30.022 40.618 12 11.015446192 1.766 17.2313885152
6749 1 24.724 28.256 38.852 12 11.015446192 1.766 17.4414991004
6750 1 26.49 30.022 38.852 12 11.015446192 1.766 18.5170418351
6751 1 26.49 28.256 40.618 12 11.015446192 1.766 18.5068333252
6752 1 24.724 30.022 40.618 12 11.015446192 1.766 18.2847516086
6753 1 28.256 28.256 38.852 12 11.015446192 1.766 18.9160538909
6754 1 30.022 30.022 38.852 12 11.015446192 1.766 20.2229341654
6755 1 30.022 28.256 40.618 12 11.015446192 1.766 20.2158544986
6756 1 28.256 30.022 40.618 12 11.015446192 1.766 19.8551889026
6757 1 31.788 28.256 38.852 12 11.015446192 1.766 20.8896708146
6758 1 33.554 30.022 38.852 12 11.015446192 1.766 22.3607545086
6759 1 33.554 28.256 40.618 12 11.015446192 1.766 22.3560304455
6760 1 31.788 30.022 40.618 12 11.015446192 1.766 21.7479172903
6761 1 35.32 28.256 38.852 12 11.015446192 1.766 23.2355255305
6762 1 37.086 30.022 38.852 12 11.015446192 1.766 24.8191391094
6763 1 37.086 28.256 40.618 12 11.015446192 1.766 24.8133690769
6764 1 35.32 30.022 40.618 12 11.015446192 1.766 23.9922137969
6765 1 38.852 28.256 38.852 12 11.015446192 1.766 25.0479464433
6766 1 40.618 30.022 38.852 12 11.015446192 1.766 24.2048750186
6767 1 40.618 28.256 40.618 12 11.015446192 1.766 23.2439780157
6768 1 38.852 30.022 40.618 12 11.015446192 1.766 24.8255296301
6769 1 0.0 31.788 38.852 12 11.015446192 1.766 23.535919456
6770 1 1.766 33.554 38.852 12 11.015446192 1.766 22.9915113812
6771 1 1.766 31.788 40.618 12 11.015446192 1.766 21.7458149343
6772 1 0.0 33.554 40.618 12 11.015446192 1.766 23.4287190127
6773 1 3.532 31.788 38.852 12 11.015446192 1.766 21.3248459325
6774 1 5.298 33.554 38.852 12 11.015446192 1.766 21.0177354619
6775 1 5.298 31.788 40.618 12 11.015446192 1.766 19.8580612426
6776 1 3.532 33.554 40.618 12 11.015446192 1.766 21.3984106825
6777 1 7.064 31.788 38.852 12 11.015446192 1.766 19.5028122691
6778 1 8.83 33.554 38.852 12 11.015446192 1.766 19.4892498651
6779 1 8.83 31.788 40.618 12 11.015446192 1.766 18.459544238
6780 1 7.064 33.554 40.618 12 11.015446192 1.766 19.7946743569
6781 1 10.596 31.788 38.852 12 11.015446192 1.766 18.1912167476
6782 1 12.362 33.554 38.852 12 11.015446192 1.766 18.5166564114
6783 1 12.362 31.788 40.618 12 11.015446192 1.766 17.666833294
6784 1 10.596 33.554 40.618 12 11.015446192 1.766 18.727421981
6785 1 14.128 31.788 38.852 12 11.015446192 1.766 17.4927192181
6786 1 15.894 33.554 38.852 12 11.015446192 1.766 17.9759251735
6787 1 15.894 31.788 40.618 12 11.015446192 1.766 17.5077463582
6788 1 14.128 33.554 40.618 12 11.015446192 1.766 18.2601293767
6789 1 17.66 31.788 38.852 12 11.015446192 1.766 17.1854621938
6790 1 19.426 33.554 38.852 12 11.015446192 1.766 17.9804285621
6791 1 19.426 31.788 40.618 12 11.015446192 1.766 17.6230791865
6792 1 17.66 33.554 40.618 12 11.015446192 1.766 18.2654885094
6793 1 21.192 31.788 38.852 12 11.015446192 1.766 17.5492752058
6794 1 22.958 33.554 38.852 12 11.015446192 1.766 18.6656064094
6795 1 22.958 31.788 40.618 12 11.015446192 1.766 18.3169126012
6796 1 21.192 33.554 40.618 12 11.015446192 1.766 18.6858624926
6797 1 24.724 31.788 38.852 12 11.015446192 1.766 18.450463567
6798 1 26.49 33.554 38.852 12 11.015446192 1.766 19.7881170729
6799 1 26.49 31.788 40.618 12 11.015446192 1.766 19.6314977133
6800 1 24.724 33.554 40.618 12 11.015446192 1.766 19.6614559054
6801 1 28.256 31.788 38.852 12 11.015446192 1.766 19.8502093131
6802 1 30.022 33.554 38.852 12 11.015446192 1.766 21.3928914649
6803 1 30.022 31.788 40.618 12 11.015446192 1.766 21.4087685695
6804 1 28.256 33.554 40.618 12 11.015446192 1.766 21.1880694624
6805 1 31.788 31.788 38.852 12 11.015446192 1.766 21.7391826367
6806 1 33.554 33.554 38.852 12 11.015446192 1.766 23.4241772783
6807 1 33.554 31.788 40.618 12 11.015446192 1.766 23.3956536679
6808 1 31.788 33.554 40.618 12 11.015446192 1.766 23.0403308561
6809 1 35.32 31.788 38.852 12 11.015446192 1.766 24.0021532711
6810 1 37.086 33.554 38.852 12 11.015446192 1.766 25.7813577048
6811 1 37.086 31.788 40.618 12 11.015446192 1.766 25.6536489889
6812 1 35.32 33.554 40.618 12 11.015446192 1.766 25.0738433814
6813 1 38.852 31.788 38.852 12 11.015446192 1.766 25.8738802267
6814 1 40.618 33.554 38.852 12 11.015446192 1.766 25.2637994798
6815 1 40.618 31.788 40.618 12 11.015446192 1.766 24.0076734815
6816 1 38.852 33.554 40.618 12 11.015446192 1.766 25.7850308787
6817 1 0.0 35.32 38.852 12 11.015446192 1.766 24.7980878524
6818 1 1.766 37.086 38.852 12 11.015446192 1.766 24.5344922718
6819 1 1.766 35.32 40.618 12 11.015446192 1.766 23.1066308049
6820 1 0.0 37.086 40.618 12 11.015446192 1.766 24.9482628368
6821 1 3.532 35.32 38.852 12 11.015446192 1.766 22.7069536815
6822 1 5.298 37.086 38.852 12 11.015446192 1.766 22.6953061092
6823 1 5.298 35.32 40.618 12 11.015446192 1.766 21.3395997225
6824 1 3.532 37.086 40.618 12 11.015446192 1.766 23.0521782861
6825 1 7.064 35.32 38.852 12 11.015446192 1.766 21.0051512217
6826 1 8.83 37.086 38.852 12 11.015446192 1.766 21.2876155487
6827 1 8.83 35.32 40.618 12 11.015446192 1.766 20.0447173459
6828 1 7.064 37.086 40.618 12 11.015446192 1.766 21.5717425558
6829 1 10.596 35.32 38.852 12 11.015446192 1.766 19.7933589419
6830 1 12.362 37.086 38.852 12 11.015446192 1.766 20.3770386883
6831 1 12.362 35.32 40.618 12 11.015446192 1.766 19.3016388562
6832 1 10.596 37.086 40.618 12 11.015446192 1.766 20.590952399
6833 1 14.128 35.32 38.852 12 11.015446192 1.766 19.0631236914
6834 1 15.894 37.086 38.852 12 11.015446192 1.766 19.7827800204
6835 1 15.894 35.32 40.618 12 11.015446192 1.766 19.0017175228
6836 1 14.128 37.086 40.618 12 11.015446192 1.766 20.0138157237
6837 1 17.66 35.32 38.852 12 11.015446192 1.766 18.7373847243
6838 1 19.426 37.086 38.852 12 11.015446192 1.766 19.7868721825
6839 1 19.426 35.32 40.618 12 11.015446192 1.766 19.3150472639
6840 1 17.66 37.086 40.618 12 11.015446192 1.766 20.0230174308
6841 1 21.192 35.32 38.852 12 11.015446192 1.766 19.0716159708
6842 1 22.958 37.086 38.852 12 11.015446192 1.766 20.4115723108
6843 1 22.958 35.32 40.618 12 11.015446192 1.766 20.0056246634
6844 1 21.192 37.086 40.618 12 11.015446192 1.766 20.6118927687
6845 1 24.724 35.32 38.852 12 11.015446192 1.766 20.0223315924
6846 1 26.49 37.086 38.852 12 11.015446192 1.766 21.5673918691
6847 1 26.49 35.32 40.618 12 11.015446192 1.766 21.2158297834
6848 1 24.724 37.086 40.618 12 11.015446192 1.766 21.5351713077
6849 1 28.256 35.32 38.852 12 11.015446192 1.766 21.3352893757
6850 1 30.022 37.086 38.852 12 11.015446192 1.766 23.0498284635
6851 1 30.022 35.32 40.618 12 11.015446192 1.766 22.8907346974
6852 1 28.256 37.086 40.618 12 11.015446192 1.766 22.9374157759
6853 1 31.788 35.32 38.852 12 11.015446192 1.766 23.1031561628
6854 1 33.554 37.086 38.852 12 11.015446192 1.766 24.9465602466
6855 1 33.554 35.32 40.618 12 11.015446192 1.766 24.7337939141
6856 1 31.788 37.086 40.618 12 11.015446192 1.766 24.643324771
6857 1 35.32 35.32 38.852 12 11.015446192 1.766 25.2441503049
6858 1 37.086 37.086 38.852 12 11.015446192 1.766 27.171992788
6859 1 37.086 35.32 40.618 12 11.015446192 1.766 26.8705086355
6860 1 35.32 37.086 40.618 12 11.015446192 1.766 26.5534776216
6861 1 38.852 35.32 38.852 12 11.015446192 1.766 27.0684150649
6862 1 40.618 37.086 38.852 12 11.015446192 1.766 26.6969488515
6863 1 40.618 35.32 40.618 12 11.015446192 1.766 25.2468672511
6864 1 38.852 37.086 40.618 12 11.015446192 1.766 27.1731257203
6865 1 0.0 38.852 38.852 12 11.015446192 1.766 26.4717188823
6866 1 1.766 40.618 38.852 12 11.015446192 1.766 26.4617284863
6867 1 1.766 38.852 40.618 12 11.015446192 1.766 24.8978383631
6868 1 0.0 40.618 40.618 12 11.015446192 1.766 26.8491491592
6869 1 3.532 38.852 38.852 12 11.015446192 1.766 24.523712707
6870 1 5.298 40.618 38.852 12 11.015446192 1.766 24.7660792787
6871 1 5.298 38.852 40.618 12 11.015446192 1.766 23.2672405823
6872 1 3.532 40.618 40.618 12 11.015446192 1.766 25.0970897861
6873 1 7.064 38.852 38.852 12 11.015446192 1.766 22.9569840635
6874 1 8.83 40.618 38.852 12 11.015446192 1.766 23.4828520243
6875 1 8.83 38.852 40.618 12 11.015446192 1.766 22.0847118918
6876 1 7.064 40.618 40.618 12 11.015446192 1.766 23.7444955494
6877 1 10.596 38.852 38.852 12 11.015446192 1.766 21.8536904749
6878 1 12.362 40.618 38.852 12 11.015446192 1.766 22.5681424888
6879 1 12.362 38.852 40.618 12 11.015446192 1.766 21.2724092389
6880 1 10.596 40.618 40.618 12 11.015446192 1.766 22.7366003139
6881 1 14.128 38.852 38.852 12 11.015446192 1.766 21.0737326633
6882 1 15.894 40.618 38.852 12 11.015446192 1.766 22.0121087774
6883 1 15.894 38.852 40.618 12 11.015446192 1.766 20.9859185655
6884 1 14.128 40.618 40.618 12 11.015446192 1.766 22.189442378
6885 1 17.66 38.852 38.852 12 11.015446192 1.766 20.7795358417
6886 1 19.426 40.618 38.852 12 11.015446192 1.766 22.0157865692
6887 1 19.426 38.852 40.618 12 11.015446192 1.766 21.2897207415
6888 1 17.66 40.618 40.618 12 11.015446192 1.766 22.1977422333
6889 1 21.192 38.852 38.852 12 11.015446192 1.766 21.0814150196
6890 1 22.958 40.618 38.852 12 11.015446192 1.766 22.578902358
6891 1 22.958 38.852 40.618 12 11.015446192 1.766 22.1125595213
6892 1 21.192 40.618 40.618 12 11.015446192 1.766 22.7608922379
6893 1 24.724 38.852 38.852 12 11.015446192 1.766 21.9547957554
6894 1 26.49 40.618 38.852 12 11.015446192 1.766 23.6615479866
6895 1 26.49 38.852 40.618 12 11.015446192 1.766 23.2331059553
