ITEM: TIMESTEP
4000
ITEM: NUMBER OF ATOMS
6908
ITEM: BOX BOUNDS abc origin pp pp pp
42.431654037 0.0 0.0 -0.0238270185
0.0 42.431654037 0.0 -0.0238270185
0.0 0.0 42.431654037 -0.0238270185
ITEM: ATOMS id type x y z Coordination AtomicVolume CavityRadius SurfaceDistance
1 1 -0.0172913 42.4061 42.3895 12 11.1004387211 1.7477836773 28.6813318791
2 1 1.7732 1.74807 0.0353227 12 11.4373207296 1.8033112135 30.8585175453
3 1 1.69573 42.335 1.74482 12 11.0410241918 1.7531089794 28.9095900191
4 1 42.4079 1.68576 1.75916 12 10.9541899635 1.7571849184 28.9022065686
5 1 3.57025 0.0133105 0.145378 12 11.1813842217 1.7697482404 29.0947692884
6 1 5.35578 1.73428 0.109194 12 11.0589534344 1.7689667603 29.0529393152
7 1 5.36737 0.0501052 1.8631 12 10.7817624832 1.7582494935 27.1018827546
8 1 3.47333 1.69299 1.83426 12 11.0047965457 1.7665341794 29.297447259
9 1 7.06978 -0.0241064 0.0542326 12 10.9582463051 1.7718564855 27.0152907987
10 1 8.86305 1.79116 0.0874487 12 11.1901963835 1.7718564855 27.198964206
11 1 8.81123 0.0903704 1.82439 12 10.9749823022 1.7716721412 25.1688319546
12 1 7.03409 1.76036 1.8396 12 10.6673749948 1.7550360099 27.2188433077
13 1 10.6095 0.0123905 0.158462 12 11.0344956803 1.7718564855 25.0833864484
14 1 12.3052 1.83123 -0.00392226 12 10.5604955456 1.7185320003 25.6808880895
15 1 12.2964 0.128317 1.80218 12 10.9132181168 1.7298840664 23.4762638877
16 1 10.5557 1.8437 1.89521 12 10.754615096 1.7389581642 25.4635937014
17 1 14.0195 42.3729 0.0119378 12 10.7814044836 1.7277944987 23.6447772723
18 1 15.8815 1.76851 42.3032 12 10.9095988735 1.7617074807 24.4560076481
19 1 15.8791 0.0480933 1.67937 12 11.1835468593 1.7581499424 22.1066138426
20 1 14.1186 1.72712 1.68433 12 11.0905254706 1.7592115879 23.9904413461
21 1 17.6979 0.0228788 42.3538 12 11.0214880368 1.7642283647 22.6479862846
22 1 19.521 1.75569 0.14536 12 11.2971577633 1.7642283647 23.5023643857
23 1 19.3806 42.3584 1.72263 12 10.7321507112 1.7604001231 21.1421475851
24 1 17.6875 1.76375 1.75286 12 11.0930633114 1.766573703 22.9258718837
25 1 21.2684 -0.0257812 42.3926 12 10.8949456047 1.7604001231 22.048679789
26 1 22.9963 1.71247 42.4165 12 11.1719810007 1.7572231135 23.3288871587
27 1 22.9329 42.3519 1.70895 12 11.10928385 1.7841224691 20.858591196
28 1 21.3213 1.76788 1.7668 12 10.7929088236 1.7479577097 22.384873797
29 1 24.7362 0.00581767 42.3154 12 11.2890382239 1.7932864195 22.14637499
30 1 26.5532 1.71284 42.3149 12 11.2723491608 1.7509267235 23.6820495168
31 1 26.5621 42.3315 1.68458 12 11.077212793 1.7546655705 21.1843854166
32 1 24.7986 1.70047 1.83531 12 11.5636688393 1.7509267235 22.3235826547
33 1 28.2997 0.0503626 42.2364 12 11.2874996559 1.7441091354 22.8115305896
34 1 30.0631 1.83728 42.3577 12 11.130197098 1.7405669108 24.5090122695
35 1 29.9692 42.3721 1.78707 12 11.3451757913 1.7550637837 21.9265445486
36 1 28.27 1.77604 1.67439 12 11.4284763303 1.7509267235 23.0013528498
37 1 31.6827 42.3961 0.0334697 12 11.1467483288 1.7441339281 23.5577057509
38 1 33.4055 1.5836 42.3307 12 11.3354861349 1.7952614277 25.352098734
39 1 33.5764 42.2618 1.74951 12 11.6638611336 1.7985687475 23.0674635857
40 1 31.739 1.81259 1.77281 12 11.1209037612 1.7985687475 23.8296337337
41 1 35.3689 -0.00268874 42.3569 12 11.2400616015 1.7856770723 25.0047675035
42 1 37.0965 1.72259 42.3823 12 11.1911293539 1.7783400566 26.9470785056
43 1 37.1097 42.3849 1.72988 12 10.9432488437 1.7656779636 24.7754971285
44 1 35.4086 1.6581 1.76055 12 11.4311037697 1.7971981106 25.1118958645
45 1 38.7777 0.0362331 -0.0932372 12 10.9560476636 1.7654326552 26.6685471035
46 1 40.645 1.6736 -0.0590606 12 11.0135419142 1.7654326552 28.7418881172
47 1 40.5828 0.0531835 1.71085 12 11.0246787069 1.7550929042 26.7745103925
48 1 38.8811 1.84643 1.71842 12 11.1408266578 1.7638393825 26.9734906728
49 1 0.0576395 3.4273 42.3751 12 11.2516282347 1.7840698774 29.3772422269
50 1 1.85305 5.28115 42.3323 12 11.1879216889 1.7786412008 29.3276929374
51 1 1.7191 3.4827 1.75096 12 10.8602707969 1.7687331073 29.3853842582
52 1 0.0321396 5.18531 1.73671 12 11.1319187327 1.7863580829 27.3126663189
53 1 3.61651 3.54238 0.0306288 12 11.4915129436 1.7697482404 30.5879102516
54 1 5.41801 5.36357 42.3946 12 11.18010502 1.7592030609 28.4614754604
55 1 5.36954 3.44134 1.76652 12 11.0200780189 1.7592030609 28.7910529905
56 1 3.51359 5.29898 1.80374 12 11.1491696704 1.7617389649 28.6650298726
57 1 7.08551 3.57806 0.00944491 12 11.0372973662 1.7567429931 28.7074671481
58 1 8.77526 5.17527 -0.0214142 12 10.8851071305 1.7522104554 26.8456354065
59 1 8.83902 3.56442 1.93175 12 10.8021262076 1.7521888363 26.7884786314
60 1 7.04039 5.4095 1.78886 12 10.7587428129 1.7586731817 26.5536904525
61 1 10.5594 3.42403 0.0299583 12 10.9046357771 1.7530925116 27.1272662546
62 1 12.4155 5.22881 0.0245529 12 11.2542039176 1.7530212785 25.1502172166
63 1 12.4285 3.555 1.71444 12 10.8446936779 1.7286027697 25.2419370707
64 1 10.5384 5.22042 1.74066 12 10.9806873546 1.7530212785 24.9459459801
65 1 14.1965 3.35334 42.3273 12 10.9499016754 1.7495489366 25.8283852332
66 1 15.916 5.19 42.342 12 11.0879553412 1.7684183561 23.9592475387
67 1 15.9432 3.45191 1.84059 12 11.3658439318 1.7684183561 24.0059595165
68 1 14.0935 5.15681 1.75275 12 11.1032427087 1.7723142723 23.4468891468
69 1 17.624 3.54708 42.3157 12 11.0736041765 1.7642272636 24.5784234378
70 1 19.3615 5.21904 42.2891 12 11.1384810725 1.7883762087 22.9263156999
71 1 19.5043 3.59705 1.76062 12 10.8857878192 1.7525851739 22.9236985753
72 1 17.709 5.16322 1.72458 12 11.0110557017 1.7652532672 22.2496169037
73 1 21.2004 3.54651 42.3655 12 11.1200835733 1.7856421019 23.7479671488
74 1 23.0037 5.23804 0.00688738 12 11.0753017585 1.7857812575 22.2266352974
75 1 23.0575 3.48055 1.7709 12 11.2110890358 1.7834308061 22.4565436252
76 1 21.224 5.36061 1.67807 12 11.3644943484 1.7883762087 21.2664663613
77 1 24.7852 3.47302 0.0419898 12 11.2332260512 1.7582326595 23.4583520121
78 1 26.5844 5.22169 -0.0498431 12 10.9512664951 1.7582326595 22.2735336054
79 1 26.569 3.65375 1.69852 12 11.3066707131 1.7823481651 22.3603386214
80 1 24.7539 5.27726 1.76869 12 11.0721412812 1.7804182393 20.9680478191
81 1 28.2984 3.49974 42.294 12 10.8961109553 1.7480873999 23.8091536646
82 1 30.0181 5.2965 42.3195 12 11.057328882 1.7541730025 22.7924959212
83 1 30.0084 3.61971 1.72568 12 11.022218465 1.7385754503 22.899160541
84 1 28.2838 5.34668 1.72469 12 10.9963056802 1.7604390862 21.2274012286
85 1 31.856 3.50108 42.3306 12 10.8915084954 1.7515023099 24.559270676
86 1 33.5343 5.30939 -0.0187415 12 10.9747607393 1.7510091974 23.7741827911
87 1 33.6299 3.41425 1.61931 12 11.5280611378 1.7985687475 24.1937910193
88 1 31.7688 5.2309 1.69362 12 11.3371494353 1.768952118 22.1700098467
89 1 35.3081 3.54763 42.2932 12 11.4211196058 1.7856770723 25.7515331673
90 1 37.1906 5.25293 0.0206114 12 11.2672741887 1.7891273571 25.3572450984
91 1 37.1197 3.49127 1.78404 12 11.1976657018 1.768524919 25.5316881952
92 1 35.3604 5.3256 1.67213 12 11.5649025109 1.7922432015 23.491552663
93 1 38.8371 3.55899 42.4191 12 11.2534487506 1.7680003401 27.3027923853
94 1 40.7128 5.36699 42.3569 12 11.2493531582 1.7632728458 27.2074598213
95 1 40.7424 3.59783 1.67979 12 11.2754116294 1.7573148667 27.4024834011
96 1 39.0034 5.35424 1.75566 12 10.9660801539 1.7628186019 25.2668208196
97 1 0.0434492 7.0621 -0.0121522 12 11.0644278813 1.7786046537 27.1799224952
98 1 1.75919 8.83618 42.3909 12 11.0187032596 1.7809705199 27.3505750184
99 1 1.69097 7.0519 1.72761 12 11.0287849214 1.780815867 27.2601726628
100 1 -0.0118 8.80311 1.77811 12 11.1114028767 1.7810302916 25.1837506865
101 1 3.6022 7.05764 0.0297401 12 11.0234410416 1.7786412008 28.5033586426
102 1 5.31515 8.69208 42.3422 12 10.990175108 1.7279643595 26.6337559885
103 1 5.27858 7.06477 1.74724 12 10.8783032727 1.7748163656 26.5426742411
104 1 3.54545 8.84122 1.6268 12 10.9287662841 1.7810302916 26.7095932261
105 1 7.19625 6.96001 42.4066 12 10.7700396087 1.7256336078 26.5116893819
106 1 8.81248 8.84544 42.3827 12 10.8219737707 1.7651543904 24.5776352973
107 1 8.86382 7.07442 1.72067 12 10.6733527341 1.7651408526 24.5524161318
108 1 6.99977 8.77089 1.63021 12 11.2384241042 1.791643792 24.5857406695
109 1 10.4973 7.04181 42.417 12 10.9729868655 1.7530212785 24.8519459135
110 1 12.2834 8.70881 42.4331 12 11.0792013428 1.7532593587 23.0334942374
111 1 12.3245 7.03699 1.68621 12 11.0735185438 1.7667377042 22.9745244448
112 1 10.5619 8.762 1.68063 12 10.7968276835 1.7643779506 22.6713822654
113 1 14.2049 6.8441 -0.0215048 12 11.1399996282 1.7498108186 23.4420745373
114 1 15.904 8.71563 42.3522 12 10.9464718787 1.7704139913 21.6411032661
115 1 15.9974 6.9738 1.69195 12 11.1045188248 1.7698137971 21.5714632531
116 1 14.1313 8.80475 1.60169 12 11.2340544019 1.7744981441 21.1454381422
117 1 17.7865 7.01881 42.4053 12 10.9751311861 1.7382916543 22.0525295125
118 1 19.4224 8.75198 42.3725 12 10.810731352 1.7641789686 20.4867139627
119 1 19.5067 7.09134 1.68635 12 10.9252277971 1.7525851739 20.3561376689
120 1 17.7233 8.78724 1.54364 12 10.6875607813 1.7694156915 19.8548760216
121 1 21.2154 7.18837 42.3488 12 11.2006150763 1.7883762087 21.1348585652
122 1 22.9897 8.83013 42.2273 12 11.0713093105 1.7542323157 19.9089229583
123 1 22.9656 7.03368 1.71458 12 11.2022912032 1.7798511889 19.7617627837
124 1 21.2294 8.90908 1.69374 12 11.0237869882 1.7536831545 18.6999185125
125 1 24.7156 6.98095 42.4541 12 11.1218085628 1.7582326595 20.8938229548
126 1 26.5534 8.87877 0.00209604 12 11.264028747 1.7478575591 19.7123079349
127 1 26.5194 7.03934 1.75782 12 11.0599530677 1.7478575591 19.7153750765
128 1 24.7226 8.82904 1.64448 12 11.1464885254 1.7536831545 18.4439063418
129 1 28.3023 7.07249 -0.0102118 12 11.0640138829 1.7469037071 21.14301503
130 1 30.1081 8.822 42.3842 12 11.1192453705 1.7687774345 20.4082628086
131 1 30.0138 7.03483 1.79075 12 11.0098433342 1.7597411906 20.2996014894
132 1 28.3191 8.81182 1.75566 12 11.0525870089 1.7395398627 18.7061439841
133 1 31.7623 7.02696 42.3492 12 11.1815603407 1.7674445014 22.0595437251
134 1 33.5704 8.78472 0.0959909 12 11.1032368089 1.7566074414 21.4890616255
135 1 33.5168 7.07141 1.86764 12 11.0772732337 1.7597411906 21.3933882781
136 1 31.7937 8.75692 1.68684 12 10.8286897662 1.7601537594 19.737536899
137 1 35.3201 7.08539 0.0131027 12 11.163818794 1.7891273571 23.3268982318
138 1 37.0585 8.82826 42.3232 12 10.8757290496 1.7890789588 23.2145228552
139 1 37.2492 7.20537 1.74971 12 11.2271244299 1.7890078145 23.1478903534
140 1 35.3566 8.75949 1.78282 12 10.7511875793 1.7279348958 21.1984437596
141 1 38.8966 7.08127 -0.0204976 12 11.1652969802 1.7891273571 25.1589778472
142 1 40.763 8.85452 42.3 12 11.2393607327 1.7830190142 25.2495268094
143 1 40.6574 7.06834 1.81062 12 11.1462648082 1.7630919969 25.0713795356
144 1 38.9017 8.89236 1.65114 12 11.1812043426 1.7789097621 23.1047644645
145 1 0.0544461 10.6371 42.3677 12 10.7856050828 1.7531043376 25.3729278061
146 1 1.79524 12.4478 -0.00233869 12 10.7515367945 1.7498971843 25.739286592
147 1 1.69681 10.6306 1.7203 12 10.983991304 1.7810302916 25.4706943584
148 1 0.0114301 12.3959 1.64419 12 10.7726440286 1.7528166558 23.5628716814
149 1 3.46384 10.6425 0.033015 12 11.0168434453 1.782100882 26.7684307484
150 1 5.24102 12.374 42.3664 12 10.9322761107 1.7651480478 24.8982689489
151 1 5.20996 10.5717 1.66295 12 11.1765733907 1.791643792 24.7051924444
152 1 3.56103 12.4702 1.72145 12 10.8209972602 1.7636276945 24.9266097784
153 1 7.00848 10.6566 42.283 12 11.0053741903 1.791643792 24.6570428708
154 1 8.81936 12.247 42.2327 12 10.7775998553 1.7480935497 22.9049266236
155 1 8.81019 10.6018 1.69109 12 10.9858663316 1.7911991429 22.490266213
156 1 7.10872 12.3798 1.63243 12 11.1858059957 1.7910271302 22.6352724283
157 1 10.5294 10.5024 42.4064 12 10.9907653773 1.7793015687 22.7927357841
158 1 12.4411 12.2593 -0.0153271 12 11.1109755881 1.7491971072 20.9351198515
159 1 12.3768 10.5947 1.64835 12 10.888062836 1.7439210846 20.7510020308
160 1 10.577 12.3073 1.71389 12 11.0067422891 1.7491971072 20.6173909102
161 1 14.1659 10.4946 0.00361073 12 10.9571988732 1.7417258098 21.1243945479
162 1 15.898 12.4208 -0.0139049 12 11.0077145781 1.7384355363 19.3107617619
163 1 15.9188 10.5492 1.68862 12 11.2851105179 1.7794293985 19.2650428782
164 1 14.0952 12.4313 1.72829 12 10.8851585323 1.7470936331 18.85233592
165 1 17.6834 10.5746 -0.0033903 12 10.9790713823 1.7618942029 19.8206244356
166 1 19.4487 12.4122 42.3663 12 10.8570110675 1.7638981439 18.3063180721
167 1 19.4381 10.5508 1.7046 12 10.7878839016 1.7641789686 18.0742393102
168 1 17.8429 12.3282 1.82432 12 10.9286103853 1.7528937341 17.3625841249
169 1 21.263 10.6007 42.3464 12 11.3057262744 1.7641789686 18.9795311176
170 1 22.9395 12.3894 42.4387 12 11.0217947438 1.7371709101 17.6766490702
171 1 23.0285 10.629 1.74561 12 10.9938262209 1.7516671556 17.2686207323
172 1 21.2029 12.2949 1.72301 12 11.0378218332 1.7501900137 16.5845714312
173 1 24.7297 10.6362 -0.0490184 12 11.1368409117 1.7376068933 18.594150916
174 1 26.5239 12.2808 0.0286432 12 10.9866846523 1.7494061723 17.6977836881
175 1 26.4401 10.6031 1.81612 12 11.0150417777 1.7305374194 17.214802068
176 1 24.8112 12.3283 1.883 12 10.5238877698 1.7275007196 16.0387803052
177 1 28.3014 10.5009 0.0208136 12 11.2717157223 1.7699711004 18.9407387602
178 1 30.0384 12.3952 42.3725 12 11.2342492732 1.7699711004 18.3743378952
179 1 30.2319 10.5852 1.71345 12 10.9943312441 1.7622295243 18.0599595836
180 1 28.3096 12.3398 1.73193 12 11.0816602412 1.7490939492 16.5297828831
181 1 31.8196 10.6053 42.4027 12 11.1039135336 1.7699711004 19.8710504932
182 1 33.5984 12.4074 42.3033 12 10.897068621 1.7739268279 19.61065257
183 1 33.5834 10.6034 1.66235 12 11.2743379796 1.7761674092 19.35479822
184 1 31.8097 12.4109 1.77396 12 10.9380632231 1.7748720833 17.5162790482
185 1 35.2671 10.4979 42.3512 12 10.8826127557 1.7546571991 21.3645960098
186 1 37.0053 12.3246 42.2756 12 10.9025171121 1.7805181472 21.2852093152
187 1 37.0198 10.5434 1.62671 12 10.9766490517 1.7412726374 21.1145071184
188 1 35.4281 12.3441 1.6272 12 11.2910853882 1.7761674092 19.2521505212
189 1 38.7918 10.6224 42.3659 12 11.1626110496 1.7830190142 23.0944987159
190 1 40.6568 12.3718 42.3924 12 11.1935382603 1.7815931062 23.3477150687
191 1 40.6253 10.5854 1.63582 12 11.3237506452 1.7737847836 23.2097114593
192 1 38.6957 12.3857 1.68593 12 11.4300629723 1.7969039169 21.0477084461
193 1 0.0788573 14.0955 42.2866 12 10.883815402 1.7728406457 23.9551276597
194 1 1.80887 15.8611 42.2809 12 10.8306913994 1.7728406457 24.6431823591
195 1 1.70573 14.1517 1.69083 12 10.7788144987 1.7519336177 24.0871012427
196 1 0.0531169 15.9555 1.67054 12 11.0830746415 1.7726435331 22.2291167336
197 1 3.52143 14.0911 42.2264 12 10.8467219473 1.7337475238 25.4838556074
198 1 5.272 15.778 42.2146 12 11.3038586002 1.7882983575 23.7425618013
199 1 5.2827 14.1239 1.73545 12 10.9150069415 1.7651171372 23.0439807846
200 1 3.46968 15.8161 1.61709 12 11.0630666544 1.7518973303 23.8527732184
201 1 7.10841 14.0044 42.2998 12 11.1907950686 1.7886165178 23.1049592227
202 1 8.86691 15.8792 42.3018 12 11.116159757 1.7886165178 21.3793526688
203 1 8.89707 14.0702 1.59673 12 11.1069855404 1.7597504511 20.8099995017
204 1 7.11378 15.7581 1.66041 12 11.0937896801 1.7884458736 21.2550254731
205 1 10.5193 14.0356 42.2246 12 11.0341318171 1.7487390898 21.2132914703
206 1 12.3057 15.9003 42.3739 12 10.8344876273 1.7662861255 19.3901056849
207 1 12.2893 14.1673 1.57945 12 10.9837324958 1.7782966697 18.9305826501
208 1 10.6684 15.9268 1.66066 12 10.7338449819 1.7597504511 19.0017449736
209 1 14.031 14.0832 42.346 12 10.8797639553 1.739454342 19.2968449248
210 1 15.8706 15.8882 42.4204 12 10.9684558377 1.7680206485 17.605807154
211 1 15.9761 14.1672 1.66548 12 11.1426634355 1.7632466874 17.0885237382
212 1 14.1077 15.9009 1.60656 12 11.1430336518 1.7559780196 17.1871902323
213 1 17.6683 14.0437 0.00371273 12 10.7306757937 1.7505074263 17.8067306045
214 1 19.3452 15.8903 42.385 12 10.7864526018 1.7469580053 16.4947622193
215 1 19.4109 14.0705 1.74697 12 10.9207083266 1.7469580053 15.935021598
216 1 17.6926 15.8429 1.72683 12 10.8521827089 1.768799502 15.5211437659
217 1 21.2791 14.2577 42.4078 12 10.8629319549 1.7419481924 16.9390804976
218 1 22.9605 15.9198 42.3702 12 10.8448194193 1.7594691764 16.0374686796
219 1 22.9552 14.1389 1.70605 12 10.7065815058 1.7578602362 15.3344825978
220 1 21.1864 15.9378 1.69381 12 10.8632817593 1.7594757304 14.6304058886
221 1 24.6983 13.9947 0.0710995 12 11.0928171173 1.7656192974 16.741817909
222 1 26.5336 15.8168 42.3165 12 11.0857153173 1.7651376229 16.1623288395
223 1 26.4383 14.0501 1.68139 12 10.7635811841 1.7651376229 15.3790081448
224 1 24.7012 15.8602 1.68856 12 11.2457874632 1.7651376229 14.4769643107
225 1 28.2718 14.0741 42.3972 12 10.9473946637 1.7644317416 17.1076856202
226 1 30.0165 15.7852 42.4505 12 11.1424559587 1.7459502555 16.6211011963
227 1 30.0694 14.0726 1.7196 12 10.7719554159 1.7490939492 16.0675644664
228 1 28.2252 15.8161 1.78454 12 10.9734101707 1.7651376229 14.6891247703
229 1 31.8423 14.0274 42.4164 12 10.8454628077 1.739884807 18.0242392375
230 1 33.4909 15.8455 42.322 12 11.1622261272 1.7783343156 17.9354639232
231 1 33.5951 14.1475 1.71069 12 11.101311407 1.7761674092 17.3482554797
232 1 31.7966 15.7733 1.73604 12 11.0790780362 1.7804235586 15.777283018
233 1 35.2774 14.1448 42.318 12 10.9738876014 1.7777334379 19.4970786669
234 1 37.0413 15.9653 42.3174 12 11.2140123986 1.7783343156 19.712345215
235 1 37.0712 14.2032 1.68449 12 11.3877783265 1.7953464112 19.1867602569
236 1 35.3161 16.0291 1.67781 12 11.4238118349 1.7769913479 17.3957095409
237 1 38.8103 14.1982 42.3003 12 11.5317342691 1.7971072859 21.4565869859
238 1 40.7035 16.0022 42.4232 12 11.3253784612 1.7728406457 21.9551832637
239 1 40.7174 14.1262 1.64396 12 11.2769745908 1.7971072859 21.6163931597
240 1 38.9418 15.9743 1.70671 12 11.3083511255 1.7971072859 19.6481407699
241 1 42.376 17.7277 42.3098 12 11.0110676189 1.7720058443 22.7495600205
242 1 1.73999 19.516 42.4027 12 10.9659928999 1.7650387982 23.7227196671
243 1 1.65909 17.7097 1.57538 12 11.243439794 1.7694364909 23.0615058551
244 1 42.3089 19.5045 1.68801 12 11.2827826481 1.7647322019 21.2311181888
245 1 3.53187 17.6353 42.3716 12 10.9805833275 1.7518973303 24.3553712823
246 1 5.27173 19.3724 42.3714 12 10.9657017601 1.7441879857 22.6496779164
247 1 5.33275 17.4813 1.68281 12 10.9989613964 1.7493550063 21.9800314898
248 1 3.60184 19.3344 1.72471 12 11.1902062321 1.7651932058 22.8026619117
249 1 6.97755 17.5781 42.3051 12 11.0867602172 1.7886165178 22.0196528163
250 1 8.74533 19.2902 -0.0179057 12 10.7395040808 1.7387193832 20.3113970955
251 1 8.80951 17.5855 1.64951 12 10.7227695188 1.7597504511 19.5860381938
252 1 7.00548 19.2823 1.66307 12 11.0208510769 1.7548620792 20.3100313608
253 1 10.5527 17.5963 42.3484 12 10.522592574 1.7627846349 19.8197681932
254 1 12.3637 19.425 42.3617 12 10.8284379038 1.7662861255 18.2548039411
255 1 12.3168 17.6969 1.70802 12 10.916778399 1.7662207826 17.4329302137
256 1 10.5505 19.3086 1.57198 12 10.8025740572 1.7489422771 18.0284737517
257 1 14.2132 17.6364 42.3938 12 10.9669967664 1.7662861255 17.7477916096
258 1 15.8138 19.4628 -0.0189501 12 10.6027444507 1.7387331785 16.4611238459
259 1 15.988 17.6924 1.70088 12 10.8460764097 1.7562130594 15.4646600062
260 1 14.0843 19.4171 1.70326 12 10.9574619905 1.7562130594 15.9154682799
261 1 17.6167 17.5691 42.3894 12 11.0113677456 1.7683780526 16.318138472
262 1 19.4082 19.4093 -0.0209883 12 10.9837385589 1.7664508749 15.2071385859
263 1 19.4547 17.6891 1.64292 12 11.0189130489 1.7600055803 14.2357169554
264 1 17.5654 19.4254 1.71065 12 10.8757846309 1.7638239306 14.2229262921
265 1 21.1852 17.652 42.4039 12 10.8684707118 1.7492659494 15.4212018792
266 1 22.8747 19.4885 0.0147153 12 11.0181690608 1.7431250362 14.675253577
267 1 22.8522 17.7316 1.71293 12 10.9715061043 1.7594757304 13.6573129836
268 1 21.1892 19.5139 1.76266 12 10.7483603921 1.7576873952 13.1382898915
269 1 24.7503 17.7553 -0.0655669 12 11.2492841991 1.7345518461 15.311905313
270 1 26.6487 19.3793 -0.0363071 12 11.2793453958 1.783650657 14.8678884412
271 1 26.5442 17.6215 1.67885 12 11.173255065 1.7836326907 13.7854693748
272 1 24.6741 19.3143 1.80434 12 11.1332805256 1.783650657 13.0381541589
273 1 28.3834 17.5981 42.3859 12 11.0569097632 1.7459502555 15.6129754356
274 1 30.0844 19.4596 42.3039 12 10.4944926778 1.7562420858 15.554996015
275 1 30.1098 17.6889 1.63161 12 10.9755821178 1.7567724288 14.4839538834
276 1 28.2619 19.463 1.72968 12 10.9973315126 1.7816856701 13.3653600893
277 1 31.758 17.648 -0.0408795 12 10.717118942 1.7460741668 16.5254001136
278 1 33.564 19.3541 -0.0308226 12 10.8847164249 1.7511650645 16.8237145524
279 1 33.5468 17.623 1.75659 12 11.2530243215 1.7521406804 15.8097476278
280 1 31.842 19.411 1.68029 12 10.9212691007 1.755984635 14.5580231484
281 1 35.4215 17.7245 42.2658 12 11.3038511566 1.7783343156 18.2824202241
282 1 37.1214 19.464 42.3905 12 11.1694485615 1.7691975487 18.7533161985
283 1 37.2058 17.7048 1.69257 12 11.1309845058 1.767130603 17.945797999
284 1 35.324 19.3844 1.96797 12 10.8670174225 1.7462655222 16.134485783
285 1 38.8144 17.7274 42.2907 12 11.0227628835 1.7703180344 20.284804772
286 1 40.5517 19.4716 42.2711 12 11.0444728679 1.7410379309 21.1120144836
287 1 40.6293 17.8127 1.63741 12 11.0733564565 1.7642960729 20.3306979411
288 1 38.8496 19.4949 1.75879 12 10.9484502106 1.7393207059 18.5899076141
289 1 42.4178 21.2424 42.3943 12 10.9151584131 1.7556022662 22.1848509933
290 1 1.70652 23.0151 0.00571271 12 10.8085755744 1.7538443819 23.4256804696
291 1 1.81384 21.222 1.79532 12 11.1279867911 1.7651932058 22.5286774817
292 1 42.3396 22.9248 1.75615 12 10.7881784974 1.7533688892 20.9335118256
293 1 3.50778 21.2064 0.0611154 12 10.9081312336 1.7509979363 23.5159513396
294 1 5.28161 23.0284 0.0390434 12 10.8747223951 1.7376790818 21.9904370745
295 1 5.38907 21.1427 1.69541 12 10.8950060329 1.7451580765 21.0679119367
296 1 3.55324 22.8659 1.76352 12 10.8333962543 1.764213272 22.2423643916
297 1 7.06017 21.1648 42.3529 12 11.1063984386 1.734289011 21.044093007
298 1 8.68677 22.9902 42.3365 12 10.9616985594 1.7748600837 19.7341017383
299 1 8.82222 21.1046 1.6718 12 11.1917847215 1.7748600837 18.6146150013
300 1 6.9615 22.9235 1.74283 12 10.9414544049 1.7748600837 19.6190749629
301 1 10.5363 21.1305 -0.0171792 12 10.9224879449 1.7529493605 18.8028546081
302 1 12.3075 23.0493 42.3884 12 11.09242145 1.7543472298 17.5673518562
303 1 12.313 21.138 1.70835 12 11.1871453552 1.7529493605 16.4183329396
304 1 10.5507 22.9276 1.70707 12 11.1171379493 1.7739704815 17.1744221428
305 1 14.0737 21.0848 42.353 12 10.9774183029 1.7520164035 17.0287166625
306 1 15.7906 22.904 42.3889 12 11.2604894841 1.7748867129 16.0065765182
307 1 15.7897 21.1621 1.7194 12 11.0610020233 1.7638239306 14.6465010182
308 1 13.9069 22.9497 1.74592 12 11.1749758858 1.7590351206 15.2379129001
309 1 17.6232 21.1218 42.3604 12 10.8715405778 1.7748867129 15.4627296808
310 1 19.3383 23.0675 42.3278 12 10.9588849601 1.7746873092 14.804886652
311 1 19.3381 21.2025 1.62096 12 10.9611262219 1.7635208598 13.3104877404
312 1 17.6095 22.9518 1.67548 12 11.2201440394 1.7748867129 13.7035553965
313 1 21.1273 21.2273 42.3453 12 10.7317125778 1.7350940121 14.5697047996
314 1 22.9219 22.9324 42.3975 12 11.326117272 1.7575035443 14.2296992537
315 1 22.9497 21.1602 1.66703 12 10.9572137136 1.7575130247 12.7018358844
316 1 21.0172 22.8447 1.66439 12 11.2043327836 1.7575130247 12.7204582715
317 1 24.7172 21.1694 42.4058 12 11.5597218731 1.7791776201 14.428442911
318 1 26.5269 22.9368 42.3516 12 10.9256137412 1.7791242176 14.4505782747
319 1 26.5446 21.1897 1.73568 12 11.0040782176 1.783650657 12.7799772677
320 1 24.7905 22.9666 1.69903 12 10.9572121647 1.7561126844 12.5630422172
321 1 28.2737 21.1642 42.3462 12 10.9804260862 1.7791776201 14.794736633
322 1 30.0732 23.0515 42.3107 12 10.8241939034 1.7380226732 15.1495577292
323 1 30.0353 21.1984 1.65959 12 11.4706939165 1.7603403169 13.5580187703
324 1 28.1583 22.9797 1.6224 12 11.1549615911 1.7743267877 12.9877238641
325 1 31.7663 21.2624 42.3888 12 10.8652028934 1.74910082 15.74817515
326 1 33.6515 23.042 42.3563 12 10.8614933468 1.7610489685 16.517169853
327 1 33.517 21.1125 1.72697 12 11.0728974795 1.761206115 15.0081285142
328 1 31.8071 22.9475 1.65466 12 10.9440494334 1.7603760194 14.129747379
329 1 35.2392 21.0823 0.0682094 12 11.3035067172 1.7654086865 17.3252671567
330 1 37.1406 22.8779 42.3878 12 11.0207709727 1.7489319126 18.4412291253
331 1 37.0421 21.1133 1.74139 12 10.9304055054 1.7268963171 17.1153038733
332 1 35.3604 22.9379 1.75202 12 10.9774785075 1.761206115 15.929062373
333 1 38.8937 21.2136 -0.0415526 12 10.8424021215 1.7719257293 19.658523262
334 1 40.5866 22.8395 42.421 12 10.9158465437 1.762556495 20.7451509069
335 1 40.6065 21.3296 1.74777 12 10.731535542 1.7393207059 19.6497189586
336 1 38.7942 22.8936 1.69424 12 11.0474047146 1.7673162715 18.2712501732
337 1 42.3886 24.728 0.0772546 12 11.0760363841 1.7610540245 22.0944779419
338 1 1.66095 26.4564 42.3727 12 11.1138318452 1.7566014654 23.6906831736
339 1 1.72948 24.6254 1.82592 12 11.0637258046 1.7610023625 22.438345697
340 1 0.0254588 26.5997 1.74443 12 11.2982426215 1.7745565624 21.3492394882
341 1 3.43585 24.7055 0.0695604 12 10.8633854199 1.7638156817 23.2934858886
342 1 5.14019 26.5437 0.00376306 12 10.7670162122 1.7445496394 22.119539065
343 1 5.20843 24.8172 1.69813 12 10.9180503459 1.7578796265 20.8902055328
344 1 3.44833 26.5488 1.75034 12 11.0280796229 1.7518613517 22.3229451966
345 1 6.99933 24.8621 0.0447139 12 10.7864161715 1.7578796265 20.6853711895
346 1 8.75604 26.592 0.113401 12 10.8367836636 1.746944398 19.5339388635
347 1 8.76596 24.6511 1.72764 12 11.0576151688 1.7748600837 18.2477650599
348 1 6.99173 26.5143 1.73369 12 10.9203063025 1.7759053836 19.5922823181
349 1 10.5216 24.7241 0.00206164 12 10.8168144138 1.7912225586 18.4390835321
350 1 12.2809 26.4401 42.4076 12 10.8195266931 1.7565053345 17.558612133
351 1 12.264 24.7131 1.65739 12 10.675280849 1.7469999416 16.0798702367
352 1 10.5481 26.4611 1.78866 12 10.8142202679 1.7471712516 17.096487477
353 1 14.2204 24.799 0.0273771 12 11.1526076482 1.7565053345 16.5026859218
354 1 15.9428 26.5457 0.0804208 12 11.2345161875 1.7872827475 15.7535459543
355 1 15.8916 24.6595 1.6698 12 10.9607321183 1.7590351206 14.3113537364
356 1 14.0886 26.4592 1.75831 12 10.7875643892 1.7506903222 15.1216193355
357 1 17.6151 24.6688 42.2769 12 11.1992720983 1.7748862013 15.3175944189
358 1 19.5384 26.4947 -0.00432204 12 10.8032869016 1.7432712747 14.6198761893
359 1 19.407 24.7255 1.78404 12 11.1286314864 1.7572420096 12.9174168769
360 1 17.6315 26.4575 1.75015 12 11.1442534095 1.7635175004 13.5331750144
361 1 21.1783 24.8213 0.0284698 12 10.9432824975 1.75684933 14.2870459105
362 1 23.0075 26.4437 0.0282118 12 11.0136187992 1.756990978 14.2051966963
363 1 22.8987 24.659 1.74647 12 11.2058629549 1.7575130247 12.4549376638
364 1 21.1583 26.5229 1.80161 12 10.898836701 1.7513222164 12.5539210239
365 1 24.7632 24.6789 42.3819 12 11.0940693891 1.7575035443 14.2509338197
366 1 26.4466 26.382 42.3692 12 11.0498876804 1.7622816849 14.4444148213
367 1 26.4544 24.7414 1.72904 12 10.9122016499 1.7919880936 12.585093397
368 1 24.7187 26.5539 1.76903 12 10.9518160795 1.7613712667 12.5329361933
369 1 28.2119 24.6799 -0.00247744 12 11.1418360445 1.7624811011 14.6069440692
370 1 30.1397 26.4479 42.4125 12 11.5626246154 1.7671691235 15.2829984641
371 1 30.1122 24.6205 1.69857 12 11.2236457348 1.7624811011 13.5210533685
372 1 28.3089 26.5156 1.6904 12 11.2334717333 1.7625212686 13.1078864327
373 1 31.9044 24.6498 42.263 12 10.8252370463 1.7531667662 15.9188675736
374 1 33.6387 26.4406 42.336 12 11.2634809553 1.7764697974 16.8630042931
375 1 33.5694 24.6315 1.6818 12 11.0545649847 1.7764697974 15.0561660158
376 1 31.7539 26.4832 1.78033 12 11.3182450565 1.7764697974 14.3351832487
377 1 35.3931 24.7686 -0.0709367 12 10.8652361933 1.7641797015 17.5209692289
378 1 37.2054 26.5361 42.3913 12 11.0230579342 1.7661739312 18.8241963551
379 1 37.0867 24.6557 1.73724 12 11.1329795256 1.7673162715 17.1351930861
380 1 35.3589 26.4341 1.69385 12 11.2648814933 1.7763254553 16.3494855748
381 1 38.881 24.7103 42.3579 12 11.0713326753 1.7619150656 19.6762001747
382 1 40.6747 26.4641 42.3633 12 11.1455533808 1.7745565624 21.1429478171
383 1 40.6064 24.7624 1.66671 12 11.3648061459 1.7726738994 19.718990349
384 1 38.8407 26.5232 1.70675 12 11.3164584774 1.786463221 18.6422612356
385 1 -0.0221307 28.2432 0.00773216 12 10.8805976031 1.7671722683 22.7098107234
386 1 1.75362 29.9937 42.3727 12 11.0674856593 1.7804623506 24.5360686753
387 1 1.81911 28.3531 1.81559 12 10.9636912308 1.7566014654 23.0971174204
388 1 0.0721497 29.9294 1.77785 12 11.1137673481 1.7707808011 22.1754163273
389 1 3.48463 28.3312 42.4506 12 10.834119488 1.7566014654 23.5576556559
390 1 5.21742 30.1117 0.0639487 12 10.8335016319 1.7382399426 22.5901839281
391 1 5.26707 28.3022 1.66929 12 10.7120535797 1.7518613517 21.1586707857
392 1 3.58961 30.0827 1.77126 12 10.6848694149 1.7392313561 22.7534357015
393 1 6.9787 28.3238 0.0100307 12 10.8416695718 1.7488091934 21.0257463734
394 1 8.89559 30.056 42.2949 12 11.1982027855 1.7775540219 20.2505324786
395 1 8.81278 28.3763 1.72628 12 10.8141802264 1.7391468746 18.5680619237
396 1 7.05252 30.0564 1.60765 12 11.0791296762 1.768453427 20.2556276125
397 1 10.5936 28.164 0.0280302 12 10.9461445402 1.7719512313 18.6850934896
398 1 12.4208 30.0057 0.117657 12 11.4162992983 1.7789847804 18.0390472737
399 1 12.437 28.1555 1.68628 12 10.8842997105 1.7281341749 16.3117233151
400 1 10.4953 30.062 1.72188 12 10.928627851 1.7703310318 17.8965782927
401 1 14.1026 28.2879 0.0413716 12 11.1789998195 1.7788835278 16.8536287978
402 1 15.9664 30.0295 0.118932 12 11.1752756784 1.7789847804 16.2820086531
403 1 15.8254 28.2156 1.90173 12 11.0758580917 1.7480991027 14.4020485433
404 1 14.0942 30.1916 1.7693 12 11.1517787132 1.7776569472 15.8751150686
405 1 17.7097 28.1739 0.0676128 12 10.6901112826 1.7450080527 15.2577339563
406 1 19.3695 30.0164 0.164292 12 11.0290204442 1.7417187674 15.1141878248
407 1 19.4092 28.2071 1.78688 12 10.7908131252 1.7439262123 13.1417533114
408 1 17.5889 29.9768 1.82139 12 10.9813223674 1.7450080527 14.1370435145
409 1 21.2523 28.3605 0.00365044 12 10.8022608394 1.7432712747 14.5503299476
410 1 22.9641 30.0938 42.4054 12 10.6762308764 1.7495968391 14.9132041772
411 1 22.9693 28.2477 1.57966 12 10.7022365173 1.7479956776 12.8948452869
412 1 21.1259 29.8832 1.80357 12 10.8289666715 1.7442877953 13.2206849086
413 1 24.7979 28.2793 42.4025 12 10.9725573149 1.7495968391 14.5865757959
414 1 26.4569 30.0419 -0.0322781 12 11.0254820707 1.7495968391 15.2428517833
415 1 26.513 28.2625 1.72827 12 11.0859432691 1.7625212686 13.0514489573
416 1 24.6931 30.1015 1.81123 12 10.9584533227 1.7495968391 13.3007538111
417 1 28.303 28.2714 42.3781 12 10.8953750288 1.7638051142 15.0810603856
418 1 30.1095 29.9713 42.3561 12 10.8565052504 1.7682987299 16.0820521534
419 1 30.006 28.3175 1.66951 12 11.0393407124 1.7682989388 14.0179343764
420 1 28.264 29.9743 1.59945 12 11.1048628743 1.7682989388 14.0489020286
421 1 31.9523 28.24 42.3448 12 11.3044605063 1.7641732428 16.3465501109
422 1 33.5822 30.0789 0.024777 12 11.2332241036 1.7690955242 17.4921277018
423 1 33.5395 28.1736 1.8674 12 11.2612996245 1.7764697974 15.492675425
424 1 31.7971 29.9978 1.72394 12 11.0793867661 1.7682387511 15.2183445727
425 1 35.4124 28.2653 0.0263678 12 11.2100050498 1.7637666827 18.0486355111
426 1 37.059 30.0864 0.032045 12 10.6102226168 1.745230706 19.4717058846
427 1 37.1036 28.3372 1.7174 12 10.7960927043 1.7628381827 17.8668717192
428 1 35.3039 30.0324 1.71222 12 11.050973806 1.7778508706 17.1396292165
429 1 38.8144 28.2822 -0.0179837 12 11.0482431188 1.767026678 20.2190615952
430 1 40.6863 30.0516 42.381 12 11.1544136578 1.7651687024 21.9760601705
431 1 40.6063 28.3452 1.63821 12 11.0836766718 1.7789073999 20.3814578592
432 1 38.8115 30.0813 1.68965 12 10.840725662 1.7595733437 19.5186425465
433 1 -0.00170302 31.8604 42.3526 12 11.2963273043 1.780477336 23.7663783511
434 1 1.72189 33.6509 0.00499377 12 11.4155572342 1.7785658284 25.5856578916
435 1 1.85198 31.7496 1.72356 12 11.3087103832 1.780477336 24.1367310959
436 1 0.0221401 33.6349 1.79857 12 11.1242636432 1.767644486 23.3165435555
437 1 3.5534 31.8614 0.0188581 12 10.8957234711 1.780477336 24.2911530222
438 1 5.29152 33.5849 42.3441 12 10.4971913296 1.7266557908 23.6971073435
439 1 5.24732 31.901 1.84761 12 10.7099132377 1.7655228675 21.953861624
440 1 3.58655 33.5982 1.7261 12 10.9753078532 1.7452820471 23.8469374579
441 1 6.99566 31.9375 -0.0303478 12 11.1495124398 1.7769846112 21.9428212813
442 1 8.7117 33.5959 -5.38982e-04 12 11.0079618022 1.7775540219 21.4605401092
443 1 8.85121 31.7857 1.80863 12 11.274424066 1.7775540219 19.4374037498
444 1 6.90599 33.5757 1.84873 12 10.8781129424 1.7712872342 21.394503315
445 1 10.6397 31.8584 42.3576 12 11.2634315368 1.7775540219 19.7404095554
446 1 12.3653 33.6292 42.3429 12 10.9895528854 1.7603280817 19.4422320539
447 1 12.3348 31.8106 1.67021 12 11.080875405 1.7634651992 17.4703658264
448 1 10.5393 33.5013 1.69825 12 11.0851415192 1.7669653841 19.1809021842
449 1 14.2725 31.8412 42.2985 12 11.1779218299 1.7789847804 17.8212235964
450 1 15.8737 33.6989 42.3728 12 11.0559140728 1.7555025921 17.8044385
451 1 15.752 31.9036 1.83268 12 11.0031736114 1.7502154656 15.5771511999
452 1 14.0256 33.6485 1.6384 12 10.9786782201 1.7555025921 17.3157769055
453 1 17.5431 31.9457 0.117366 12 11.2871036481 1.7738784635 16.3205798782
454 1 19.3947 33.6023 0.0321378 12 10.6562476899 1.7726773645 16.6171801202
455 1 19.3876 31.8841 1.75287 12 10.8532465524 1.736012592 14.3522994999
456 1 17.5966 33.6424 1.73873 12 10.8937482438 1.7584654832 15.7146316875
457 1 21.1977 31.81 0.0626142 12 11.0600691643 1.7494343408 15.5171212238
458 1 22.9908 33.5502 -0.00242043 12 11.2986569479 1.775241245 16.2592329398
459 1 22.9361 31.7187 1.73164 12 11.3041173554 1.7528113051 13.8744173276
460 1 20.9796 33.6665 1.7457 12 10.9601675572 1.7737496238 14.9351039905
461 1 24.7166 31.7995 0.0194268 12 10.8611730921 1.7574801327 15.5764397912
462 1 26.5026 33.6306 0.0312307 12 11.150867635 1.7575473015 16.6706332648
463 1 26.514 31.8749 1.68956 12 11.0446263689 1.7846608055 14.4187698256
464 1 24.7059 33.6269 1.74475 12 11.1034371188 1.7569967934 14.9127247866
465 1 28.2056 31.897 0.0239667 12 11.3169609386 1.754199643 16.2054929778
466 1 30.0538 33.6801 0.0962776 12 11.091435054 1.754199643 17.4647222131
467 1 30.0954 31.8521 1.72704 12 11.2112554517 1.7682989388 15.2681373526
468 1 28.2995 33.6122 1.80374 12 11.1877658496 1.7508991832 15.5922255285
469 1 31.7317 31.784 0.0278744 12 10.9277711282 1.7600030549 17.2487827325
470 1 33.5052 33.5928 -0.0324052 12 11.0699297651 1.7710919072 18.8533229967
471 1 33.5307 31.811 1.83037 12 10.844909569 1.7600030549 16.6823194236
472 1 31.8521 33.5836 1.81929 12 10.8435512645 1.7463775086 16.7297280318
473 1 35.3291 31.774 0.0635359 12 10.8549550705 1.7594317024 18.9561210398
474 1 37.1401 33.5735 0.0864001 12 10.8632546188 1.7556287534 20.6975896959
475 1 37.1253 31.8685 1.7621 12 10.9308310547 1.7645650736 18.8848085718
476 1 35.2427 33.5334 1.73509 12 10.7758424302 1.7556287534 18.454231553
477 1 38.8801 31.8384 42.3656 12 11.1724154645 1.7652936169 21.2473041678
478 1 40.7266 33.588 42.3392 12 11.146952549 1.7652936169 23.1355171711
479 1 40.7279 31.8482 1.69831 12 11.2427074716 1.7695226024 21.4447253525
480 1 38.9385 33.6135 1.80387 12 11.0010784631 1.762643722 20.7665274894
481 1 42.3154 35.4214 42.3959 12 10.7887316204 1.7259142539 24.9457128074
482 1 1.68223 37.0533 42.3839 12 11.1424333506 1.7686490229 26.9472781253
483 1 1.74095 35.3556 1.82977 12 11.1000403068 1.7371810357 25.2875832089
484 1 0.038894 37.2081 1.72115 12 11.0429111127 1.7533554226 24.9365863966
485 1 3.62879 35.3471 0.0343143 12 11.1554602556 1.7694299138 25.464704746
486 1 5.32347 37.1355 42.3955 12 11.0877145051 1.7963523814 25.1821471825
487 1 5.33418 35.3408 1.77379 12 11.0198631913 1.7978065116 23.2796527413
488 1 3.45947 37.1455 1.77563 12 11.3247592684 1.7978065116 25.4379463651
489 1 6.98593 35.2531 0.0733299 12 10.8325634474 1.7374644959 23.176770669
490 1 8.727 37.131 -0.0239161 12 11.0217627311 1.7387736078 23.1009364043
491 1 8.75482 35.3173 1.76734 12 11.086672561 1.7712872342 21.0547050689
492 1 7.07794 37.1739 1.78294 12 11.041376545 1.7971731056 23.0379874973
493 1 10.5236 35.2867 0.0193412 12 10.9670752795 1.7501457655 21.1214470666
494 1 12.3041 37.234 0.0955133 12 10.9668726032 1.7501457655 21.0840237353
495 1 12.317 35.4218 1.71143 12 10.9036478084 1.7501457655 19.0414080602
496 1 10.4941 37.0862 1.65466 12 11.0640355758 1.7577059421 21.0001326045
497 1 14.038 35.4026 -0.00238236 12 10.877578595 1.7542386031 19.3567915766
498 1 15.9088 37.1257 42.3791 12 11.0697564149 1.7549907928 19.5755310881
499 1 15.7577 35.3929 1.7304 12 11.1032387611 1.7778241253 17.3461805901
500 1 14.0826 37.1855 1.74385 12 10.8587621937 1.766542802 19.1114724285
501 1 17.6382 35.3716 42.3166 12 11.0019280948 1.7723950008 18.0777345077
502 1 19.4121 37.1452 42.3533 12 11.2160856176 1.7726773645 18.6553017614
503 1 19.3148 35.3189 1.73963 12 10.9862958325 1.7726245485 16.1683768257
504 1 17.5824 37.0379 1.77033 12 11.3203214311 1.7544338124 17.6658643034
505 1 21.2042 35.3207 0.0719434 12 11.1677705971 1.7728897278 17.2057107214
506 1 22.8824 37.0845 0.00908394 12 10.9519502962 1.7605196627 18.2295211971
507 1 22.9848 35.3516 1.77816 12 10.9955019961 1.7652469657 15.7672403558
508 1 21.2268 37.1084 1.80199 12 11.0993358441 1.7397094949 16.9643320924
509 1 24.7193 35.3821 42.3705 12 10.9803572678 1.7608363515 17.372096709
510 1 26.6288 37.0063 -0.019668 12 11.0790109459 1.7395083531 18.5909935074
511 1 26.5577 35.424 1.78767 12 11.1215252568 1.7531581777 16.2327801794
512 1 24.6719 37.0838 1.73263 12 11.2587276349 1.7531854863 17.0185783739
513 1 28.3521 35.3937 42.4198 12 11.1346912852 1.7572971496 18.0460611677
514 1 30.0579 37.1944 0.120751 12 11.1846728492 1.7435673887 19.4650129602
515 1 30.1148 35.325 1.84539 12 11.1590328032 1.7500423436 17.0640590517
516 1 28.3879 37.0192 1.81279 12 10.9016034698 1.7320953605 17.6922633731
517 1 31.8023 35.3448 42.3839 12 11.3401571951 1.7536562822 19.0478830116
518 1 33.6799 37.1217 -0.052847 12 11.4050221849 1.7755415299 20.8175700043
519 1 33.5958 35.305 1.76149 12 11.083611051 1.7571957399 18.496124189
520 1 31.885 37.2031 1.81853 12 11.3237835957 1.750962872 18.889116227
521 1 35.3075 35.3165 0.0136658 12 11.1069869191 1.7552901829 20.5426816558
522 1 37.0899 37.1179 42.3582 12 11.3341723375 1.7597084035 22.4988020619
523 1 37.0899 35.2436 1.72614 12 11.2101636355 1.7597084035 20.3844502528
524 1 35.276 37.2313 1.76269 12 11.3376497567 1.7613620335 20.4590565819
525 1 38.9456 35.3296 42.4041 12 11.0628725705 1.7503290936 22.6558846244
526 1 40.6538 37.0955 0.0502681 12 10.7224650404 1.7577789208 24.5474708242
527 1 40.7795 35.3765 1.72246 12 11.0725978951 1.7626143303 22.8660774045
528 1 38.8888 37.057 1.72489 12 11.3249938973 1.7693788871 22.452647404
529 1 42.3379 38.8741 0.0623926 12 10.7043238072 1.7537296129 26.5577748504
530 1 1.74169 40.5631 42.3784 12 10.8936430316 1.7460392154 28.7523815406
531 1 1.63438 39.0448 1.72641 12 11.202163383 1.776315065 27.0096952954
532 1 42.2878 40.7129 1.73323 12 11.1035219965 1.7528861524 26.7228583846
533 1 3.59361 38.8809 0.075185 12 10.9670344431 1.7694299138 27.1235053944
534 1 5.30706 40.6669 0.0247722 12 10.729827489 1.753917906 27.0635284425
535 1 5.29503 38.931 1.72618 12 10.9979899311 1.7978065116 25.1633530314
536 1 3.51552 40.6617 1.75807 12 10.8905140619 1.7538814039 27.2904026189
537 1 7.1792 38.9106 0.0869813 12 10.8157942232 1.7468888818 24.9031804586
538 1 8.8164 40.6577 0.0645741 12 11.1019747724 1.7716809229 24.9428862836
539 1 8.78174 38.9571 1.94107 12 10.8054430826 1.765143592 22.9207550489
540 1 7.02074 40.6844 1.81097 12 10.9345457688 1.7668187745 25.061911894
541 1 10.5387 38.9331 -0.0271072 12 11.2965361995 1.7608228348 23.0347836091
542 1 12.4215 40.7107 0.130012 12 11.000722401 1.7608228348 23.1019632453
543 1 12.279 38.8508 1.79825 12 11.1090864558 1.7665958537 20.975037811
544 1 10.5739 40.7159 1.81406 12 11.1094784428 1.7717152754 23.0482055311
545 1 14.1413 38.9709 42.368 12 11.0489392993 1.7665958537 21.375624795
546 1 15.8971 40.6226 42.3511 12 10.8801747959 1.7267085981 21.831505856
547 1 15.8058 38.9073 1.67636 12 11.0765368604 1.7665958537 19.5539646655
548 1 14.164 40.7133 1.766 12 11.0038594905 1.7665958537 21.3793073364
549 1 17.6251 38.9301 0.00458835 12 10.8637593995 1.7549907928 20.1331220955
550 1 19.4939 40.6355 0.0365955 12 10.8209460086 1.7604001231 20.8945530276
551 1 19.4481 38.7752 1.68596 12 10.9777067704 1.7495260572 18.4548308338
552 1 17.6068 40.7482 1.69184 12 11.1419410483 1.747866647 20.2982404057
553 1 21.1198 38.9034 0.0280227 12 10.7309082573 1.7591675931 19.4848345433
554 1 22.976 40.621 42.3577 12 11.0374617193 1.7934879848 20.6891831395
555 1 22.9133 38.9462 1.70824 12 11.1271228654 1.7531854863 18.2473614708
556 1 21.1776 40.688 1.70234 12 10.5945856799 1.7472369352 19.6276202804
557 1 24.8058 38.8352 -0.00413115 12 11.4606616201 1.7935106003 19.483233075
558 1 26.5599 40.7115 0.0699029 12 11.2819846428 1.7935106003 20.9860215338
559 1 26.4743 38.829 1.74103 12 10.9993048201 1.7507373647 18.497911755
560 1 24.7864 40.7122 1.76591 12 11.0199367457 1.7935106003 19.6299151739
561 1 28.2129 38.8638 0.15559 12 11.2763623922 1.7423282731 20.0191671712
562 1 30.0227 40.5483 -0.0379852 12 11.1443704324 1.7441091354 21.8076116983
563 1 30.0333 38.9137 1.81446 12 10.7642153996 1.7381787753 19.4637709834
564 1 28.2954 40.7121 1.87571 12 10.8752730083 1.7437256144 20.2090542653
565 1 31.7178 38.8133 42.3086 12 11.078277367 1.7755415299 21.1832136484
566 1 33.4957 40.6614 42.3106 12 11.3085581993 1.7755415299 23.0561284673
567 1 33.5975 38.9539 1.68945 12 10.9813118583 1.7752285927 20.8243683613
568 1 31.8712 40.526 1.67957 12 11.1536412539 1.7943113937 21.2624624989
569 1 35.398 39.0192 42.3428 12 10.9223156807 1.7733778699 22.7631843857
570 1 37.1329 40.7154 42.3733 12 10.5711079155 1.7411390207 24.6605145461
571 1 37.0752 38.9055 1.75077 12 10.8918351543 1.7559707664 22.45412794
572 1 35.3742 40.5673 1.74619 12 11.0328026961 1.7660414729 22.6872440374
573 1 38.7176 38.8994 0.0159126 12 10.9909013469 1.7582628599 24.3580501209
574 1 40.5606 40.6445 42.3706 12 11.2657989716 1.7582628599 26.5030063322
575 1 40.5287 38.8682 1.74961 12 11.1289925547 1.7614623883 24.4953684733
576 1 38.8651 40.613 1.75796 12 11.0715480381 1.7578852042 24.5396572323
577 1 42.3143 42.3658 3.60244 12 11.1383563587 1.7540047415 26.9259888889
578 1 1.68616 1.73495 3.53261 12 11.0201838844 1.7603100757 29.2617659621
579 1 1.65545 0.0425985 5.38946 12 10.9579352865 1.7601993438 27.4643533842
580 1 42.3075 1.81867 5.34735 12 10.9139428508 1.7603100757 27.3886586657
581 1 3.42712 42.3726 3.49655 12 11.0344199614 1.7582494935 27.5154645954
582 1 5.31739 1.74911 3.54028 12 10.9941589445 1.759118486 27.4020355882
583 1 5.30107 0.027824 5.36247 12 11.0799568896 1.7599344102 25.5266511874
584 1 3.43569 1.74455 5.21841 12 11.3757808679 1.7599344102 27.9175495933
585 1 7.0442 0.0191792 3.63854 12 10.7921518146 1.7562651856 25.1878629658
586 1 8.78117 1.78295 3.67598 12 10.6898754761 1.7397776427 25.3923090063
587 1 8.81928 42.3134 5.29165 12 10.8128344918 1.7575340788 23.2968576467
588 1 7.02343 1.77123 5.36074 12 11.0844211525 1.7575258239 25.6235647319
589 1 10.5245 0.0730705 3.51149 12 10.9138723676 1.7717152754 23.3835635332
590 1 12.3562 1.86084 3.57646 12 10.8351543791 1.7582024975 23.8275092753
591 1 12.3281 0.0540193 5.21647 12 11.077452265 1.7717805732 21.6615732405
592 1 10.6233 1.76715 5.25977 12 10.7011599107 1.7575340788 23.7308185808
593 1 14.1506 0.0375352 3.5406 12 11.1426296323 1.7717805732 21.7296875468
594 1 15.9261 1.73221 3.52934 12 11.3401909702 1.7704682338 22.4635744778
595 1 15.8956 42.302 5.36856 12 11.193167077 1.7708828778 20.0683961984
596 1 14.1347 1.81108 5.31764 12 10.8880691223 1.7717805732 22.2595171092
597 1 17.6937 -0.0104571 3.49902 12 11.103764866 1.7667286955 20.5531850107
598 1 19.4791 1.74885 3.38465 12 10.708004545 1.7666749746 21.7200003788
599 1 19.3917 42.3425 5.17963 12 11.124410802 1.7592098088 19.2870773687
600 1 17.7843 1.79501 5.29912 12 11.1756396617 1.7704682338 21.202313229
601 1 21.1415 42.4109 3.44915 12 11.0792272463 1.7875066233 19.9871535509
602 1 22.8879 1.76025 3.57787 12 11.3055472383 1.7875066233 21.369811465
603 1 22.9226 0.00605162 5.39836 12 11.1071558696 1.7875066233 18.9556325401
604 1 21.0286 1.67103 5.29682 12 11.0576581671 1.7562543981 20.5691007327
605 1 24.7075 42.3579 3.55061 12 11.3104581363 1.7875066233 19.9014176004
606 1 26.5433 1.76072 3.55195 12 11.2322471856 1.7782686811 21.6567273246
607 1 26.4323 0.00646643 5.2869 12 10.7191140934 1.7557834936 19.2511026858
608 1 24.719 1.80953 5.27865 12 10.9899793147 1.7564220155 20.6650259317
609 1 28.3093 0.0433888 3.56796 12 11.0752550674 1.7557803224 20.5402975422
610 1 30.0836 1.82136 3.42897 12 11.0357055961 1.7666239103 22.430084494
611 1 30.1475 -0.0225284 5.33711 12 11.213218701 1.7666239103 19.9555598774
612 1 28.2279 1.68447 5.32454 12 11.1961928602 1.7739572952 20.9171597953
613 1 31.8142 0.0954117 3.49103 12 11.4910143959 1.7943113937 21.580697507
614 1 33.5387 1.77199 3.59003 12 11.4010478163 1.7985687475 23.435048756
615 1 33.5644 0.0258472 5.30513 12 11.2143675813 1.7821983295 21.2589855142
616 1 31.7601 1.83768 5.34342 12 11.0653608916 1.7657500928 21.9702648174
617 1 35.3919 -0.0245497 3.63377 12 11.2616178742 1.7821983295 22.9093163835
618 1 37.0399 1.69668 3.47117 12 11.1403123472 1.768524919 25.024302459
619 1 37.1596 42.4084 5.49535 12 11.1077732276 1.7582364249 22.9317583918
620 1 35.377 1.72352 5.36984 12 11.1817973359 1.7767403832 23.3447452583
621 1 38.848 0.0149348 3.44528 12 11.2479692929 1.7578852042 24.8827798877
622 1 40.6622 1.75991 3.44515 12 10.8170550092 1.7573148667 27.0994177531
623 1 40.6444 42.4202 5.34286 12 11.0623792892 1.7576321952 25.1197267422
624 1 38.8863 1.7593 5.1754 12 11.0811640187 1.7597601637 25.3024351891
625 1 42.369 3.40634 3.55911 12 10.9086879681 1.7865071545 27.5356278049
626 1 1.70909 5.2368 3.39865 12 10.8814331333 1.7865071545 27.5196681278
627 1 1.67376 3.56281 5.34678 12 11.0247810023 1.7603100757 27.7612531053
628 1 42.3525 5.25036 5.31249 12 11.2035277273 1.7865071545 25.5400279275
629 1 3.37177 3.52133 3.49603 12 10.9414692114 1.7453031637 29.1215342213
630 1 5.20286 5.20379 3.46571 12 11.2318812052 1.7748163656 26.908844858
631 1 5.26197 3.54005 5.29322 12 11.1345737732 1.7643708237 27.2424801885
632 1 3.4625 5.23158 5.18757 12 10.9713539472 1.7648403725 27.2543000783
633 1 7.03345 3.53554 3.4868 12 10.8304966149 1.7555671089 26.9963568629
634 1 8.76784 5.35518 3.49226 12 10.752569445 1.7746071007 24.8022401239
635 1 8.85995 3.51604 5.2385 12 10.9676944326 1.7746071007 25.1995922078
636 1 7.02024 5.27361 5.29273 12 11.015864181 1.7725520277 24.9940423024
637 1 10.5396 3.61505 3.58409 12 10.6703167091 1.7302146884 25.0354386251
638 1 12.354 5.30704 3.41662 12 11.1047106907 1.7691856434 23.0785227904
639 1 12.3165 3.54558 5.26974 12 10.9763448622 1.742347756 23.4307624928
640 1 10.6179 5.31301 5.32726 12 11.4194047557 1.7842338465 22.9388619095
641 1 14.0696 3.54154 3.61552 12 11.205790808 1.7726154471 23.5509676708
642 1 15.9952 5.42521 3.48458 12 11.3224892293 1.7726154471 21.5505907444
643 1 15.9945 3.53325 5.26108 12 11.4488066891 1.7686344963 22.0498920283
644 1 14.1842 5.29356 5.33097 12 11.254159422 1.7813583929 21.2771047024
645 1 17.7229 3.52231 3.52057 12 10.9936830719 1.7667286955 22.4860300543
646 1 19.5516 5.3678 3.51306 12 10.9684202322 1.7575583405 20.5238424348
647 1 19.4582 3.34351 5.20137 12 11.0461763798 1.7514954194 21.3429088051
648 1 17.8757 5.37397 5.2293 12 11.1843994133 1.7581231208 20.0512635805
649 1 21.1712 3.51615 3.40786 12 11.1786851012 1.7873224784 21.7369147023
650 1 22.9903 5.32984 3.71755 12 11.5160388031 1.7873224784 19.8346581881
651 1 22.9161 3.48702 5.4163 12 11.5427931842 1.7870019945 20.5242394932
652 1 21.15 5.33249 5.33156 12 11.3480667083 1.7680627937 19.2234255398
653 1 24.7292 3.46644 3.5025 12 11.2771789336 1.7873224784 21.4201726106
654 1 26.4584 5.40287 3.53008 12 11.0952112566 1.7823481651 19.8669693724
655 1 26.4817 3.55198 5.26025 12 11.1598784603 1.7823481651 20.5206566558
656 1 24.7236 5.37649 5.27933 12 11.243281694 1.7679761545 18.8601599134
657 1 28.2812 3.49939 3.56582 12 11.3106964547 1.7823419556 21.6375640372
658 1 29.9687 5.28945 3.59216 12 11.1753971717 1.7687505843 20.5134125361
659 1 30.0483 3.4894 5.34868 12 11.0344570537 1.7736831041 21.1243547396
660 1 28.1778 5.2745 5.31671 12 11.0826811129 1.7726424268 19.224463784
661 1 31.7326 3.53727 3.48916 12 11.0627419374 1.768952118 22.4592649072
662 1 33.5771 5.22514 3.47346 12 11.4157767978 1.7923997747 21.8135549014
663 1 33.5893 3.51355 5.29489 12 11.2727533749 1.7832909789 22.2712753618
664 1 31.692 5.30067 5.25321 12 11.0991229551 1.7681152797 20.1481743756
665 1 35.323 3.48012 3.49804 12 11.3897900431 1.7908378488 23.8502611444
666 1 37.1576 5.2543 3.4719 12 11.4468017696 1.7923997747 23.4623109813
667 1 37.1398 3.5753 5.31634 12 11.2396272581 1.7821548343 23.8383588649
668 1 35.3656 5.34104 5.29295 12 11.05383994 1.7923997747 21.6306448258
669 1 38.8985 3.57083 3.52579 12 10.9444846593 1.7681822644 25.5393826481
670 1 40.5802 5.34986 3.5631 12 10.7267727302 1.7865071545 25.1972028956
671 1 40.5871 3.45776 5.18627 12 10.7538527293 1.7440317991 25.7847864085
672 1 38.9882 5.30811 5.24753 12 10.9450896217 1.7821548343 23.5548033646
673 1 42.3889 7.04689 3.49313 12 11.1398164148 1.7839549159 25.2535516793
674 1 1.74339 8.81973 3.52345 12 11.2944355978 1.7810302916 25.4479173452
675 1 1.73443 6.94279 5.356 12 11.2429023472 1.7387973386 25.6688847087
676 1 0.00742351 8.93995 5.28518 12 11.2764003273 1.7683480679 23.346582206
677 1 3.36291 7.10033 3.54394 12 11.2353765404 1.7748163656 26.8575589465
678 1 5.25112 8.82553 3.39776 12 11.1137943909 1.7802411378 24.6813572112
679 1 5.25355 7.09308 5.28078 12 11.164360627 1.7748163656 24.8553785185
680 1 3.58979 8.81828 5.28184 12 11.1561070792 1.7445526392 24.948492739
681 1 7.09952 7.02018 3.50524 12 10.8709710872 1.7802411378 24.5890091281
682 1 8.82115 8.77753 3.47858 12 11.1000609883 1.779845232 22.5073047795
683 1 8.71027 7.08941 5.24825 12 11.102771944 1.7842774889 22.7925208916
684 1 6.8842 8.79254 5.19126 12 10.9222208601 1.7800319797 22.7843823213
685 1 10.6025 7.05227 3.49559 12 11.3955365578 1.7842774889 22.7072130496
686 1 12.4318 8.90021 3.47021 12 11.1974002518 1.7724471315 20.6238572587
687 1 12.4524 7.01028 5.35236 12 11.1844878299 1.7802091636 20.8008451575
688 1 10.6521 8.87463 5.23279 12 11.1710763496 1.7842774889 20.5275763239
689 1 14.1323 7.07205 3.43831 12 11.4032210843 1.7744981441 21.0823744769
690 1 16.0158 8.74314 3.45604 12 11.6279071354 1.7818402301 19.2317795899
691 1 15.8826 6.935 5.37528 12 11.0533481936 1.7720350392 19.3718714869
692 1 14.1403 8.72848 5.18673 12 11.215866425 1.7729301039 18.916197906
693 1 17.7618 7.03592 3.37059 12 10.9846289813 1.7581231208 19.8725076171
694 1 19.4948 8.78242 3.42 12 10.9805215461 1.7404323404 18.0362276528
695 1 19.5419 7.0397 5.30173 12 10.7262418321 1.735490754 18.2229425472
696 1 17.7427 8.71373 5.24802 12 11.1944467906 1.7715203681 17.5218380256
697 1 21.3182 7.1073 3.54382 12 11.0192247073 1.7369373807 18.757990819
698 1 22.9156 8.86031 3.51279 12 10.9211729944 1.7518151544 17.2186620118
699 1 22.9937 7.10124 5.4955 12 11.1166313278 1.7680627937 17.3817017185
700 1 21.1392 8.88966 5.19423 12 10.9075701532 1.7421535834 16.4244321769
701 1 24.6743 7.13389 3.48935 12 10.9566045093 1.741203258 18.4428672729
702 1 26.4489 8.79585 3.45203 12 11.0334619766 1.7528176019 17.279487232
703 1 26.5136 7.00661 5.32379 12 10.9277995131 1.7571920898 17.5422109005
704 1 24.762 8.69237 5.22537 12 10.8816408997 1.7528176019 16.1450716442
705 1 28.2759 7.10787 3.55279 12 11.0869743418 1.7624565114 18.7452546999
706 1 30.1698 8.79278 3.4408 12 10.9644043676 1.7624565114 18.0255415864
707 1 30.0203 7.14589 5.42039 12 11.2904608139 1.7624565114 18.0567712358
708 1 28.2626 8.86665 5.23115 12 11.140870459 1.7656343507 16.3703459655
709 1 31.8003 7.07003 3.56682 12 11.0406543586 1.768952118 19.7222997636
710 1 33.6858 8.85189 3.5408 12 10.849444586 1.7601537594 19.2646399376
711 1 33.5705 6.95599 5.20432 12 10.9862370704 1.7478403927 19.6290949782
712 1 31.9164 8.78722 5.28526 12 11.2083540564 1.7812573992 17.5353773882
713 1 35.375 7.11388 3.52037 12 11.0682591805 1.7923997747 21.2482060937
714 1 37.1253 8.84849 3.6081 12 11.0436115959 1.7537846231 21.0114466318
715 1 37.0213 7.12578 5.32797 12 11.068898342 1.7821548343 21.1884931923
716 1 35.3078 8.86678 5.30925 12 10.8214948563 1.73434306 19.0941881121
717 1 38.8795 7.02134 3.53651 12 11.0434701981 1.7547548405 23.1651929162
718 1 40.565 8.82566 3.54712 12 11.3405491987 1.7737847836 23.0351110336
719 1 40.7631 7.10164 5.24612 12 11.0277277627 1.7668100408 23.3709156837
720 1 38.8606 8.90521 5.34867 12 11.1204458215 1.7675669797 21.0173804463
721 1 42.2846 10.5973 3.45302 12 11.2554822748 1.7724380472 23.2641017537
722 1 1.73527 12.3902 3.38815 12 11.1232561013 1.7640287338 23.8471733134
723 1 1.76382 10.6672 5.24001 12 11.2203467549 1.76520785 23.7377366787
724 1 -0.0286547 12.4005 5.16007 12 11.0366323496 1.7473957076 21.6231444485
725 1 3.43968 10.5775 3.42108 12 11.0400269252 1.7623678319 24.9767028388
726 1 5.20292 12.3171 3.45562 12 10.9972534785 1.7651480478 22.8740481168
727 1 5.18542 10.5815 5.22937 12 10.7823285194 1.7515624898 22.8686356026
728 1 3.63087 12.3833 5.19819 12 11.0883721195 1.7947119537 23.1314682647
729 1 7.10141 10.5753 3.42931 12 11.2642505666 1.791643792 22.4986153959
730 1 8.86457 12.2917 3.44765 12 11.0199746318 1.7589145081 20.4785889211
731 1 8.75479 10.5326 5.1514 12 11.0765337607 1.7489740975 20.5773884007
732 1 6.98154 12.285 5.23436 12 11.0434258384 1.753817854 20.7147095678
733 1 10.6313 10.5617 3.41471 12 10.9958799006 1.7564568113 20.4695102435
734 1 12.3901 12.385 3.36421 12 11.1815759282 1.7782966697 18.5501664522
735 1 12.3602 10.5021 5.26325 12 11.1143283169 1.7698520301 18.5534696109
736 1 10.6044 12.3131 5.13995 12 11.1997438102 1.7687561051 18.4329363914
737 1 14.1553 10.6112 3.46876 12 11.5162008792 1.7818402301 18.7804682138
738 1 15.9592 12.2968 3.36442 12 11.5781987854 1.7987271414 17.0289268665
739 1 16.0296 10.5912 5.29808 12 11.5744730581 1.7987271414 16.8098840009
740 1 14.1333 12.4099 5.21393 12 11.5851305156 1.7987271414 16.5235433884
741 1 17.7331 10.4586 3.49659 12 11.2228822307 1.7813488446 17.4598873697
742 1 19.4836 12.2694 3.5362 12 10.8158835496 1.7498324341 15.6661682566
743 1 19.5368 10.5694 5.37601 12 10.8357979835 1.7592865873 15.5223017455
744 1 17.79 12.3094 5.26391 12 11.2369067713 1.7981362896 15.0571628208
745 1 21.1893 10.6452 3.42738 12 10.7577363711 1.7467747293 16.3087273932
746 1 23.0132 12.4594 3.44509 12 10.8727739024 1.7501900137 14.8149322069
747 1 22.9382 10.5629 5.25284 12 10.9650121965 1.743577179 14.8034397446
748 1 21.2554 12.3589 5.21245 12 11.2988772127 1.7556957335 13.8901358859
749 1 24.6488 10.5381 3.55507 12 10.8371889975 1.7441183196 15.8823881435
750 1 26.5289 12.3627 3.48957 12 10.8005709136 1.7425003012 14.8291858105
751 1 26.4702 10.5105 5.22586 12 11.2222067009 1.7641151947 14.8336022026
752 1 24.7017 12.3693 5.1822 12 11.1085562002 1.7426207215 13.4416957738
753 1 28.42 10.5448 3.44019 12 11.1946472346 1.7631673966 16.362051832
754 1 30.0435 12.3472 3.5257 12 11.0676380736 1.7490939492 15.61261611
755 1 30.0534 10.5636 5.19339 12 10.9849051948 1.7656343507 15.6270458529
756 1 28.1748 12.3885 5.20953 12 11.1179026864 1.7656343507 13.8225707115
757 1 31.9333 10.6196 3.51146 12 11.2021062042 1.7601537594 17.3811724945
758 1 33.6198 12.4627 3.55559 12 11.276996197 1.7761674092 17.0309206967
759 1 33.5458 10.575 5.31581 12 10.8259045132 1.7487692354 17.0395462745
760 1 31.8117 12.3854 5.2924 12 11.1938156882 1.7716486195 15.0719276424
761 1 35.3428 10.5503 3.45893 12 11.2519097649 1.7271973919 19.101958076
762 1 37.014 12.5092 3.55617 12 11.0533827166 1.7419855439 18.8480426444
763 1 37.1003 10.6492 5.30723 12 10.9815546501 1.7447910211 18.9328003563
764 1 35.3207 12.3105 5.29992 12 10.7595334585 1.7415063711 16.9607605082
765 1 38.7136 10.6652 3.41548 12 11.4461735207 1.7737847836 20.9514348467
766 1 40.6075 12.3615 3.40762 12 11.3174180765 1.7737847836 21.306648421
767 1 40.5373 10.6838 5.28993 12 11.2625188713 1.7729944265 21.0780292549
768 1 38.8504 12.3592 5.32743 12 11.0981607939 1.7557190323 19.0477800467
769 1 -0.0395644 14.0836 3.50784 12 10.9559335672 1.756762789 21.8008103142
770 1 1.75943 15.8905 3.40362 12 11.2610280247 1.7743620586 22.6528019956
771 1 1.69451 14.0336 5.29761 12 11.2518959902 1.7743620586 22.2319272249
772 1 0.0223208 15.873 5.27319 12 11.1924842 1.7724614498 20.288523063
773 1 3.56229 14.2053 3.45636 12 11.00036705 1.7577473385 23.2889514285
774 1 5.32734 15.8559 3.35664 12 10.8252315384 1.769902553 21.4317903782
775 1 5.37284 14.1602 5.17896 12 11.1629347411 1.8071396361 21.0402439784
776 1 3.60735 15.9371 5.19665 12 11.2551621983 1.7743620586 21.767742811
777 1 7.04914 14.0408 3.4467 12 11.2652427906 1.7592742168 20.8292517769
778 1 8.842 15.8754 3.41829 12 11.0375743122 1.7597504511 18.9074773136
779 1 8.74314 14.002 5.37305 12 11.2795982471 1.7589145081 18.5824538758
780 1 7.13811 15.8824 5.27067 12 11.0898916884 1.769902553 18.9858911087
781 1 10.5409 14.17 3.40035 12 11.1833834317 1.7782966697 18.5822269445
782 1 12.335 15.9336 3.50905 12 11.1545950936 1.7782966697 16.7185843106
783 1 12.2996 14.12 5.18264 12 11.2458312645 1.7768157377 16.4452613401
784 1 10.5904 15.8126 5.22302 12 11.2632000895 1.7903540966 16.6278651208
785 1 14.1159 14.1561 3.34975 12 11.4070090304 1.7779594858 16.7722017878
786 1 15.8982 15.9548 3.48457 12 11.2867257367 1.7762700016 14.8835798384
787 1 15.9322 14.1806 5.18035 12 11.5244909043 1.7987271414 14.6755933624
788 1 14.1331 15.9353 5.24988 12 11.3332439148 1.7771283939 14.5163731233
789 1 17.7707 14.1001 3.53799 12 11.032263485 1.768799502 15.0712645288
790 1 19.468 15.9229 3.4395 12 10.8064385602 1.7680903692 13.5486278738
791 1 19.4491 14.2132 5.2057 12 10.9216119506 1.7483687329 13.2692849406
792 1 17.7419 15.8899 5.26221 12 10.9095426366 1.7773182373 12.8083220848
793 1 21.2031 14.2032 3.43237 12 11.0945792849 1.7501900137 14.1379333081
794 1 22.9472 15.9483 3.4583 12 11.0637927653 1.7594757304 12.9237292455
795 1 23.0253 14.2093 5.24825 12 11.0788930765 1.7936994693 12.3398278201
796 1 21.1898 15.8317 5.29374 12 10.9357631972 1.7696110827 11.735166937
797 1 24.7187 14.1565 3.40059 12 10.8101198456 1.7455435211 13.7618772125
798 1 26.544 16.0314 3.42017 12 10.9814963004 1.7643248367 12.9336396664
799 1 26.4301 14.1966 5.15699 12 10.9226573276 1.7567843517 12.3956716973
800 1 24.6758 15.8929 5.27815 12 11.1416818802 1.7887850468 11.2564290241
801 1 28.1612 14.103 3.43807 12 10.9007513933 1.7494399815 14.1596470204
802 1 29.9797 15.8864 3.44163 12 11.0618112308 1.7804235586 13.712617576
803 1 30.0069 14.2528 5.19837 12 11.1865950801 1.7713704601 13.278423334
804 1 28.1821 15.8822 5.24493 12 10.9838092452 1.7568284235 11.7619126344
805 1 31.7858 14.0741 3.54569 12 10.9099346046 1.7799939757 15.282981194
806 1 33.5525 15.8206 3.53393 12 11.1285781854 1.7801402446 15.1932296035
807 1 33.6239 14.116 5.31479 12 11.0715938295 1.7716486195 14.9592501104
808 1 31.8041 15.9268 5.29169 12 11.1525470442 1.7804235586 13.0268940865
809 1 35.3544 14.1868 3.47356 12 11.0310555658 1.7450374584 17.0268058144
810 1 37.2134 15.9346 3.56796 12 11.3466844553 1.7673661017 17.3182653515
811 1 37.0356 14.1315 5.30143 12 10.8535738131 1.7437514622 16.99969225
812 1 35.294 15.9267 5.20154 12 10.9564957089 1.7441474878 15.0546785328
813 1 38.8566 14.0728 3.45509 12 11.2070272258 1.7971072859 19.3053889869
814 1 40.6389 15.7171 3.3782 12 11.331241233 1.7642960729 19.95667709
815 1 40.6684 14.0713 5.35557 12 11.2393954595 1.7574419758 19.5169275955
816 1 38.9484 15.8314 5.22614 12 11.3427446048 1.7651472457 17.633050135
817 1 0.0169627 17.5685 3.44715 12 11.2533441089 1.7694364909 20.7611988661
818 1 1.75309 19.4266 3.50069 12 11.3680196908 1.7694364909 21.7887874093
819 1 1.7183 17.7086 5.22948 12 10.9319903938 1.7681112209 21.2340911803
820 1 -0.00318904 19.4447 5.23876 12 11.0111402146 1.7691516677 19.434262562
821 1 3.54699 17.6164 3.43069 12 11.3335066878 1.7694364909 22.2686591788
822 1 5.23653 19.35 3.49232 12 11.0090302725 1.7603401593 20.4995036464
823 1 5.37786 17.7183 5.21659 12 11.2207896065 1.769902553 19.8046902462
824 1 3.44935 19.4468 5.32689 12 11.1768889802 1.7657383166 20.9745190652
825 1 7.06709 17.5572 3.47988 12 11.0235366554 1.7593555637 19.5604894764
826 1 8.87841 19.3734 3.43308 12 11.2980853432 1.7727236392 17.8060143544
827 1 8.89498 17.5915 5.14855 12 11.0019085663 1.7729219392 17.1832035923
828 1 7.02439 19.4013 5.20924 12 11.2310836566 1.7729219392 18.0981783574
829 1 10.5116 17.605 3.36822 12 10.7589030377 1.7332260327 17.2792973101
830 1 12.2182 19.3902 3.58101 12 11.2352989063 1.7555132646 15.5254019117
831 1 12.2634 17.7397 5.28903 12 11.0905613143 1.7759901805 14.7791478722
832 1 10.6312 19.3828 5.41372 12 10.9043230596 1.7723311336 15.2715168898
833 1 14.0559 17.6282 3.46491 12 11.3075196939 1.7687207785 15.1525136909
834 1 15.8998 19.4044 3.45624 12 10.84739185 1.7555763535 13.5456018545
835 1 15.9354 17.7295 5.19264 12 11.144716774 1.7773182373 12.8099253934
836 1 14.1718 19.4637 5.19647 12 10.9285001052 1.7688812157 13.1662807575
837 1 17.6756 17.6369 3.44983 12 11.023545388 1.7687955213 13.3289771571
838 1 19.4318 19.4107 3.49325 12 11.1199965822 1.7600896823 11.9810551319
839 1 19.4287 17.5932 5.2643 12 10.8712682661 1.753847994 11.2330296394
840 1 17.6238 19.4737 5.28247 12 11.0826902282 1.7557820156 11.1752751664
841 1 21.1219 17.7184 3.55962 12 10.8393086858 1.7434817402 12.1737494734
842 1 22.869 19.4051 3.49042 12 10.8789360283 1.7422000604 11.3823372898
843 1 22.9097 17.7293 5.20079 12 11.1967049306 1.7887850468 10.5435961021
844 1 21.102 19.4228 5.31378 12 11.0314940228 1.7634844034 9.9007703847
845 1 24.7173 17.6265 3.47298 12 11.1223026491 1.7887597017 12.110975436
846 1 26.545 19.4351 3.51757 12 10.9371907616 1.783650657 11.4348604914
847 1 26.5586 17.7061 5.21412 12 11.2547307036 1.7885323819 10.5768772899
848 1 24.8063 19.4665 5.22504 12 11.0244905806 1.7887850468 9.7613851724
849 1 28.3765 17.7132 3.42691 12 10.8610565451 1.7553381668 12.4301804164
850 1 30.0753 19.3851 3.45117 12 11.0829670154 1.7603403169 12.3086629353
851 1 29.981 17.6083 5.20926 12 11.0988917366 1.7563467565 11.4550610776
852 1 28.2845 19.46 5.2389 12 11.1946055914 1.7650559769 10.1210964648
853 1 31.7665 17.67 3.46877 12 11.0706445345 1.7804235586 13.5715788105
854 1 33.5634 19.4232 3.47183 12 10.7378042982 1.750454366 13.927894909
855 1 33.5838 17.7669 5.17056 12 10.9779956766 1.7510069215 13.2143015271
856 1 31.7514 19.4163 5.25527 12 10.8892092308 1.750602021 11.5280170293
857 1 35.4065 17.6698 3.45231 12 10.8805800626 1.7676072499 15.5723598549
858 1 37.1196 19.4852 3.53291 12 10.851546095 1.7676072499 16.1655339854
859 1 37.0418 17.7588 5.26075 12 11.2141235476 1.7676072499 15.4933349403
860 1 35.3341 19.534 5.26076 12 10.8862205608 1.7510069215 13.7368807573
861 1 38.9399 17.6996 3.45944 12 11.1758466736 1.7676072499 17.989672792
862 1 40.6987 19.346 3.50641 12 11.0562797946 1.7690621649 18.9199100413
863 1 40.6806 17.5703 5.23258 12 11.1034802068 1.7691516677 18.3990376901
864 1 38.8958 19.4204 5.28469 12 10.9638260674 1.7691516677 16.4588273949
865 1 -0.0195898 21.2402 3.49492 12 11.0841333516 1.7533339535 20.0684418677
866 1 1.77541 22.9604 3.53798 12 10.8962410637 1.7641765682 21.5029669437
867 1 1.70316 21.2386 5.25609 12 10.9864446464 1.782088524 20.6971569114
868 1 0.0566632 23.017 5.25723 12 10.7894897927 1.7533339535 19.1626359354
869 1 3.57133 21.1546 3.53294 12 11.0093919429 1.7618913451 21.453759348
870 1 5.30617 22.9782 3.44891 12 11.142581687 1.7643396765 19.8340118684
871 1 5.22767 21.2299 5.20874 12 11.0678850514 1.7657383166 19.186889747
872 1 3.49488 22.9265 5.28577 12 11.1143629772 1.764213272 20.4107122749
873 1 7.0485 21.063 3.39913 12 11.0774391189 1.7548620792 18.7613358076
874 1 8.71698 22.8739 3.47739 12 11.1749656577 1.7746761175 17.1716932577
875 1 8.79939 21.1328 5.24805 12 10.9856919162 1.7729219392 16.2849008467
876 1 7.05775 22.8381 5.3057 12 11.1898085645 1.7670399188 17.3651331982
877 1 10.5579 21.2052 3.5104 12 11.3218968916 1.7552104918 16.1210228347
878 1 12.3068 22.9334 3.59824 12 10.9369121217 1.7480427742 14.6157538716
879 1 12.4603 21.1624 5.32762 12 10.8864742109 1.7552104918 13.5826177387
880 1 10.5869 22.8805 5.26837 12 11.1203144317 1.7670399188 14.6019260965
881 1 14.0472 21.1373 3.46357 12 10.9873905009 1.7554499681 14.065694624
882 1 15.7183 22.9258 3.50154 12 11.3936845922 1.7590351206 12.8566814844
883 1 15.8633 21.2324 5.20843 12 10.8820769663 1.7551281219 11.6694964454
884 1 14.1057 23.1401 5.24377 12 10.7859851171 1.7420926671 12.2044364456
885 1 17.6248 21.1449 3.47029 12 11.1938500308 1.7638239306 12.2685613849
886 1 19.3625 22.9966 3.50114 12 11.0581601747 1.7520303624 11.3576832616
887 1 19.3867 21.2418 5.20639 12 10.8557532818 1.7629431853 9.9683882712
888 1 17.6822 22.897 5.31637 12 10.9973580628 1.7519632466 10.3744327907
889 1 21.1199 21.1987 3.46277 12 11.2368251632 1.7634844034 11.1217807749
890 1 23.081 22.8715 3.48894 12 11.1890420835 1.7575130247 10.7080609526
891 1 22.9913 21.1808 5.22305 12 11.3722519485 1.7634844034 9.2098771738
892 1 21.2572 22.9381 5.34982 12 11.2370004698 1.7634844034 9.0562450682
893 1 24.7207 21.0692 3.39496 12 10.8509849112 1.7506360567 11.0727137726
894 1 26.4774 22.9492 3.4608 12 11.0295229522 1.7925279277 10.9222792373
895 1 26.3973 21.2243 5.23335 12 11.046432895 1.7537302511 9.3206548453
896 1 24.7426 22.9626 5.16222 12 11.1060001979 1.7539888303 9.1093380779
897 1 28.2423 21.2363 3.48623 12 11.2135957535 1.7743267877 11.314963327
898 1 30.0444 23.0121 3.57008 12 11.4303453295 1.7743267877 11.6603966523
899 1 29.9946 21.181 5.36035 12 11.0510189766 1.758803908 10.1592547035
900 1 28.2393 22.9418 5.21489 12 11.19975084 1.7719736915 9.5119302617
901 1 31.7497 21.2423 3.57268 12 11.3446791864 1.7603403169 12.5214683819
902 1 33.5052 22.9823 3.49866 12 10.960324805 1.761206115 13.418839242
903 1 33.4849 21.2643 5.2188 12 10.8525488262 1.7510069215 12.1723560712
904 1 31.8562 23.0765 5.39115 12 10.9857688278 1.7415232153 10.9217105562
905 1 35.2274 21.1994 3.51284 12 10.7526024837 1.7418075002 14.5915918686
906 1 37.1048 22.8763 3.49289 12 10.9372630183 1.7426129572 15.8073637787
907 1 37.0767 21.2337 5.32759 12 10.742389617 1.7407181956 14.6849032625
908 1 35.3132 22.9015 5.27464 12 10.7791030659 1.7352833604 13.2814402811
909 1 38.9645 21.0976 3.58631 12 10.8291500038 1.7371684594 17.2458116034
910 1 40.5934 22.9745 3.43271 12 10.7998634592 1.7511592366 18.5320735816
911 1 40.6288 21.2549 5.28351 12 10.9272801943 1.7675415227 17.6163360485
912 1 38.8343 22.9294 5.06831 12 10.7629907006 1.7371684594 16.1493553512
913 1 42.3727 24.6285 3.58201 12 10.9356905517 1.7716534756 19.9862615544
914 1 1.72567 26.383 3.56912 12 10.9455734295 1.7716534756 21.7178154695
915 1 1.7539 24.804 5.33489 12 10.7841603078 1.7629138018 20.7209971627
916 1 42.3545 26.4157 5.28775 12 10.6128114594 1.771560999 19.3432740994
917 1 3.56932 24.7527 3.46429 12 11.0380415693 1.764213272 21.1843406827
918 1 5.20344 26.5682 3.60867 12 11.1227727955 1.7773700448 19.8255865398
919 1 5.26722 24.8182 5.26611 12 11.308296091 1.7643396765 18.7928387418
920 1 3.44999 26.4859 5.27774 12 10.9307359732 1.7685107374 20.4415664612
921 1 7.02051 24.6927 3.54947 12 11.2774821781 1.7773700448 18.3187422506
922 1 8.75306 26.415 3.45388 12 11.1998140687 1.7773047705 17.1332829505
923 1 8.75218 24.6998 5.29507 12 11.3502080953 1.7735475044 15.8812194227
924 1 7.11445 26.5495 5.32389 12 11.3137950179 1.7773700448 17.2903672833
925 1 10.5892 24.5715 3.48875 12 11.0198836505 1.7735475044 15.7157675394
926 1 12.2612 26.3558 3.50129 12 10.6782611906 1.7281341749 14.6881919011
927 1 12.2411 24.7252 5.33465 12 10.6203654318 1.7486021167 13.2387299161
928 1 10.5709 26.4736 5.18203 12 10.9441272338 1.7469463147 14.6462007925
929 1 14.0162 24.7787 3.44359 12 10.9137246899 1.7207655321 13.620426604
930 1 15.8993 26.2677 3.55881 12 10.9271343822 1.7635175004 12.6694768428
931 1 15.9316 24.8128 5.36963 12 10.8535042818 1.7512481193 10.9772923975
932 1 14.0012 26.4403 5.25545 12 10.8691990532 1.7581955171 12.2616701005
933 1 17.5565 24.6028 3.51737 12 11.0505040132 1.7623992706 11.9538155264
934 1 19.4187 26.3986 3.58945 12 11.0134504145 1.7635175004 11.1866206897
935 1 19.4786 24.6761 5.28006 12 10.9369307061 1.7519632466 9.5797206132
936 1 17.6809 26.3966 5.34929 12 10.9271488719 1.7625342276 10.2752521866
937 1 21.2223 24.6819 3.48567 12 11.3530717733 1.7540824223 10.8602218314
938 1 22.9139 26.5923 3.51805 12 11.0412964498 1.7551131297 10.7337638211
939 1 23.0169 24.7454 5.26702 12 11.3400446734 1.7588434607 8.9347985292
940 1 21.2255 26.5009 5.27271 12 10.8380704488 1.7565434059 9.1237543229
941 1 24.5718 24.7285 3.39072 12 11.1989063945 1.7925279277 10.8097917045
942 1 26.516 26.5214 3.53442 12 11.145712577 1.7925279277 10.9385585497
943 1 26.4653 24.7419 5.33169 12 11.5164485088 1.7925279277 9.0289284008
944 1 24.729 26.6516 5.24471 12 11.4672972577 1.7598020781 9.1111950157
945 1 28.1673 24.775 3.5048 12 11.2528685949 1.7911588328 11.2038656528
946 1 30.0038 26.4351 3.44857 12 11.2161793234 1.7804509523 12.0617931843
947 1 30.0021 24.6911 5.26941 12 11.2397395927 1.7775546341 10.227214626
948 1 28.2226 26.505 5.26269 12 11.042814801 1.7804509523 9.7237838638
949 1 31.8164 24.71 3.47597 12 11.0997749737 1.7368982313 12.6453807027
950 1 33.6253 26.4288 3.55171 12 11.2285899767 1.7738518866 13.8711369995
951 1 33.6884 24.7602 5.38843 12 10.9490603304 1.74378767 12.1978901016
952 1 31.7764 26.5113 5.21752 12 11.4487961285 1.7804509523 11.4923114258
953 1 35.3115 24.5782 3.45416 12 11.0631953582 1.748914773 14.6771532828
954 1 37.0322 26.4285 3.52217 12 11.4345686399 1.7861887978 16.1149187416
955 1 37.0545 24.6854 5.33159 12 11.1989083158 1.7518313856 14.6680564595
956 1 35.3519 26.4964 5.36258 12 11.0161516679 1.7825947486 13.7168763273
957 1 38.7851 24.7579 3.60352 12 11.2192509214 1.7868132128 17.0924529631
958 1 40.6171 26.4721 3.47323 12 11.3751428304 1.7868132128 18.8597015557
959 1 40.6771 24.6757 5.20954 12 10.7612557573 1.7506241273 17.6991373673
960 1 38.9943 26.4831 5.37567 12 11.2277680054 1.7868132128 16.4905615418
961 1 42.3173 28.2166 3.50072 12 10.9210230557 1.7795264802 20.5984824798
962 1 1.82057 30.1015 3.54122 12 10.7152537069 1.7391872455 22.6350786277
963 1 1.70107 28.261 5.17173 12 10.9787715257 1.7685107374 21.2668187551
964 1 -0.00835641 29.9728 5.15595 12 10.7699766551 1.7438074526 20.2741619093
965 1 3.40794 28.2097 3.56416 12 10.7674666165 1.7667616488 21.5423905185
966 1 5.32378 29.9199 3.41914 12 11.0626439487 1.7525452824 20.4135993092
967 1 5.23698 28.2494 5.30727 12 11.1142291789 1.7682871606 19.1158053525
968 1 3.56451 30.0134 5.242 12 10.8495298365 1.7685107374 20.9509554514
969 1 7.03497 28.2383 3.38874 12 11.205826655 1.7773700448 18.7296819194
970 1 8.86879 30.0164 3.56883 12 10.9941872519 1.7655829914 17.6857637128
971 1 9.01183 28.2312 5.15794 12 10.851451514 1.7334929789 16.1330980792
972 1 7.05927 29.9346 5.29379 12 11.2053556399 1.7543844821 18.0159028198
973 1 10.5868 28.253 3.35847 12 10.7612979341 1.7287025418 16.1883260239
974 1 12.2191 29.9916 3.43998 12 11.4456525681 1.8051043276 15.5760485689
975 1 12.2574 28.2706 5.15711 12 11.2805488435 1.805747275 13.8053497804
976 1 10.4927 30.158 5.27378 12 10.7649782518 1.8044666661 15.5086595217
977 1 14.022 28.176 3.50675 12 11.2659143724 1.7710608902 13.9836456308
978 1 15.9263 29.9337 3.55853 12 11.0288244087 1.7673282615 13.4059619252
979 1 15.8197 28.1457 5.20437 12 11.1194952528 1.7586350301 11.6475582256
980 1 14.1504 30.0912 5.27776 12 11.3890375043 1.805747275 13.1556762155
981 1 17.5655 28.1657 3.54961 12 10.9251915502 1.7635175004 12.1611269475
982 1 19.3982 29.9685 3.5434 12 10.8349431379 1.7447484903 12.0130889402
983 1 19.4603 28.2115 5.18839 12 10.6623871426 1.74239414 9.9714722804
984 1 17.6887 29.9265 5.28169 12 10.7499033318 1.7427950539 11.1631601695
985 1 21.1162 28.2205 3.51135 12 10.5700665186 1.7437953796 11.1384050221
986 1 22.8765 29.9221 3.44287 12 10.9741169596 1.7447484903 11.5824193981
987 1 22.9788 28.301 5.29244 12 11.0291006009 1.7552568884 9.303292359
988 1 21.2433 29.9884 5.29462 12 10.997034527 1.7550845203 10.0427101679
989 1 24.6687 28.2826 3.34333 12 10.9231226276 1.7571050739 11.306176278
990 1 26.5891 30.0234 3.43534 12 11.184027975 1.7846608055 12.0833284641
991 1 26.61 28.3201 5.23396 12 11.005521849 1.7571050739 9.7937431944
992 1 24.7959 30.0656 5.14634 12 11.3329951877 1.7441837583 10.2658221393
993 1 28.3195 28.1711 3.48606 12 10.9501547656 1.7578240378 11.7680791198
994 1 30.0476 30.0856 3.47499 12 11.2175787678 1.7682989388 13.0531651174
995 1 30.0086 28.3954 5.28867 12 11.2578153014 1.7804509523 10.9299523757
996 1 28.3346 29.9719 5.25331 12 10.8638745106 1.7856550535 10.9133067264
997 1 31.8234 28.2339 3.48835 12 11.1873717038 1.7578379405 13.2645388439
998 1 33.5478 30.0191 3.58462 12 11.1021581246 1.7778508706 14.7133629667
999 1 33.6225 28.2332 5.33047 12 10.9159480831 1.7452456161 12.9787760522
1000 1 31.8105 29.9921 5.32211 12 11.1424771925 1.7824544297 12.4450534572
1001 1 35.307 28.2336 3.54853 12 11.2056693132 1.7765649826 15.3532522108
1002 1 37.1387 29.9942 3.45662 12 11.0979675887 1.7776923034 17.1705622749
1003 1 37.2253 28.1768 5.27444 12 11.1432088005 1.763188318 15.6182391147
1004 1 35.3953 29.9694 5.26314 12 11.1820001545 1.7778508706 14.7972401692
1005 1 38.7532 28.325 3.47948 12 11.1155252191 1.7868132128 17.8746714848
1006 1 40.5869 30.0255 3.38149 12 11.0262866034 1.7797957806 19.8263833789
1007 1 40.7169 28.2364 5.25816 12 10.8537557498 1.7797957806 18.3825997706
1008 1 38.9452 29.9538 5.21536 12 11.1150769621 1.763170909 17.5175307589
1009 1 42.3698 31.7817 3.4451 12 11.2971580481 1.7707808011 21.7180033451
1010 1 1.81618 33.5519 3.47262 12 11.1823176054 1.7620148288 23.7744878191
1011 1 1.73595 31.7937 5.21147 12 11.0273162711 1.7662439641 22.1925588347
1012 1 0.0192804 33.6119 5.33856 12 11.1847264973 1.7620148288 21.4782712468
1013 1 3.57335 31.775 3.58623 12 10.7912339877 1.7440666228 22.2448601472
1014 1 5.29237 33.5372 3.6671 12 10.9724670335 1.7639863893 21.5034020279
1015 1 5.32874 31.7257 5.32854 12 11.0649812269 1.7551926672 19.9567775436
1016 1 3.48166 33.506 5.32625 12 11.2743908153 1.742941947 22.1148261286
1017 1 7.00001 31.7343 3.49699 12 11.2172872709 1.7684531028 19.640636945
1018 1 8.66793 33.6196 3.55112 12 11.2765793764 1.7711778907 19.2095648178
1019 1 8.82931 31.7704 5.33635 12 11.0639054312 1.7673336512 17.2735830092
1020 1 7.09263 33.5986 5.31783 12 11.0901413562 1.7551926672 19.3487714015
1021 1 10.5754 31.9361 3.46038 12 11.1374392272 1.7659919539 17.2956854261
1022 1 12.3888 33.6026 3.50357 12 11.1142568466 1.7500229966 16.9415585145
1023 1 12.2907 31.8756 5.27419 12 11.1201029626 1.805747275 15.02998349
1024 1 10.5766 33.6674 5.33406 12 11.2331288697 1.7532765685 16.959418033
1025 1 14.0626 31.8319 3.55415 12 11.1243533036 1.7624918796 15.1308025027
1026 1 15.8064 33.5964 3.4614 12 11.2530282854 1.7778799308 15.1073132473
1027 1 15.8756 31.7883 5.24842 12 11.2760607024 1.7834578668 12.9068993383
1028 1 14.0733 33.6329 5.27824 12 11.1104803778 1.7608311766 14.8483643402
1029 1 17.6592 31.7236 3.45484 12 11.0874629735 1.7585687766 13.3964302346
1030 1 19.3187 33.5158 3.5079 12 10.952369035 1.7733486704 13.7409285699
1031 1 19.3555 31.6881 5.22308 12 11.0666017508 1.7629304975 11.3749173763
1032 1 17.5911 33.5569 5.25983 12 11.262475049 1.7608311766 13.0467408359
1033 1 21.062 31.8004 3.5115 12 11.3209518867 1.7738943706 12.4673563971
1034 1 22.9412 33.647 3.45537 12 11.4570629137 1.7738943706 13.3997699567
1035 1 22.8705 31.7309 5.14497 12 11.0660402427 1.7550845203 10.9133679629
1036 1 21.1888 33.5969 5.30669 12 11.4122685586 1.7738943706 12.0463081516
1037 1 24.7129 31.8541 3.49769 12 11.1560994134 1.7846608055 12.5164858035
1038 1 26.4215 33.5986 3.48842 12 11.189567738 1.7846026018 13.8117869508
1039 1 26.5494 31.7647 5.2562 12 11.3777436158 1.7856231413 11.4054170227
1040 1 24.6508 33.5364 5.29561 12 11.1866149266 1.7630608512 12.0346423891
1041 1 28.3084 31.7173 3.46372 12 11.4331543655 1.7856550535 13.233395309
1042 1 30.1348 33.5482 3.70789 12 11.0359356379 1.7502759925 14.6532619461
1043 1 30.1155 31.7862 5.40156 12 11.0715038363 1.7856550535 12.4191082702
1044 1 28.2673 33.5414 5.28906 12 11.157009731 1.7856550535 12.9373141184
1045 1 31.8266 31.8186 3.53391 12 10.923282507 1.7537851883 14.5682819679
1046 1 33.578 33.534 3.52371 12 10.8152029395 1.7571957399 16.343383052
1047 1 33.616 31.7144 5.28941 12 11.0251836053 1.7765521632 14.3122358934
1048 1 31.841 33.571 5.32833 12 11.029559734 1.7717131786 14.3149756184
1049 1 35.3483 31.8468 3.46988 12 11.208543655 1.7778508706 16.6144267544
1050 1 37.1436 33.5876 3.56293 12 10.9360821951 1.7630783253 18.5111970367
1051 1 37.1816 31.7904 5.28588 12 11.3603733132 1.7769767465 16.7834542936
1052 1 35.3069 33.5164 5.34555 12 11.0847284045 1.7769767465 16.2673030707
1053 1 38.9257 31.8314 3.45035 12 11.0535495589 1.7640779096 19.0960738082
1054 1 40.5731 33.632 3.53218 12 10.9937969092 1.7605206285 20.9920724597
1055 1 40.6865 31.7689 5.24876 12 11.2139743003 1.7567956618 19.4528929934
1056 1 38.8 33.5643 5.28665 12 10.8155800151 1.7553281418 18.7660239985
1057 1 -0.0183489 35.2945 3.61955 12 11.1818034608 1.7620148288 23.0528878134
1058 1 1.69651 37.1221 3.54077 12 11.407107587 1.776315065 25.2238111701
1059 1 1.78788 35.3448 5.29734 12 11.2796490162 1.7590768337 23.6043318872
1060 1 0.00883182 37.1767 5.40362 12 11.3350625408 1.7598314242 23.180287162
1061 1 3.53867 35.3652 3.44639 12 11.1445793207 1.7638112636 23.7147179764
1062 1 5.31642 37.0989 3.61997 12 11.0758018766 1.7978065116 23.1898246301
1063 1 5.24081 35.2913 5.29949 12 11.0877880432 1.7639863893 21.5390556089
1064 1 3.53506 37.1121 5.29661 12 11.0735493337 1.754494455 23.7419231079
1065 1 7.06863 35.4877 3.59958 12 11.0176657363 1.7639863893 21.1605907793
1066 1 8.81781 37.2341 3.54413 12 10.8822707665 1.734349786 21.0294571846
1067 1 8.76068 35.466 5.31773 12 11.1829950902 1.7991314095 19.1261898356
1068 1 7.08609 37.2417 5.37275 12 10.8815222921 1.7562416113 21.2318896853
1069 1 10.5226 35.3401 3.46381 12 11.4676688905 1.7429073364 18.9748117281
1070 1 12.2687 37.1013 3.49066 12 11.013889302 1.7536770165 18.9185035318
1071 1 12.2636 35.3207 5.3644 12 11.0971326952 1.7427810282 16.838486425
1072 1 10.5962 37.1383 5.3461 12 10.9921683691 1.7619773125 18.9142274183
1073 1 13.996 35.4038 3.50839 12 10.8378292867 1.775320012 16.9699432717
1074 1 15.6977 37.1439 3.54779 12 11.1464279766 1.7778799308 17.2294042602
1075 1 15.8187 35.329 5.29869 12 11.1407781034 1.7778799308 14.9149069164
1076 1 13.9955 37.0282 5.23715 12 10.8026459516 1.748251702 16.9788508579
1077 1 17.6273 35.3721 3.55754 12 11.1504936497 1.7778799308 15.3359383898
1078 1 19.3343 37.1777 3.50712 12 11.0832578893 1.7670097341 16.1151883732
1079 1 19.397 35.3355 5.26703 12 11.2223188952 1.7670097341 13.6244295831
1080 1 17.6046 37.2197 5.15624 12 11.0827329771 1.7550382881 15.5962187175
1081 1 21.1735 35.3446 3.51205 12 11.4299641048 1.7738943706 14.5312838243
1082 1 23.0015 37.1735 3.59163 12 11.3831113238 1.771580341 15.6671231039
1083 1 22.8736 35.3582 5.44388 12 11.4584930491 1.771580341 13.0769254052
1084 1 21.1947 37.2396 5.25404 12 11.4113735667 1.7689856399 14.7364346224
1085 1 24.7409 35.3802 3.6231 12 11.1335689 1.7713879073 14.4998586734
1086 1 26.49 37.1757 3.46223 12 11.1500632998 1.7578018351 16.1708574487
1087 1 26.4581 35.3283 5.28979 12 11.0244698005 1.7629157867 13.6442451999
1088 1 24.7562 37.0654 5.33328 12 11.197646892 1.7734704449 14.5819325795
1089 1 28.2585 35.2469 3.61329 12 10.9889477336 1.7531080285 15.229565375
1090 1 30.1394 37.1929 3.57295 12 10.9228724856 1.7378817251 17.1539116474
1091 1 30.0454 35.3306 5.27775 12 10.7485393857 1.7321134058 14.7464490184
1092 1 28.3539 37.0309 5.16117 12 11.0457002867 1.7578018351 15.4834659785
1093 1 31.8457 35.3529 3.55742 12 10.8976255888 1.7571957399 16.5486158287
1094 1 33.5886 37.0652 3.59104 12 10.9900867945 1.7613620335 18.4326450493
1095 1 33.6438 35.3471 5.27441 12 10.9631629102 1.7571957399 16.3943771274
1096 1 31.7897 37.1281 5.25574 12 11.0013499892 1.7433042493 16.7034868134
1097 1 35.37 35.3112 3.48168 12 11.2706017303 1.7613620335 18.3528867976
1098 1 37.1327 37.1112 3.43351 12 11.3589609456 1.7695631187 20.4758483913
1099 1 37.0256 35.3273 5.35315 12 11.0396337326 1.765425854 18.3943651837
1100 1 35.3318 37.1422 5.3499 12 11.0025358384 1.7659489405 18.46537399
1101 1 38.8434 35.2746 3.56194 12 11.0020557484 1.7695631187 20.4935286864
1102 1 40.665 37.1386 3.56459 12 11.4875337513 1.7695631187 22.7349314479
1103 1 40.5978 35.3305 5.27151 12 10.9186507246 1.7598314242 20.9489805237
1104 1 38.8519 37.0434 5.2976 12 10.9119111518 1.7695631187 20.6485037384
1105 1 42.3164 38.9595 3.56452 12 11.2524944838 1.7759631286 24.9018651232
1106 1 1.76381 40.6683 3.5717 12 11.0767914651 1.776315065 27.188794003
1107 1 1.80474 38.9321 5.31717 12 11.1670409563 1.775202279 25.4612146469
1108 1 -0.0196956 40.6174 5.32269 12 10.8884165087 1.7362978473 25.2123776191
1109 1 3.57811 38.8225 3.44653 12 11.2166689494 1.776315065 25.4193161069
1110 1 5.2663 40.6415 3.54124 12 11.1994257416 1.7609978459 25.2557140188
1111 1 5.20735 38.8572 5.32762 12 11.0774036203 1.7609978459 23.4720710413
1112 1 3.43691 40.7223 5.27377 12 11.1857043032 1.7609978459 25.806621005
1113 1 7.0831 38.8967 3.60396 12 10.9932857903 1.7556673532 23.0384194063
1114 1 8.77642 40.6547 3.59235 12 10.923083473 1.7715477086 23.0512724027
1115 1 8.95012 38.883 5.39312 12 10.9396230439 1.729519586 20.9392603723
1116 1 6.97786 40.7019 5.35896 12 10.8816384426 1.7601375771 23.3284686312
1117 1 10.5721 38.923 3.5841 12 10.8932598259 1.7705257355 20.9545757059
1118 1 12.3914 40.687 3.55874 12 11.1816731025 1.7717152754 21.1790725228
1119 1 12.3148 38.8004 5.30362 12 10.8654773053 1.7565148122 19.0037985571
1120 1 10.5891 40.6182 5.35247 12 11.0248344351 1.7717152754 21.1182757278
1121 1 14.0879 38.9793 3.50932 12 10.9211310333 1.7661790012 19.2051275037
1122 1 15.8684 40.655 3.54671 12 11.0093288521 1.7581499424 19.6841750201
1123 1 15.805 38.8644 5.34555 12 10.8397218533 1.7555276154 17.3987149474
1124 1 14.1137 40.6468 5.19261 12 10.7720537301 1.769942788 19.5246032664
1125 1 17.5916 38.9248 3.4868 12 11.0802495011 1.7555276154 17.8533474735
1126 1 19.4016 40.5969 3.4588 12 10.8077383569 1.7470876979 18.728429535
1127 1 19.4623 38.9432 5.19449 12 10.8093823654 1.757546092 16.4117120236
1128 1 17.7237 40.5455 5.17765 12 10.7226454469 1.7535895901 18.1549761767
1129 1 21.1834 38.9411 3.39518 12 10.8209190623 1.7406598649 17.2125118824
1130 1 22.9117 40.6139 3.52671 12 10.9582900814 1.7874600736 18.3824536951
1131 1 23.0608 38.9931 5.24725 12 11.0245698977 1.7803151908 16.0713323816
1132 1 21.2204 40.6019 5.29443 12 11.0934416315 1.7562543981 17.480334918
1133 1 24.7303 39.0012 3.48737 12 10.9672685162 1.7531854863 17.2232111341
1134 1 26.4721 40.6904 3.49263 12 10.7900358152 1.7546655705 18.8155864376
1135 1 26.5222 38.8944 5.17 12 11.0613868614 1.756319993 16.4306462439
1136 1 24.7565 40.6071 5.32627 12 10.6334078543 1.7389405244 17.4954738568
1137 1 28.302 38.9322 3.4351 12 10.9808987897 1.7378817251 17.9300909966
1138 1 30.0813 40.6641 3.60381 12 11.205710557 1.7934459448 19.5761451033
1139 1 29.939 38.9068 5.3268 12 11.1934482184 1.7433042493 17.1999814587
1140 1 28.1948 40.7428 5.29749 12 11.0516637368 1.7338895079 18.1482188012
1141 1 31.9094 38.9426 3.51729 12 10.8930385486 1.7943113937 19.040455989
1142 1 33.7015 40.557 3.54015 12 11.0954072389 1.7943113937 20.892751208
1143 1 33.6203 38.8578 5.29559 12 10.7950254667 1.7588010341 18.7125183084
1144 1 31.9109 40.5924 5.28053 12 11.1054002511 1.7938101789 19.1837267686
1145 1 35.4054 38.8287 3.63162 12 10.9031764984 1.7613620335 20.4998532186
1146 1 37.0835 40.6484 3.52104 12 11.0737122232 1.7577319244 22.6672096064
1147 1 37.087 38.8856 5.45351 12 10.8406053182 1.7659489405 20.5800247882
1148 1 35.398 40.6348 5.34254 12 11.0623071644 1.7754865972 20.8097777736
1149 1 38.7986 38.8762 3.61409 12 11.1710867914 1.7677617894 22.4897163868
1150 1 40.6164 40.6658 3.55341 12 11.0294136999 1.7613779846 24.7882578137
1151 1 40.5677 38.9021 5.30853 12 10.9394916688 1.7601862248 22.9287369551
1152 1 38.8047 40.6542 5.27082 12 10.9564410135 1.7578852042 22.8511214474
1153 1 42.4134 42.3876 7.13643 12 10.8153512114 1.7418487933 25.6066963004
1154 1 1.68957 1.76475 7.04987 12 10.8030220788 1.7603100757 27.9457854368
1155 1 1.70466 0.127572 8.87202 12 10.8016180726 1.76036738 26.2728270806
1156 1 42.336 1.77763 8.82275 12 11.002676764 1.7648636682 26.1476951804
1157 1 3.43883 0.048592 7.07807 12 11.1533681415 1.76343603 26.1872817845
1158 1 5.25412 1.8014 7.14133 12 11.1905269069 1.7599344102 26.0859087664
1159 1 5.38852 0.103059 8.96529 12 11.0635490815 1.7813035971 24.2864781949
1160 1 3.5379 1.8207 8.85449 12 10.9233674869 1.76343603 26.749540223
1161 1 7.12938 0.0479872 7.10592 12 10.9239033548 1.7542480422 23.6936608921
1162 1 8.93285 1.82293 7.05625 12 10.8207446233 1.7509436442 23.9276562693
1163 1 8.84977 -0.0233696 8.81122 12 10.7200875423 1.7444058723 22.0073631017
1164 1 7.10638 1.81405 8.80951 12 11.0147840235 1.743321923 24.4212160148
1165 1 10.5701 0.0177598 7.02968 12 10.8751257611 1.7575340788 21.6968912728
1166 1 12.4519 1.68225 6.97482 12 11.0452618283 1.7562844594 22.1092367016
1167 1 12.3092 42.3839 8.79402 12 11.0417684192 1.7576657209 20.106727829
1168 1 10.5755 1.72707 8.77397 12 10.7446161643 1.7368980169 22.404883241
1169 1 14.1699 42.2972 7.07328 12 11.1807401506 1.7717805732 19.8810685072
1170 1 15.8495 1.70714 7.05522 12 11.2022773796 1.7704682338 20.8450494041
1171 1 15.8545 42.3167 8.83255 12 10.8879274022 1.7575165796 18.5729020885
1172 1 14.0403 1.67654 8.86359 12 11.2163362016 1.7607197738 20.7678192607
1173 1 17.6043 3.68156e-04 7.11493 12 11.219216101 1.7592098088 18.8796051513
1174 1 19.4571 1.74788 7.08071 12 11.1490309082 1.756936181 20.0888211183
1175 1 19.4988 0.0322712 8.88591 12 11.1881230981 1.7829034311 17.8039753267
1176 1 17.544 1.6509 8.89553 12 11.2119726543 1.7607197738 19.6461403154
1177 1 21.1689 42.3086 7.05557 12 11.1228239106 1.756936181 18.2033166035
1178 1 22.9628 1.69003 7.06321 12 11.1662202478 1.7661760491 19.7622558453
1179 1 22.9652 42.3795 8.89399 12 10.8327634086 1.7572686286 17.4450038326
1180 1 21.268 1.667 8.903 12 11.0591078489 1.7605919906 19.1427016186
1181 1 24.7154 -0.0317467 7.0229 12 10.7532618533 1.7413428767 18.223063839
1182 1 26.5168 1.63498 7.05774 12 11.0102612907 1.7667072198 19.8122659511
1183 1 26.5541 42.3592 8.83837 12 10.822255648 1.7543087581 17.5406217776
1184 1 24.8148 1.73766 8.73855 12 11.0954723705 1.7789954841 19.1186539401
1185 1 28.2433 42.3756 7.06088 12 10.6161386958 1.7489966572 18.6007144408
1186 1 29.986 1.72188 7.09523 12 11.0323955722 1.7601639316 20.548749867
1187 1 29.9582 42.378 8.86092 12 10.923773809 1.7555637338 18.2967507911
1188 1 28.331 1.65977 8.89438 12 10.9377222638 1.76588697 19.4028434143
1189 1 31.9091 42.3023 7.00819 12 11.1267236022 1.7555637338 19.6661554618
1190 1 33.6456 1.65285 7.11992 12 11.221354553 1.7832909789 21.7771422937
1191 1 33.5877 42.3583 8.81703 12 11.1115846373 1.7653896515 19.7191166738
1192 1 31.8229 1.63953 8.8016 12 11.3605193601 1.7514848522 20.4260862367
1193 1 35.44 42.361 7.1351 12 11.1655427627 1.7757903083 21.2725159469
1194 1 37.23 1.87569 7.03514 12 11.1690318216 1.7767403832 23.7351316494
1195 1 37.2146 0.0433252 8.83184 12 11.3407577478 1.7699095444 21.7433296375
1196 1 35.2994 1.72227 8.91121 12 11.0793628871 1.7767403832 21.9757170299
1197 1 38.9511 0.0366318 7.09487 12 10.8859040411 1.7459038935 23.3895819311
1198 1 40.6053 1.70093 7.08247 12 10.8451406011 1.7411149778 25.5893258985
1199 1 40.6157 42.3753 8.81027 12 10.8912035209 1.7437047415 23.7941435919
1200 1 38.9127 1.86989 8.89615 12 10.9630548247 1.7681584611 24.0832744466
1201 1 0.00762595 3.50982 7.158 12 10.9374673856 1.7473852587 26.1027545561
1202 1 1.69482 5.30216 7.07237 12 10.8954526951 1.7387925238 26.0170165762
1203 1 1.75414 3.44391 8.81685 12 10.9998294406 1.7650559945 26.7836279483
1204 1 42.402 5.26671 8.91592 12 11.0558720811 1.7493574787 24.3027783106
1205 1 3.51638 3.5524 7.07545 12 11.0252948415 1.7557269605 27.6878921379
1206 1 5.2383 5.31432 6.99067 12 10.8775800082 1.7651934735 25.3911379738
1207 1 5.25643 3.66183 8.78601 12 10.8752463518 1.7520307652 25.9959992099
1208 1 3.42407 5.31479 8.73566 12 11.0106327106 1.7803783967 26.0521432651
1209 1 6.99321 3.56572 7.07036 12 10.9258012001 1.7536603049 25.5241981465
1210 1 8.7236 5.31213 7.03437 12 11.2326089812 1.7746071007 23.2645665974
1211 1 8.8031 3.55288 8.7674 12 10.7513381561 1.7594399694 23.8730088055
1212 1 7.04965 5.28124 8.81658 12 11.0229493707 1.7511716243 23.6899040588
1213 1 10.4978 3.43666 7.09254 12 10.871208337 1.7556077103 23.6115123162
1214 1 12.3708 5.21482 7.11358 12 11.1752511598 1.7769400016 21.3052323144
1215 1 12.3103 3.4443 8.72869 12 10.9806382968 1.741601033 22.1056041517
1216 1 10.5471 5.27861 8.8248 12 10.9823496888 1.7713748007 21.5580508104
1217 1 14.2398 3.45045 6.96409 12 11.1588964032 1.7801031387 21.9424710222
1218 1 16.0642 5.32037 7.10201 12 11.1920112689 1.7813583929 19.6844783704
1219 1 15.9243 3.58085 8.83399 12 11.1262686557 1.7607197738 20.4839354234
1220 1 14.133 5.11427 8.87681 12 11.1543110504 1.7813583929 19.8604514459
1221 1 17.6896 3.44768 7.11424 12 11.3041493702 1.7559557125 20.7794541067
1222 1 19.4171 5.23386 7.07687 12 11.1053186368 1.7486593093 18.8641231808
1223 1 19.4237 3.49595 8.91203 12 11.2212418571 1.7559671977 19.6403144961
1224 1 17.8208 5.22413 8.91244 12 10.9208393178 1.7626878155 18.443916874
1225 1 21.2009 3.42173 7.19002 12 11.310108266 1.7648774962 20.053057037
1226 1 22.8922 5.24786 7.24965 12 11.2918997636 1.7680627937 18.1397101824
1227 1 22.9352 3.57016 8.94071 12 11.1754535737 1.7789954841 19.0493976857
1228 1 21.184 5.32197 8.94748 12 10.8408560284 1.7476430667 17.6625443125
1229 1 24.7617 3.48338 6.9997 12 11.1440536797 1.7787644105 19.7447019585
1230 1 26.4536 5.26371 7.08271 12 10.8317013466 1.7636322194 18.1698075322
1231 1 26.5223 3.45662 8.78552 12 10.9708262399 1.7767760605 19.1900996695
1232 1 24.8413 5.28567 8.73341 12 11.0358826421 1.7789954841 17.4141652924
1233 1 28.2912 3.56438 7.10938 12 11.2177613223 1.7739572952 19.9315678584
1234 1 29.9867 5.25708 7.10357 12 11.1632593921 1.7633350768 18.8171554784
1235 1 30.0514 3.42848 8.87536 12 11.0623018034 1.7660599742 19.8158247307
1236 1 28.2205 5.3107 8.84734 12 11.2098009025 1.7638901348 17.6809097509
1237 1 31.757 3.40875 7.14246 12 11.3111597979 1.7832909789 20.9395278589
1238 1 33.5133 5.26445 6.92473 12 11.0730490319 1.7800153625 20.1400509645
1239 1 33.7064 3.62842 8.84017 12 11.4213428328 1.7832909789 20.9174332221
1240 1 31.7129 5.23501 8.88886 12 11.1090288865 1.7611218939 18.7228282273
1241 1 35.3415 3.56427 6.99721 12 11.0682084505 1.7818283729 22.3109180678
1242 1 37.1242 5.29924 7.04852 12 11.1759796951 1.7815378955 21.8236510058
1243 1 37.0743 3.57366 8.70604 12 11.1635330386 1.7699095444 22.5797654475
1244 1 35.3827 5.40274 8.81135 12 11.2046029895 1.7604245626 20.2355013904
1245 1 39.0264 3.54837 7.01547 12 11.0627878529 1.7775184192 24.159754252
1246 1 40.6772 5.33743 7.06103 12 11.2951518119 1.7775939318 23.7616672133
1247 1 40.6578 3.55464 8.83442 12 10.8509473401 1.7670354904 24.4752260422
1248 1 38.951 5.32048 8.88828 12 11.2074383354 1.7775939318 22.1307482344
1249 1 0.0430997 7.13264 7.13957 12 11.0940527317 1.7647662436 23.6933139051
1250 1 1.69847 8.86476 6.97341 12 11.0688772842 1.7454125456 23.9140606882
1251 1 1.68177 7.16104 8.80079 12 11.2241027289 1.7817959999 24.2950691831
1252 1 42.3811 8.95971 8.80158 12 11.1140600554 1.7629132246 21.9311763406
1253 1 3.55562 6.98236 6.98555 12 11.1676954414 1.7817959999 25.4137864431
1254 1 5.30503 8.94173 7.13281 12 10.821492852 1.7669157487 22.928017359
1255 1 5.25918 7.0626 8.83675 12 11.3144239709 1.7817816381 23.5924139824
1256 1 3.4374 8.9051 8.71227 12 11.2810270544 1.7817959999 23.7741204409
1257 1 7.07168 7.10163 6.96538 12 11.0342300179 1.7669157487 23.0198156803
1258 1 8.84238 8.82621 6.98094 12 11.1864551027 1.7618849938 20.7563905482
1259 1 8.78962 7.13717 8.81288 12 11.2084567373 1.7618849938 21.2817622086
1260 1 7.03193 8.77848 8.77954 12 10.8619797316 1.7511716243 21.2655151155
1261 1 10.6471 7.10894 7.05369 12 11.3502608091 1.7842774889 20.8804481852
1262 1 12.3713 8.78907 6.9793 12 10.8595326009 1.7617352155 18.7964871813
1263 1 12.3322 6.99011 8.76808 12 11.0017925625 1.7550362715 19.3098922225
1264 1 10.6484 8.90847 8.83994 12 10.9677242156 1.7617352155 18.8858086396
1265 1 14.133 7.05379 7.0593 12 10.9739603909 1.7813583929 19.1102031129
1266 1 15.9036 8.80038 6.99369 12 11.1612623219 1.7720350392 17.0844980088
1267 1 15.9244 6.98448 8.7927 12 11.4267730866 1.7631414165 17.6214714318
1268 1 14.0753 8.75525 8.76026 12 11.2437531462 1.7649666363 17.0840972376
1269 1 17.7332 7.02834 6.95211 12 10.8747273322 1.7626878155 17.8500139508
1270 1 19.3952 8.91529 7.0825 12 10.9682729241 1.7497844698 15.8131112657
1271 1 19.4461 6.99642 8.78897 12 10.8856199065 1.7626878155 16.5613126585
1272 1 17.6515 8.77378 8.79932 12 10.930430526 1.7626838559 15.5354777808
1273 1 21.1493 7.0493 7.14355 12 11.1355075125 1.7432449637 16.8835977606
1274 1 22.8573 8.88336 7.0909 12 11.0826006899 1.7421535834 15.0516178443
1275 1 23.0649 7.10214 8.82978 12 11.0111528687 1.7366232215 15.7930470342
1276 1 21.2055 8.86532 8.8817 12 11.1652999976 1.7439726328 14.5148699857
1277 1 24.7115 7.14371 7.10665 12 10.9277358416 1.7414389723 16.4160017581
1278 1 26.4666 8.89798 6.98633 12 10.9655320002 1.7526509289 15.0580258485
1279 1 26.5691 7.07847 8.79323 12 10.9805253668 1.7475306747 15.8293703118
1280 1 24.7864 8.91676 8.82381 12 10.7926472347 1.7406045228 14.0493211769
1281 1 28.2837 7.0853 7.06768 12 11.0341776851 1.7621243431 16.8465227206
1282 1 29.9438 8.9579 7.05535 12 11.1443592165 1.7812573992 15.7386125948
1283 1 30.0615 7.14286 8.8395 12 11.2361067127 1.7575406177 16.5101327111
1284 1 28.1954 8.86518 8.73893 12 10.999109917 1.7533373566 14.5316871984
1285 1 31.8491 6.92661 7.0631 12 11.2088693596 1.7812573992 18.0535258227
1286 1 33.5566 8.85112 7.13478 12 11.1863187122 1.7765611663 17.2987707807
1287 1 33.3961 7.04251 8.83392 12 11.2285040415 1.760429447 17.9347914299
1288 1 31.7834 8.89617 8.82106 12 11.0099648574 1.7812573992 15.6999781377
1289 1 35.2095 7.04578 7.10246 12 11.0644324896 1.749996462 19.4991527561
1290 1 37.0038 8.77702 6.98215 12 10.837209137 1.7430200133 19.2429077268
1291 1 37.1425 7.09127 8.70939 12 11.130105897 1.7644802752 19.8357155317
1292 1 35.4192 8.86402 8.86054 12 11.0365724959 1.7504004652 17.5162145367
1293 1 38.9078 7.10313 6.93065 12 11.4222245265 1.7775939318 21.518534452
1294 1 40.6771 8.85661 7.07691 12 11.3084954829 1.7683480679 21.4210313677
1295 1 40.6508 7.06972 8.96291 12 11.3044859917 1.7647662436 21.8896623741
1296 1 38.8627 8.84564 8.89709 12 11.1491073297 1.7644802752 19.5362023198
1297 1 42.3804 10.6906 7.01781 12 11.0595267793 1.7409220105 21.6038541981
1298 1 1.73968 12.3442 7.00396 12 11.0534238319 1.7974070179 22.2022558676
1299 1 1.69033 10.6672 8.75749 12 11.1164041772 1.770550028 22.3343252376
1300 1 42.4079 12.4083 8.84354 12 10.9170115979 1.7647359985 20.0657441223
1301 1 3.48619 10.6095 6.99375 12 10.9395624703 1.7966279485 23.364434621
1302 1 5.32187 12.2792 6.94949 12 11.2963714852 1.8071396361 21.1269207519
1303 1 5.28554 10.6129 8.74994 12 11.0637101558 1.7868581838 21.3808642397
1304 1 3.50056 12.4416 8.87054 12 11.5550225752 1.7974070179 21.7781854634
1305 1 7.05171 10.4893 6.96279 12 10.8450634546 1.7495142112 20.8563301109
1306 1 8.8191 12.2599 7.0197 12 10.9966321587 1.7673966731 18.5981766875
1307 1 8.75017 10.5835 8.76491 12 10.9050995695 1.7654860565 18.9364118788
1308 1 7.05604 12.3507 8.75912 12 11.1253754687 1.7680197609 19.0712968903
1309 1 10.5433 10.6271 6.9697 12 11.1204166915 1.7617352155 18.5487001519
1310 1 12.4501 12.3668 6.95698 12 11.1972801391 1.7693033796 16.3454038986
1311 1 12.3604 10.5828 8.71949 12 11.0077811088 1.7548877372 16.7565890871
1312 1 10.5909 12.2581 8.81151 12 11.2523150195 1.7714119864 16.632324229
1313 1 14.1578 10.5708 7.0029 12 11.3767628794 1.7727611704 16.6465202799
1314 1 15.9273 12.3561 7.10731 12 11.2477459285 1.7984332629 14.5713215038
1315 1 15.9116 10.4747 8.81041 12 11.2550044537 1.7600988224 14.8999569878
1316 1 14.0923 12.415 8.78811 12 11.2266741647 1.7821444907 14.4974858888
1317 1 17.6859 10.5478 7.02672 12 10.9049086415 1.7598298603 15.1317725911
1318 1 19.4001 12.3883 7.01148 12 11.2607763321 1.760718373 13.2700867443
1319 1 19.3617 10.5532 8.8705 12 11.2630576508 1.760718373 13.5574308115
1320 1 17.6014 12.3423 8.8297 12 11.1775404263 1.7647318682 12.8086673441
1321 1 21.2508 10.588 7.02628 12 10.8452534433 1.753714024 14.0093971792
1322 1 22.9706 12.2943 6.97781 12 11.0951433511 1.7936994693 12.3826116952
1323 1 23.0846 10.6383 8.90836 12 10.8850232807 1.7425318944 12.6052761336
1324 1 21.2608 12.2634 8.71179 12 11.1641292137 1.760718373 11.7547835477
1325 1 24.7093 10.584 7.03189 12 11.1243944626 1.7441183196 13.5486493744
1326 1 26.4124 12.3475 7.00523 12 11.3728202933 1.7530649823 12.2905043463
1327 1 26.3939 10.6064 8.87724 12 10.9822033369 1.757588412 12.6279889254
1328 1 24.6306 12.4721 8.81662 12 10.9810979046 1.7500350147 10.9772690847
1329 1 28.2338 10.6801 7.07915 12 10.9074368032 1.7656343507 13.8705987221
1330 1 29.864 12.2754 6.83691 12 11.2612093252 1.7697645805 13.3435609874
1331 1 29.9816 10.6928 8.89272 12 11.0009981098 1.757490415 13.4757157615
1332 1 28.1743 12.3292 8.79719 12 11.218553078 1.7567577961 11.60161792
1333 1 31.7054 10.5401 7.02377 12 11.07004256 1.7772265959 15.2354541662
1334 1 33.6206 12.2365 7.01928 12 11.1593107123 1.7638129182 15.0773439059
1335 1 33.5742 10.519 8.90653 12 11.0184173439 1.7617928698 15.3051967945
1336 1 31.7879 12.2399 8.80842 12 11.2904956393 1.7697645805 13.1697071036
1337 1 35.3723 10.5812 7.02877 12 10.8654292413 1.7447910211 17.0980194815
1338 1 37.0902 12.4021 7.05638 12 10.8139450095 1.7562973977 16.9563461713
1339 1 37.1698 10.578 8.83526 12 11.0161851662 1.7640912368 17.3173618428
1340 1 35.3091 12.3372 8.82917 12 11.505758407 1.7638129182 15.0164245126
1341 1 38.8513 10.5427 7.18351 12 10.927609461 1.7558166743 19.1305014915
1342 1 40.5979 12.3268 7.09219 12 11.0387732077 1.7558166743 19.4052874211
1343 1 40.5568 10.6198 8.91028 12 10.9185781978 1.7619735076 19.575349139
1344 1 38.8746 12.3357 8.85232 12 10.8283063798 1.7558166743 17.3887284111
1345 1 0.0169017 14.1445 7.15278 12 11.0801268681 1.7724989808 19.9951129789
1346 1 1.73807 16.0035 6.93331 12 11.0100513649 1.7743620586 20.8865976512
1347 1 1.7869 14.2072 8.78205 12 10.9652509826 1.7647359985 20.8240746428
1348 1 -0.0277991 15.8466 8.84703 12 10.8468620107 1.7724989808 18.648026582
1349 1 3.42891 14.2072 6.92868 12 11.4942138135 1.8071396361 21.7628520377
1350 1 5.32118 15.9645 7.03139 12 11.0284242877 1.8060675718 19.5001240109
1351 1 5.27987 14.1287 8.78484 12 11.2235567561 1.8071396361 19.565803306
1352 1 3.5646 15.9016 8.72708 12 11.0405063788 1.7619893896 20.3380279659
1353 1 7.05021 14.1532 6.98639 12 10.9466159251 1.8064583041 18.8976094647
1354 1 8.84505 15.8479 7.05637 12 10.8373358328 1.7896892987 16.7674741929
1355 1 8.92536 14.1579 8.70059 12 11.1584086526 1.7673966731 16.7294266229
1356 1 7.0957 15.8271 8.73338 12 10.8285434446 1.762028662 17.3697479954
1357 1 10.6336 13.9394 6.95731 12 11.2688802879 1.7903540966 16.4932073164
1358 1 12.4444 15.8994 7.07217 12 11.3329545 1.7903540966 14.25971467
1359 1 12.3737 14.1801 8.77426 12 11.2397648419 1.7809709788 14.3141600435
1360 1 10.6268 15.9714 8.78338 12 11.1960211301 1.7903540966 14.5271575342
1361 1 14.2457 14.1196 6.93861 12 11.2235039252 1.7821444907 14.3193867156
1362 1 15.8952 15.9866 7.05761 12 11.1400897363 1.7773182373 12.3662032318
1363 1 15.9841 14.1303 8.68903 12 11.1738207289 1.7821444907 12.4375769348
1364 1 14.1704 15.972 8.80676 12 10.9899464739 1.7821444907 12.1455062076
1365 1 17.6588 14.1704 6.95407 12 11.0865759913 1.7494127945 12.7876126165
1366 1 19.343 16.0189 7.02916 12 10.7060185395 1.7700792724 10.89872991
1367 1 19.3865 14.0611 8.83195 12 11.2453901023 1.760718373 10.9648325489
1368 1 17.7042 15.9095 8.76366 12 11.0691956204 1.7613764723 10.4934560202
1369 1 21.1448 14.1546 7.06561 12 11.3542155113 1.7936381907 11.4505309575
1370 1 22.8822 15.9034 7.04237 12 11.2143015717 1.7930161214 9.9514920967
1371 1 22.8664 14.0872 8.82776 12 11.3010219223 1.7936994693 9.8739990703
1372 1 21.1075 15.9345 8.84714 12 11.1744575561 1.7893943804 9.1023569145
1373 1 24.7561 14.1392 6.96958 12 11.1699427873 1.7936994693 10.9274777514
1374 1 26.4577 15.8322 6.94763 12 11.2698132475 1.7802436864 10.0159289355
1375 1 26.4969 14.0918 8.90029 12 11.3665560493 1.7678764728 9.7756208034
1376 1 24.7269 15.9523 8.76719 12 11.348649643 1.7596066739 8.3783800599
1377 1 28.2632 14.1348 6.98639 12 11.4248864901 1.7571178605 11.4493705452
1378 1 30.0871 15.9175 7.06823 12 11.1643488756 1.7580421211 11.0329256173
1379 1 30.0018 14.105 8.81117 12 11.2834196512 1.7571178605 10.9789543252
1380 1 28.3187 15.8935 8.82974 12 11.1080268706 1.7606806153 9.074272845
1381 1 31.7038 14.1353 7.09381 12 11.5491576638 1.7716486195 12.8410937003
1382 1 33.5857 15.9129 6.96028 12 11.1462261622 1.7536272589 12.9438185257
1383 1 33.5674 14.1328 8.66798 12 11.4572088759 1.7638129182 12.9439081491
1384 1 31.7653 15.9527 8.87087 12 11.1845428666 1.7536272589 10.745903924
1385 1 35.39 14.0483 7.03334 12 10.6387771986 1.7450111128 14.9952529596
1386 1 36.9898 15.9522 6.90444 12 11.3526397859 1.7636101618 15.2226557909
1387 1 37.0527 14.1268 8.78426 12 11.1497951904 1.7633671068 15.1328770752
1388 1 35.2971 15.8336 8.64848 12 11.2306084318 1.7672086488 13.111418581
1389 1 38.8357 14.0844 7.02965 12 11.1411086984 1.7572389672 17.2934700799
1390 1 40.6122 15.8687 7.07613 12 11.0095693968 1.7723672874 17.9078440387
1391 1 40.6816 14.123 8.83711 12 10.98231288 1.7735748967 17.8815413563
1392 1 38.8204 15.9366 8.72394 12 11.3176090272 1.7701696354 15.6709457887
1393 1 42.3182 17.6802 6.94341 12 10.9041032759 1.7724989808 18.8584509363
1394 1 1.67479 19.4171 7.04182 12 10.8825041408 1.7820335332 20.0554357622
1395 1 1.67775 17.6432 8.74728 12 11.1421125743 1.7537375593 19.6954556829
1396 1 42.353 19.4067 8.79433 12 10.7588977068 1.7448100263 17.7515891377
1397 1 3.49886 17.6168 6.92922 12 10.8456099213 1.7546506747 20.5787545769
1398 1 5.18073 19.4681 7.12492 12 11.3332032195 1.767596852 18.6236695101
1399 1 5.26142 17.6492 8.65953 12 11.2514888883 1.7842926097 18.3258951743
1400 1 3.40676 19.4011 8.71647 12 10.9833512831 1.7537375593 19.5627564323
1401 1 7.1835 17.6536 6.99431 12 11.0743312594 1.767596852 17.4424006804
1402 1 8.85944 19.3407 6.99728 12 10.9298988514 1.7729219392 15.6455426855
1403 1 8.70025 17.5892 8.78607 12 10.9707081966 1.762938193 15.3656736314
1404 1 7.02042 19.4187 8.8614 12 11.2833228695 1.767596852 16.2538103766
1405 1 10.6092 17.5833 6.98235 12 10.8725364621 1.7853053549 14.8359788704
1406 1 12.4435 19.4495 7.05889 12 10.9210688131 1.7490168974 12.9022951351
1407 1 12.4526 17.6972 8.77954 12 10.9502520714 1.7502608242 12.4287043917
1408 1 10.6174 19.3628 8.65582 12 10.9851561512 1.7623935525 13.3254525084
1409 1 14.1651 17.6648 7.01512 12 11.0493592739 1.7688812157 12.4571516159
1410 1 15.8685 19.4881 6.97596 12 11.1016585824 1.7559281392 10.8516222786
1411 1 15.8823 17.6985 8.89461 12 10.945423863 1.7612190033 10.1900440191
1412 1 14.2164 19.4499 8.84106 12 10.9309668083 1.753625155 10.5028956295
1413 1 17.6723 17.7051 7.10695 12 11.123351435 1.7559281392 10.5582574982
1414 1 19.3292 19.5859 7.05802 12 11.0442818328 1.7487669953 8.9140155671
1415 1 19.4503 17.6501 8.81203 12 10.8017723836 1.7487669953 8.6319407108
1416 1 17.5533 19.4201 8.89971 12 10.9376129432 1.7487669953 8.5139993127
1417 1 21.0743 17.6912 6.97724 12 11.1714356176 1.770081963 9.3655580087
1418 1 22.9818 19.3952 7.07273 12 11.3607172529 1.7682505971 8.1065161825
1419 1 22.9078 17.5562 8.84034 12 11.1651259873 1.7668657617 7.5735186731
1420 1 21.1303 19.4025 8.90136 12 10.9526786106 1.7682505971 6.874332296
1421 1 24.6177 17.7165 7.05117 12 11.1962392435 1.7887850468 8.8365914964
1422 1 26.485 19.4662 6.97024 12 11.3528343831 1.7799050447 8.2143773356
1423 1 26.5077 17.5993 8.76068 12 11.2836480538 1.7802436864 7.5824983271
1424 1 24.6606 19.2854 8.8304 12 11.2073038261 1.7771405654 6.5563935936
1425 1 28.2989 17.62 7.05446 12 11.2739542008 1.7749141622 9.423413011
1426 1 30.0564 19.4238 7.02933 12 10.9681662489 1.7637500872 9.2623379922
1427 1 30.0263 17.7076 8.91803 12 10.9778195585 1.7580421211 8.7413839198
1428 1 28.3588 19.3729 8.76345 12 11.1117894644 1.8063416742 7.1814168722
1429 1 31.878 17.6965 6.97525 12 11.3029708817 1.7580421211 11.0090781776
1430 1 33.48 19.4589 6.99323 12 11.1142434412 1.7510069215 11.3194401565
1431 1 33.5799 17.5134 8.93576 12 11.2570511993 1.7696623703 11.0039760944
1432 1 31.8704 19.4232 8.8776 12 11.1410804081 1.7442991065 9.0262132019
1433 1 35.2325 17.8303 6.99047 12 11.2850781057 1.7696623703 13.1446889886
1434 1 37.1167 19.5454 7.01482 12 10.9262330916 1.7447110857 14.0557530687
1435 1 37.0986 17.6963 8.73794 12 11.4441159906 1.7698169544 13.6598925409
1436 1 35.2947 19.4779 8.83831 12 11.4294513228 1.7702350608 11.6439031262
1437 1 38.9298 17.7001 6.97229 12 11.1657596312 1.7688636883 16.044295456
1438 1 40.5938 19.4088 7.04983 12 10.773657892 1.7691516677 16.9912916299
1439 1 40.6727 17.6486 8.76203 12 10.8810144348 1.7701696354 16.6388140268
1440 1 38.9189 19.4717 8.78192 12 11.0322466718 1.7701696354 14.706577131
1441 1 -0.0228321 21.1264 6.99624 12 10.808504537 1.782088524 18.3945473708
1442 1 1.73666 22.9813 7.08355 12 11.0125868094 1.782088524 19.9055873874
1443 1 1.62318 21.1735 8.81874 12 10.9513818427 1.7820586031 19.1331747015
1444 1 42.3525 22.9466 8.7137 12 10.8301940508 1.7467792302 17.5973158434
1445 1 3.53815 21.1978 7.10261 12 11.0273301035 1.782088524 19.8066049291
1446 1 5.16698 22.9404 6.9664 12 11.2878729152 1.7652573947 18.1656660071
1447 1 5.28308 21.2341 8.9022 12 11.1740213264 1.7638784802 17.5079346428
1448 1 3.41896 22.9509 8.85836 12 10.9798251063 1.7442539241 19.0644212723
1449 1 7.11329 21.1523 6.90987 12 11.4146494047 1.767596852 16.7600121219
1450 1 8.8454 23.015 7.05514 12 11.0767167542 1.7664170815 14.9104277312
1451 1 8.79146 21.1771 8.77713 12 10.9362947345 1.7638784802 14.4226736186
1452 1 7.03842 22.9357 8.82113 12 11.2307758993 1.7652573947 15.7093568349
1453 1 10.5057 21.1616 7.05806 12 11.009883865 1.7628235521 13.8949247175
1454 1 12.3912 22.951 7.00734 12 10.9903314276 1.7634222056 12.1133240569
1455 1 12.358 21.1959 8.70409 12 11.0889453838 1.7538009264 11.4868207659
1456 1 10.5525 23.0401 8.78732 12 11.1097096594 1.7634222056 12.5748445381
1457 1 14.1306 21.3371 6.8613 12 10.7352529973 1.7553096353 11.3659176734
1458 1 15.8624 23.0264 6.97345 12 10.7903908548 1.7551043179 9.8182392968
1459 1 15.8581 21.2099 8.73097 12 10.7347666108 1.7553096353 8.9822986651
1460 1 14.1445 22.9971 8.71367 12 10.8806371895 1.7609556121 9.6976627718
1461 1 17.6338 21.2055 7.02715 12 10.7968061552 1.7553096353 9.2717536697
1462 1 19.4969 22.8898 7.04336 12 10.8044854671 1.7947000353 8.0447100848
1463 1 19.4745 21.1805 8.75941 12 10.7674634318 1.7946024216 6.9105656182
1464 1 17.5599 22.8686 8.80365 12 11.2162164992 1.7947000353 7.443892578
1465 1 21.1672 21.1691 7.04508 12 10.9805053288 1.760833034 7.7207249333
1466 1 23.0491 22.8992 7.07343 12 11.0648291176 1.7588434607 7.126861302
1467 1 22.9499 21.185 8.89199 12 11.152976069 1.7682505971 5.700527155
1468 1 21.2135 22.9624 8.71006 12 11.0555827238 1.7899276726 5.8362274054
1469 1 24.7529 21.1341 7.11306 12 11.1107602728 1.7549621207 7.4369991004
1470 1 26.4328 22.9193 7.07316 12 11.4307314156 1.7670809911 7.3294273552
1471 1 26.432 21.1257 8.87177 12 11.3656776788 1.7703581466 5.8392797047
1472 1 24.5928 22.9294 8.90372 12 10.8159972213 1.7439779317 5.3734977106
1473 1 28.3328 21.202 7.11542 12 11.0899410004 1.7648795388 7.928881962
1474 1 30.0122 22.914 7.0451 12 10.8075984559 1.7537229035 8.5297952087
1475 1 30.1218 21.0789 8.66185 12 10.6770222681 1.7215691738 7.495217096
1476 1 28.3698 22.9502 8.79341 12 10.8768247958 1.7466147079 6.2067121217
1477 1 31.8752 21.2473 6.96037 12 10.7901940876 1.7369094486 9.8338716419
1478 1 33.6756 23.0497 7.05841 12 10.7416360919 1.7369094486 10.8686152671
1479 1 33.5493 21.2907 8.83769 12 11.2244900248 1.7625188416 9.7990971592
1480 1 31.7819 22.9376 8.68837 12 11.1644450148 1.7752734512 8.3706687885
1481 1 35.3375 21.1921 7.08365 12 10.9405135958 1.7512491059 12.2614999401
1482 1 37.0481 22.8814 7.03051 12 10.8355715735 1.7270269421 13.5718318245
1483 1 37.1206 21.1486 8.79832 12 10.9737077414 1.7502372955 12.88672517
1484 1 35.4268 22.9732 8.92846 12 10.6911216185 1.7512491059 11.2053699202
1485 1 38.9109 21.2189 7.0477 12 10.8450884989 1.7400145035 15.2626403548
1486 1 40.6607 22.8123 6.96897 12 10.7888218202 1.7459347927 16.7537934958
1487 1 40.6685 21.1081 8.82215 12 10.9644674667 1.7468627373 16.0365544788
1488 1 38.8617 22.9102 8.82919 12 10.9458141452 1.7488471423 14.3421426741
1489 1 42.356 24.7402 6.9831 12 10.5094867872 1.7306255929 18.3686726896
1490 1 1.59291 26.4675 7.0836 12 10.9350524834 1.7589853465 20.0006093813
1491 1 1.59672 24.7232 8.78794 12 10.8202813688 1.7561542312 19.1879560927
1492 1 42.3642 26.5131 8.78232 12 10.785137632 1.7567253641 17.7887292221
1493 1 3.48156 24.7352 7.07069 12 11.161690363 1.7613711128 19.5599444989
1494 1 5.2869 26.5484 7.1136 12 11.1550647429 1.7576674805 17.987917466
1495 1 5.26881 24.6503 8.8096 12 10.9882117528 1.7574309533 17.2500328678
1496 1 3.51482 26.4564 8.80332 12 11.0133155326 1.7633697597 18.9779359363
1497 1 6.99473 24.7504 7.0312 12 11.3720913451 1.7652573947 16.4177445971
1498 1 8.9386 26.5973 7.06808 12 10.721037426 1.7528905626 14.8321431186
1499 1 8.80193 24.8151 8.76257 12 10.9152990989 1.7461667903 14.0182007196
1500 1 7.12631 26.498 8.83141 12 10.9524177628 1.7528905626 15.6112423263
1501 1 10.5476 24.7818 7.07768 12 10.9001317737 1.7634222056 13.3779003823
1502 1 12.3681 26.5354 7.07715 12 10.8096640457 1.7354573087 12.0753061333
1503 1 12.3103 24.8107 8.83224 12 11.0256330286 1.7609556121 10.9300515543
1504 1 10.4667 26.5246 8.72286 12 10.6710293688 1.752442157 12.6816544797
1505 1 13.9916 24.8305 6.96841 12 10.5853991325 1.7607987653 10.8486034408
1506 1 15.792 26.578 6.99105 12 10.95049397 1.7623849987 9.8531769557
1507 1 15.8275 24.736 8.69764 12 11.0186255743 1.7626852934 8.3327582087
1508 1 14.1216 26.5167 8.72554 12 10.9387288555 1.762719773 9.6999956592
1509 1 17.7337 24.6497 7.05811 12 11.0414121276 1.7506879623 8.6450668526
1510 1 19.4771 26.54 7.05888 12 10.6365198931 1.7378313403 7.9568402345
1511 1 19.4631 24.7612 8.75549 12 11.0894675823 1.7947000353 6.3882360481
1512 1 17.6445 26.4891 8.67649 12 10.9106271279 1.762719773 7.4568347384
1513 1 21.1439 24.7649 6.93954 12 10.9813600194 1.7588434607 7.4890423892
1514 1 23.0235 26.4853 7.08664 12 11.2233620641 1.7729207772 7.1742861843
1515 1 22.9477 24.724 8.7853 12 10.8906412822 1.7711601628 5.4166891075
1516 1 21.1549 26.4994 8.81824 12 11.2268782712 1.7729383867 5.7154369635
1517 1 24.6527 24.6415 7.12753 12 11.2693223438 1.7759059803 7.072972383
1518 1 26.5247 26.6037 6.98317 12 11.3985044917 1.7759059803 7.6342835936
1519 1 26.4741 24.6495 8.87101 12 11.3300764556 1.7759059803 5.5785162157
1520 1 24.6935 26.4071 8.92055 12 11.1512648431 1.7729383867 5.4697792092
1521 1 28.1858 24.6703 7.07321 12 11.2430909207 1.7759059803 7.8396680484
1522 1 30.0955 26.4771 7.02912 12 11.3622982137 1.7803547795 9.0768392036
1523 1 29.9629 24.7756 8.7656 12 11.0702062712 1.7537229035 7.3042502539
1524 1 28.3175 26.4947 8.77194 12 11.1565609603 1.7999273717 6.6899869578
1525 1 31.8455 24.7841 7.05905 12 10.9785878628 1.7537229035 9.7656974195
1526 1 33.6173 26.49 7.06525 12 10.8810912514 1.7822228335 11.373732775
1527 1 33.663 24.689 8.80209 12 11.0394960615 1.7635691147 9.9258090495
1528 1 31.9671 26.4916 8.79464 12 11.0860553207 1.7494422006 9.0895872628
1529 1 35.4025 24.6813 7.09178 12 10.7610293352 1.7825947486 12.30527985
1530 1 37.1896 26.5087 7.07645 12 11.3240115717 1.7825947486 14.1226559423
1531 1 37.1149 24.7086 8.7299 12 10.9585322889 1.7520350191 12.9140868619
1532 1 35.3303 26.6407 8.91594 12 11.4297185727 1.7825947486 11.6818286882
1533 1 38.9209 24.5565 6.97966 12 11.239465222 1.7497185265 15.291075641
1534 1 40.727 26.4825 7.02431 12 10.7064166632 1.7245629491 17.1271592943
1535 1 40.6211 24.5949 8.67855 12 10.8605715975 1.7493748994 16.0876718966
1536 1 38.9514 26.4251 8.74554 12 10.9456160866 1.7497185265 14.7701263475
1537 1 -0.00626755 28.2895 6.9572 12 10.7453114287 1.7240428446 18.9490132072
1538 1 1.68045 30.0097 6.95317 12 10.8303268125 1.7660970138 20.7964811502
1539 1 1.63538 28.3224 8.79742 12 10.9304910338 1.7589853465 19.608801793
1540 1 0.0574876 30.0613 8.77534 12 10.7867206894 1.7370141991 18.6467756297
1541 1 3.40665 28.2418 7.13192 12 11.2281280838 1.7685107374 19.908137726
1542 1 5.18354 30.0308 6.99609 12 11.0508480834 1.750651767 18.793955462
1543 1 5.11057 28.2317 8.78332 12 11.0147989462 1.7488844193 17.7464572881
1544 1 3.42448 30.1182 8.83609 12 10.9682471379 1.7671113477 19.7158513753
1545 1 7.10712 28.2423 7.0375 12 11.2061884611 1.7528905626 16.6799791642
1546 1 8.80895 29.9421 6.90215 12 10.9516812197 1.7440033981 15.7869691228
1547 1 8.77121 28.2675 8.87154 12 10.6848346289 1.7332462524 14.4272763642
1548 1 7.01152 29.9562 8.89894 12 11.3783852557 1.750651767 16.4333204956
1549 1 10.5964 28.261 6.96015 12 10.6471125492 1.7269613597 13.852623725
1550 1 12.2533 30.0436 7.07368 12 11.1889750156 1.805747275 13.1378133379
1551 1 12.2128 28.2708 8.81994 12 11.0633737409 1.7354573087 11.5587569874
1552 1 10.4002 29.8991 8.78857 12 11.1041110344 1.7334830158 13.5890208179
1553 1 14.0021 28.3516 7.01468 12 11.2608582623 1.7586350301 11.3833580994
1554 1 15.9256 29.9548 7.00802 12 11.4168289986 1.7887079107 10.8519455045
1555 1 15.9475 28.274 8.80616 12 10.9436598651 1.762719773 8.8884821625
1556 1 14.0878 29.9438 8.86791 12 11.2672340659 1.7882713525 10.7944874175
1557 1 17.7304 28.191 6.97299 12 10.7317808076 1.7187904861 9.2198755677
1558 1 19.309 29.9276 6.99433 12 11.1059148588 1.7574546811 9.103414738
1559 1 19.2946 28.1891 8.85391 12 10.8381448219 1.7548355637 6.9109213524
1560 1 17.6088 30.0312 8.84621 12 10.8400315173 1.7576054793 8.6833737831
1561 1 21.1794 28.2104 6.99334 12 11.2630556541 1.7484309124 7.8365647362
1562 1 23.0811 30.179 6.94654 12 11.017279197 1.7484309124 8.560698067
1563 1 23.1037 28.3039 8.76647 12 11.6864266486 1.7729383867 6.0596154525
1564 1 21.161 29.9533 8.72892 12 11.742777263 1.7937034829 7.1678636301
1565 1 24.7762 28.2921 7.04228 12 11.1006910323 1.7575768224 7.8391750631
1566 1 26.5455 30.0104 7.12931 12 11.1564696669 1.7519253379 8.9322356491
1567 1 26.517 28.2487 8.84766 12 10.8830996514 1.7669396703 6.5831356571
1568 1 24.7857 30.0556 8.74115 12 10.7808009921 1.7481549963 7.2812811302
1569 1 28.2851 28.2413 7.05037 12 10.9473447389 1.756680877 8.6622424623
1570 1 30.1025 30.0894 7.02723 12 10.9225310202 1.7728594592 10.364193934
1571 1 30.0897 28.2482 8.75646 12 11.1012873278 1.7494422006 8.3366692441
1572 1 28.3472 30.0158 8.84204 12 10.7663372275 1.7341625818 8.264048178
1573 1 31.9876 28.2574 7.094 12 11.3824595997 1.7821323999 10.6860347678
1574 1 33.7886 30.0907 7.03369 12 11.053977758 1.7824544297 12.6557769308
1575 1 33.6305 28.3831 8.94642 12 10.905698142 1.7510463269 10.8605646985
1576 1 31.8055 30.082 8.86267 12 11.0910360363 1.7824544297 10.2665358033
1577 1 35.3488 28.293 7.07868 12 11.2183864355 1.78034182 13.1912388707
1578 1 37.1977 30.0736 6.9763 12 11.2816673571 1.763188318 15.2484651728
1579 1 37.359 28.3711 8.76821 12 11.0975908258 1.7609341158 13.855817001
1580 1 35.4826 29.986 8.93529 12 10.8942407289 1.7224611929 12.8874864696
1581 1 38.987 28.3191 7.04403 12 10.733526992 1.7524650242 16.064765424
1582 1 40.6776 30.0208 7.03764 12 10.9345603434 1.7438074526 17.9034425599
1583 1 40.6545 28.2412 8.79344 12 10.7665689412 1.7370141991 16.5633975221
1584 1 39.0209 30.0564 8.83607 12 10.6691030612 1.7486812585 15.7005455322
1585 1 42.3632 31.7 6.92294 12 10.9153874948 1.7655904969 19.8851794583
1586 1 1.66376 33.5726 7.10115 12 11.2719295382 1.7662439641 21.9411015797
1587 1 1.67529 31.7875 8.74178 12 10.7937644364 1.7662439641 20.6274723853
1588 1 42.383 33.5504 8.81606 12 11.0088383541 1.741231695 19.8723886478
1589 1 3.51157 31.6514 7.06119 12 11.008333439 1.7662439641 20.7103576987
1590 1 5.2724 33.5128 7.12335 12 11.1276574565 1.7555718723 19.9262893802
1591 1 5.37533 31.845 8.78865 12 10.9827973532 1.7486719661 18.5561121162
1592 1 3.45521 33.5259 8.78676 12 11.1382855625 1.7496080164 20.8859508003
1593 1 7.0575 31.7251 7.10457 12 11.1673371955 1.7555718723 17.7444070583
1594 1 8.77982 33.5306 7.04834 12 11.1004170912 1.79961078 17.2510714049
1595 1 8.84096 31.8417 8.76779 12 11.1711066663 1.7508281803 15.6643051595
1596 1 7.0904 33.6203 8.89217 12 11.0531453751 1.7762981225 17.8675172874
1597 1 10.6009 31.8703 7.05094 12 10.8786789373 1.7532971484 15.1176797158
1598 1 12.3511 33.5409 7.15218 12 11.0178288427 1.7540582835 14.7849779038
1599 1 12.192 31.7031 8.94794 12 11.3761651503 1.7882713525 12.9698517174
1600 1 10.5958 33.5316 8.84208 12 11.0249057245 1.7532971484 15.166064457
1601 1 13.9793 31.7493 7.00859 12 11.5235866778 1.7887079107 12.8723084739
1602 1 15.85 33.5111 7.08391 12 11.3782004441 1.7887079107 12.7088630029
1603 1 15.8499 31.7742 8.96706 12 11.1515478752 1.7887079107 10.6473804129
1604 1 14.1885 33.5023 8.78608 12 11.2071219677 1.7882713525 12.7567380684
1605 1 17.5549 31.7094 7.02462 12 10.9857881314 1.7877383619 10.785994856
1606 1 19.2492 33.4368 7.0192 12 11.2052071768 1.774451139 11.1911273905
1607 1 19.3807 31.7746 8.77864 12 11.1754977114 1.789495455 8.8879032408
1608 1 17.5897 33.5186 8.79018 12 10.95946354 1.7741832602 10.8996542538
1609 1 21.1233 31.8002 7.01857 12 11.3286310629 1.7887260009 9.6161992028
1610 1 23.0005 33.4713 7.09919 12 11.1452895434 1.7580545442 10.5682323953
1611 1 22.9699 31.7578 8.77866 12 11.2528821306 1.7896327266 8.1708683363
1612 1 21.1578 33.5288 8.81803 12 11.5691466609 1.7896327266 9.6922879059
1613 1 24.667 31.789 6.92679 12 10.8136834765 1.7538564925 9.694219756
1614 1 26.5055 33.5027 7.01035 12 11.2413534641 1.7630608512 11.2551571655
1615 1 26.4575 31.7992 8.80709 12 10.9638401073 1.7643229351 8.8829815132
1616 1 24.7747 33.5493 8.80509 12 11.1244338642 1.7609325675 9.7560585952
1617 1 28.3665 31.6617 7.08933 12 11.0527818597 1.7848007838 10.490705176
1618 1 29.9401 33.6186 7.08827 12 11.0896875416 1.7717131786 12.4216915405
1619 1 30.1233 31.8688 8.83234 12 10.8831585884 1.7479280625 10.3354754495
1620 1 28.2329 33.5537 8.78437 12 11.1101251128 1.7756680759 10.6867354332
1621 1 31.9813 31.8589 7.09225 12 11.243757905 1.7824544297 12.3185029687
1622 1 33.6471 33.5665 7.05308 12 11.1601505487 1.7630587353 14.3518637142
1623 1 33.7418 31.7072 8.85958 12 11.0681734717 1.7512388858 12.4904210816
1624 1 31.8494 33.58 8.86091 12 11.3552169605 1.7717131786 12.4046908328
1625 1 35.4718 31.8311 7.15206 12 11.0959875279 1.7769767465 14.5934845653
1626 1 37.1075 33.5738 7.16716 12 10.8940096911 1.7686536368 16.6520800827
1627 1 37.1747 31.7327 8.94361 12 10.9355629317 1.7687668973 14.9314549021
1628 1 35.3837 33.5515 9.00316 12 10.8286673676 1.7687668973 14.6355420859
1629 1 38.9535 31.8492 7.11354 12 11.2419141272 1.7567956618 17.2059031237
1630 1 40.6829 33.5359 7.0123 12 11.0503180579 1.7452453791 19.3020672131
1631 1 40.6966 31.8237 8.9259 12 10.993072073 1.7355461052 17.7065974522
1632 1 38.9149 33.5445 8.82263 12 11.1706634133 1.7831040863 17.1813791351
1633 1 -0.00667391 35.4019 7.13214 12 10.9321481328 1.7598314242 21.4678965862
1634 1 1.83631 37.1224 7.01396 12 10.8622080014 1.7580349513 23.7999209627
1635 1 1.76104 35.4648 8.79775 12 11.0289810775 1.755579749 22.2511062689
1636 1 0.0362608 37.1516 8.80643 12 10.7634684617 1.7722069063 21.8221037338
1637 1 3.61494 35.3279 7.0795 12 11.2365517035 1.755579749 22.1134745017
1638 1 5.36554 37.1756 7.12108 12 10.9971142247 1.754494455 21.7054553794
1639 1 5.18471 35.3758 9.03757 12 11.1685609787 1.7512620286 20.2456914205
1640 1 3.55033 37.1535 8.77224 12 10.8416242182 1.7589673063 22.5650649066
1641 1 6.87385 35.2563 7.09069 12 11.3051383732 1.79961078 19.5429377775
1642 1 8.76902 37.1219 7.1197 12 11.0559633606 1.79961078 19.2138990375
1643 1 8.76246 35.336 8.93005 12 11.0543981321 1.79961078 17.4798158347
1644 1 7.03809 37.0609 8.83497 12 11.0457636864 1.7515919907 19.7607491332
1645 1 10.4785 35.3721 7.10592 12 11.2745838607 1.7991461655 17.0647416411
1646 1 12.405 37.2525 7.04474 12 10.9593307596 1.7619773125 17.0246229441
1647 1 12.4116 35.3428 8.74154 12 11.2209835407 1.7513411286 14.9922574564
1648 1 10.5398 37.1067 8.86547 12 11.1006507306 1.7619773125 17.2645856027
1649 1 14.1266 35.3655 7.0482 12 10.8979999552 1.7667507531 14.8575400401
1650 1 15.7806 37.0331 6.99249 12 11.3552131606 1.7891729713 15.1998051158
1651 1 15.903 35.3244 8.9121 12 11.3490561951 1.7891729713 12.9172356603
1652 1 14.0385 37.0892 8.84968 12 10.962524923 1.7891729713 15.1482841786
1653 1 17.6941 35.4346 7.03427 12 11.5276107568 1.7691836099 13.1805890864
1654 1 19.4444 37.1866 7.0098 12 11.1513283543 1.7594151618 14.015316031
1655 1 19.2922 35.3211 8.79418 12 11.0306326302 1.7746138958 11.6369793655
1656 1 17.6888 37.1745 8.8866 12 11.3142079705 1.7884567438 13.6186532727
1657 1 20.9783 35.3363 6.97981 12 11.2387585767 1.7639396307 12.2276484178
1658 1 22.8738 37.1309 7.12327 12 11.5195927146 1.7803151908 13.4879366719
1659 1 22.9692 35.3071 8.73456 12 11.1038503835 1.7598793896 11.0978313709
1660 1 21.141 37.0458 8.74852 12 10.9402283562 1.7598156776 12.7477351547
1661 1 24.7844 35.3113 7.12211 12 11.0498446202 1.7718375921 12.13376112
1662 1 26.4844 37.1439 6.96702 12 11.0142262848 1.7717880199 13.9962344873
1663 1 26.4644 35.3532 8.85738 12 11.0305716233 1.7513187716 11.4794143915
1664 1 24.683 37.0429 8.87265 12 11.1911326824 1.7745249383 12.6381140098
1665 1 28.2489 35.335 7.04396 12 11.0610782303 1.750664468 13.044353967
1666 1 29.9791 37.1058 6.9771 12 11.019666484 1.7839692061 14.9316081312
1667 1 30.0897 35.3367 8.73634 12 10.9393339248 1.7845052525 12.7226539255
1668 1 28.1821 37.0377 8.81961 12 11.0169175083 1.7845052525 13.2591737635
1669 1 31.8166 35.379 7.01363 12 10.9642953457 1.7717131786 14.5325881906
1670 1 33.593 37.0357 7.00993 12 10.7859212069 1.7588010341 16.5761762938
1671 1 33.676 35.4236 8.79115 12 10.9933963281 1.75797866 14.7266644941
1672 1 31.7893 37.0007 8.6569 12 11.1242206282 1.7832213026 14.7697483025
1673 1 35.3782 35.2353 7.11335 12 10.8127801971 1.7452623981 16.4518195246
1674 1 37.2168 37.0107 7.10923 12 10.9733193215 1.7615577804 18.7599550815
1675 1 37.1921 35.3 8.85338 12 11.07282227 1.7682339771 16.9831239983
1676 1 35.3332 37.0221 8.82089 12 10.8404327019 1.7553500263 16.7880476224
1677 1 38.8853 35.2175 6.96517 12 10.7042931526 1.738857557 18.8978957778
1678 1 40.5827 37.0418 7.02778 12 10.8670630507 1.7432259247 21.1008073266
1679 1 40.6567 35.4278 8.68712 12 10.750133854 1.741231695 19.5428541915
1680 1 38.939 37.0859 8.87844 12 10.7773657403 1.7477341858 19.2643484475
1681 1 0.0243116 38.9552 7.08027 12 11.1105300351 1.7724757955 23.5194892468
1682 1 1.76949 40.6738 7.11019 12 10.9407382223 1.7583795858 25.7806567224
1683 1 1.75279 38.8295 8.83092 12 10.7957051114 1.7699094597 24.0760634217
1684 1 3.22711e-06 40.709 8.81164 12 11.0795408079 1.7724757955 23.951513175
1685 1 3.56373 38.9114 7.11566 12 11.1212335433 1.7583795858 24.0187147958
1686 1 5.27271 40.827 7.04742 12 11.3506687937 1.7831583613 23.8800533653
1687 1 5.40065 38.8901 8.82781 12 11.1458993055 1.7831583613 22.0351512708
1688 1 3.51875 40.7282 8.82379 12 10.9963463073 1.7828670878 24.5334055904
1689 1 7.06552 38.9819 6.98762 12 10.9959991224 1.7570743142 21.5344287105
1690 1 8.79907 40.7701 7.08902 12 10.8007988977 1.7533474826 21.4909365868
1691 1 8.78338 38.8719 8.82921 12 11.1959478366 1.7515919907 19.5894150416
1692 1 7.0919 40.6755 8.8915 12 11.1785820057 1.7831583613 21.9007613433
1693 1 10.6537 38.91 7.19472 12 10.9475628467 1.7619773125 19.0671049483
1694 1 12.3826 40.6082 7.0179 12 11.2249521198 1.7562844594 19.3942256299
1695 1 12.3313 38.9256 8.91564 12 10.9736882647 1.7569951251 17.3854092767
1696 1 10.5784 40.7272 8.84157 12 10.9335376054 1.7486938349 19.7369267067
1697 1 14.1466 38.9223 7.0944 12 11.1118538779 1.7572355222 17.2637636955
1698 1 15.9491 40.5975 6.94765 12 10.8384723587 1.7507998373 17.907520976
1699 1 15.8731 38.8938 8.85892 12 11.1386266669 1.7891729713 15.6775213976
1700 1 14.133 40.599 8.94986 12 10.9943357881 1.7576657209 17.7573167126
1701 1 17.6386 38.819 6.94284 12 11.195763211 1.7581996685 15.9094395021
1702 1 19.2524 40.6872 7.07034 12 11.3455999969 1.7829034311 17.0221091867
1703 1 19.4964 38.9104 8.92331 12 10.9824298813 1.7829034311 14.6057364619
1704 1 17.5836 40.5633 8.80007 12 11.0203585952 1.7829034311 16.5370745298
1705 1 21.1851 38.9554 7.11038 12 11.3024507907 1.7773151746 15.1685406317
1706 1 23.0314 40.6788 6.99502 12 10.8407621841 1.7803151908 16.6669182315
1707 1 22.9009 39.0243 8.8553 12 11.3913653585 1.7802590494 14.3816504945
1708 1 21.1573 40.7391 8.88447 12 10.9079616232 1.781881912 16.0512710455
1709 1 24.8383 38.8974 7.02445 12 11.1954857974 1.7803151908 15.1749715939
1710 1 26.5117 40.6889 7.04811 12 10.7017042315 1.754438341 16.8643106538
1711 1 26.4548 38.8485 8.77727 12 11.1129142005 1.77505737 14.4223881144
1712 1 24.7561 40.6924 8.8028 12 10.9781867414 1.7754206791 15.8987916687
1713 1 28.1614 38.8403 7.01705 12 11.1036111221 1.764480404 15.6622093135
1714 1 30.0326 40.6594 7.00541 12 11.0660346823 1.7555637338 17.6672342993
1715 1 29.9796 38.8996 8.72736 12 11.4084704058 1.7845052525 15.4094741672
1716 1 28.2666 40.665 8.75018 12 10.9165123539 1.7636568932 16.3737558602
1717 1 31.849 38.8879 7.08374 12 11.2301146051 1.7597413113 16.9494128802
1718 1 33.6541 40.606 7.09684 12 11.1920611214 1.7754865972 19.0664390363
1719 1 33.5772 38.824 8.8271 12 11.2242962549 1.7584568858 16.9663753771
1720 1 31.7274 40.5953 8.88531 12 11.1739618243 1.7567584238 17.422983786
1721 1 35.3625 38.8081 7.1199 12 10.9465503865 1.7754865972 18.7062831731
1722 1 37.2294 40.5663 7.13119 12 10.8151301348 1.7752474433 21.0081845944
1723 1 37.081 38.7904 8.82888 12 11.0743987516 1.7557240215 19.0824748696
1724 1 35.5242 40.6135 8.88965 12 11.0903192884 1.7754865972 19.3569008592
1725 1 38.8717 38.823 6.998 12 10.7113037822 1.7474346124 21.0255860949
1726 1 40.6324 40.6222 7.02311 12 10.9912499389 1.7469318779 23.3252911104
1727 1 40.5719 38.7971 8.77722 12 11.1100917658 1.7724757955 21.4901280532
1728 1 38.9498 40.5861 8.86233 12 11.0950609861 1.7474346124 21.4893207539
1729 1 42.3487 -0.0203671 10.613 12 11.1105178584 1.7585988883 24.3781070824
1730 1 1.76429 1.75497 10.5734 12 11.152300387 1.7650559945 26.8500477913
1731 1 1.79561 42.3719 12.3961 12 11.3272786707 1.7614661874 25.2532141798
1732 1 42.4017 1.6748 12.3351 12 11.3213581379 1.7770695342 25.1425671561
1733 1 3.58979 -0.00670246 10.5927 12 10.800678061 1.76343603 25.1062112405
1734 1 5.29833 1.83973 10.5703 12 11.0855698235 1.7471955885 25.1720344009
1735 1 5.32959 -0.00321555 12.3476 12 10.8420584613 1.7471955885 23.546072994
1736 1 3.49218 1.70327 12.3264 12 11.1194003579 1.7623505402 26.0331972543
1737 1 7.11403 42.4321 10.6299 12 10.8390155337 1.7534928866 22.6351809929
1738 1 8.82693 1.79498 10.4988 12 11.103971265 1.7577171096 22.9532627515
1739 1 8.83002 -0.026992 12.369 12 10.893249966 1.7350469186 21.179513226
1740 1 7.11254 1.63437 12.282 12 10.9171079098 1.7471955885 23.5406506301
1741 1 10.5579 42.396 10.6169 12 10.9480991585 1.7478704022 20.4980686134
1742 1 12.2187 1.77746 10.5878 12 10.9778485969 1.7337101068 21.1420983046
1743 1 12.3033 42.402 12.3709 12 10.7354567628 1.7451332455 19.1983186218
1744 1 10.5679 1.79394 12.4194 12 11.1618204946 1.7411375377 21.6231084968
1745 1 13.9983 0.0568804 10.5999 12 11.0254720832 1.7568014202 18.8675049002
1746 1 15.8812 1.67121 10.6161 12 11.2197986118 1.7595659305 19.5997893034
1747 1 15.8701 42.3545 12.3697 12 11.2506499322 1.7681178424 17.6099026289
1748 1 14.0125 1.72711 12.4504 12 11.0318367724 1.7646039826 19.9396603115
1749 1 17.7117 42.2828 10.5255 12 11.2156045713 1.7452708616 17.4338644167
1750 1 19.4061 1.79664 10.6856 12 11.1599741189 1.7565551168 18.8882415867
1751 1 19.529 42.3812 12.3702 12 11.1813175156 1.7716870788 16.7032341223
1752 1 17.6343 1.61341 12.3714 12 11.3788323791 1.7625096291 18.6761692837
1753 1 21.2723 0.026838 10.6474 12 10.6862393451 1.7440476052 17.0277199193
1754 1 23.0855 1.71421 10.5748 12 10.7611794923 1.761022296 18.5456910473
1755 1 23.0251 0.130126 12.3541 12 10.6473520129 1.7311970265 16.5915653951
1756 1 21.195 1.75159 12.3062 12 10.914520579 1.7594659258 18.3079798383
1757 1 24.7303 0.0547874 10.6115 12 10.7575207237 1.743670957 16.9090612559
1758 1 26.5284 1.80571 10.5268 12 11.0226852383 1.7664301984 18.7364832155
1759 1 26.4485 0.0196986 12.3178 12 11.1312335944 1.7664301984 16.5788118818
1760 1 24.7477 1.79273 12.3566 12 10.983512082 1.7661676256 18.1792289294
1761 1 28.2639 -0.0242264 10.6515 12 10.8461204685 1.7435614913 17.2731429463
1762 1 30.0059 1.76499 10.697 12 10.9074785271 1.7531427781 19.3737348114
1763 1 30.02 9.19011e-04 12.3896 12 10.9724149467 1.7451018421 17.3707445883
1764 1 28.2874 1.73768 12.3898 12 10.8491915924 1.7664301984 18.5435569164
1765 1 31.7217 42.4008 10.5429 12 11.0872578718 1.7619182611 18.39787526
1766 1 33.6317 1.71912 10.6157 12 11.2056549372 1.7653757078 20.7099435577
1767 1 33.5436 0.0275032 12.3349 12 11.1561846744 1.7653896515 18.8136147493
1768 1 31.8299 1.6751 12.3886 12 10.9325604934 1.753278958 19.5483741907
1769 1 35.4684 42.3846 10.6435 12 11.1003000855 1.7653896515 20.1464158139
1770 1 37.081 1.80524 10.5768 12 11.044373791 1.7699095444 22.5034994067
1771 1 37.1592 -0.0153156 12.3887 12 11.1116474448 1.7721510829 20.6024800792
1772 1 35.3587 1.73301 12.3994 12 11.178122458 1.7522243799 21.0956702231
1773 1 38.9688 -0.0208275 10.622 12 11.1524893975 1.7533061008 22.1738512477
1774 1 40.5898 1.78644 10.5936 12 11.0550441547 1.7770695342 24.4934442558
1775 1 40.6164 42.3786 12.4489 12 10.9066619058 1.7770695342 22.6975200306
1776 1 38.8428 1.70523 12.3839 12 11.1005050884 1.7770191511 22.9145162108
1777 1 42.3434 3.63449 10.7012 12 11.1124343937 1.7670354904 24.9969472459
1778 1 1.73362 5.28722 10.6292 12 11.0846648177 1.7700340914 25.0843764849
1779 1 1.65113 3.50546 12.4632 12 11.1335657426 1.7721690104 25.9546735752
1780 1 -0.038486 5.36341 12.3741 12 10.8988217135 1.7721690104 23.4804818714
1781 1 3.43226 3.54314 10.6442 12 11.1214349049 1.7650559945 26.737698622
1782 1 5.19927 5.25353 10.5177 12 10.8593755162 1.7376795801 24.4094263495
1783 1 5.28698 3.55808 12.3785 12 11.0908481909 1.7503595777 25.094855966
1784 1 3.4953 5.34704 12.3108 12 11.0375666488 1.7721690104 25.0635506775
1785 1 7.01851 3.57475 10.6286 12 11.1336316505 1.7594399694 24.4305329016
1786 1 8.73961 5.41753 10.53 12 11.0692838868 1.7713748007 22.0272286628
1787 1 8.88933 3.55321 12.3558 12 11.1378098125 1.7673762369 22.9302192519
1788 1 7.00955 5.33416 12.254 12 10.9053663774 1.7673762369 22.7175545855
1789 1 10.5305 3.57999 10.5237 12 10.9301028041 1.7711824143 22.3696928957
1790 1 12.272 5.21423 10.4529 12 10.9490270267 1.7712975093 20.1502213773
1791 1 12.3152 3.55201 12.2505 12 11.165761091 1.7610780013 21.0718019569
1792 1 10.5549 5.31687 12.3644 12 11.1790747665 1.7713748007 20.5685861601
1793 1 14.1175 3.41391 10.575 12 11.1809782396 1.7646039826 20.754727306
1794 1 15.8492 5.23909 10.626 12 11.0410823074 1.7631414165 18.4626950483
1795 1 15.9059 3.3402 12.4694 12 11.140829828 1.7646039826 19.6891949934
1796 1 14.0513 5.24396 12.3021 12 11.1543306219 1.7646039826 18.7821931692
1797 1 17.5856 3.50534 10.6339 12 11.1880192208 1.7559671977 19.4618219595
1798 1 19.5535 5.27596 10.6917 12 10.8523440076 1.7477215444 17.3587687187
1799 1 19.375 3.53308 12.4217 12 11.2682162018 1.7594659258 18.5862596894
1800 1 17.6311 5.32692 12.3428 12 11.1324745546 1.7692267499 17.3235558014
1801 1 21.237 3.50137 10.6755 12 11.1956082283 1.7594659258 18.8001302461
1802 1 23.0943 5.33778 10.612 12 11.1569633305 1.7542765411 16.8647015626
1803 1 23.0295 3.54557 12.4069 12 11.4786749548 1.7586575916 18.2207705358
1804 1 21.2832 5.32907 12.4841 12 11.0199160762 1.7662869316 16.5736338062
1805 1 24.7678 3.55086 10.5669 12 11.096289347 1.7789954841 18.5175561126
1806 1 26.4701 5.26239 10.6796 12 11.1877043491 1.7446694509 16.9130128826
1807 1 26.5048 3.54835 12.3833 12 10.8854428312 1.7664301984 18.2469187074
1808 1 24.7818 5.34559 12.4975 12 10.9610712362 1.7542765411 16.3744937552
1809 1 28.2152 3.57709 10.6352 12 11.0274075557 1.7660599742 18.7858970095
1810 1 30.0466 5.26734 10.651 12 11.1322992387 1.7535294141 17.6285499562
1811 1 29.9924 3.46401 12.4085 12 11.0703023168 1.7548219193 18.9685027841
1812 1 28.256 5.22292 12.4323 12 11.2575258871 1.764800202 16.8605631886
1813 1 31.7988 3.45499 10.5947 12 11.1911174381 1.7544477495 19.8714324309
1814 1 33.5011 5.18595 10.6336 12 11.294178394 1.760441722 19.0170134438
1815 1 33.4955 3.45776 12.4233 12 11.06979554 1.7557818034 20.2094661278
1816 1 31.7591 5.28795 12.3534 12 11.1519918804 1.7718556189 17.8593146441
1817 1 35.3848 3.44998 10.5278 12 11.1072012348 1.7604245626 21.3923781153
1818 1 37.2131 5.30943 10.5589 12 11.1840640881 1.7585361947 20.7057754464
1819 1 37.1418 3.56591 12.4087 12 11.1742507267 1.754643636 21.7411099124
1820 1 35.3672 5.18455 12.3134 12 11.3406867707 1.786999123 19.5083037826
1821 1 38.8145 3.54262 10.6356 12 11.0247489753 1.7670354904 22.9767963797
1822 1 40.6805 5.34108 10.6118 12 10.7102230549 1.7667405155 22.694142035
1823 1 40.5994 3.49907 12.3744 12 11.1427232778 1.7770695342 23.7175944906
1824 1 39.0031 5.33759 12.4131 12 11.0425490606 1.7504504767 21.3097948752
1825 1 42.3626 7.09742 10.6625 12 10.9927441484 1.7380112643 22.5850295919
1826 1 1.64041 8.85005 10.6802 12 11.2306186555 1.7533582606 22.7680942703
1827 1 1.75123 7.08293 12.3561 12 10.9858525013 1.7709552947 23.6184057188
1828 1 0.0138428 8.8351 12.5523 13 11.1402526474 1.7635194731 21.1610853798
1829 1 3.39421 7.06308 10.5387 12 11.1476992189 1.7817959999 24.4605220742
1830 1 5.19147 8.81336 10.5435 12 11.2198055922 1.7870029056 22.0349105056
1831 1 5.21734 7.00289 12.2126 12 11.0197669678 1.7709565609 22.7607822174
1832 1 3.42239 8.8707 12.4553 12 11.2117518552 1.7709565609 22.8851261948
1833 1 6.97601 7.09929 10.6343 12 10.8973817797 1.7511716243 21.9170651804
1834 1 8.82917 8.8995 10.5489 12 11.0334901431 1.7551566228 19.467136308
1835 1 8.87547 7.07957 12.351 12 10.9390112348 1.7673762369 20.2376882174
1836 1 7.04436 8.81372 12.3028 12 10.8910688795 1.7671669585 20.2510683872
1837 1 10.586 7.12494 10.5378 12 11.0473912374 1.7713748007 19.6248864752
1838 1 12.3381 8.84086 10.5112 12 10.8265363402 1.7606271405 17.3133643554
1839 1 12.4315 7.05561 12.2126 12 11.0345161899 1.7538213089 18.1423074292
1840 1 10.5914 8.8054 12.3462 12 11.1542414079 1.7546876888 17.9002583056
1841 1 14.1308 6.96819 10.5551 12 11.1034813073 1.7649354878 17.7640012167
1842 1 15.9551 8.76117 10.6193 12 11.2113954355 1.7649666363 15.4298956307
1843 1 15.8359 7.07662 12.3407 12 11.0691866205 1.7653524026 16.3907269865
1844 1 14.0535 8.82916 12.2778 12 10.9049282039 1.7649666363 15.8101510904
1845 1 17.6722 6.90568 10.6216 12 10.9665801275 1.7631414165 16.3676876029
1846 1 19.345 8.70495 10.4908 12 11.0158768584 1.7505185829 14.3596779086
1847 1 19.4831 7.04439 12.3736 12 10.7467682398 1.764242791 15.2308868097
1848 1 17.7702 8.78514 12.3392 12 10.8482093924 1.7360098735 14.1257859845
1849 1 21.2216 6.97191 10.5946 12 11.0284554834 1.7662869316 15.5538105904
1850 1 22.9653 8.80229 10.54 12 11.0336132779 1.7940688385 13.6150389324
1851 1 23.0787 7.07317 12.2951 12 11.0687375851 1.794691035 14.7847733306
1852 1 21.1695 8.85074 12.3508 12 11.1885664102 1.794691035 13.2400788468
1853 1 24.7996 7.08786 10.5662 12 11.0970551775 1.7406045228 15.1086923458
1854 1 26.5448 8.85294 10.547 12 11.1039764122 1.7578165877 13.5494788172
1855 1 26.5224 7.17968 12.429 12 11.3912299392 1.764800202 14.6767226197
1856 1 24.7565 8.91189 12.2979 12 11.0594821082 1.794691035 12.903457357
1857 1 28.2634 7.06049 10.5679 12 11.2519449541 1.7609218978 15.5221413513
1858 1 29.8367 8.88832 10.5573 12 11.086733131 1.7683749819 14.3116575137
1859 1 30.0276 7.0722 12.3293 12 11.2795844317 1.7676366614 15.5974910409
1860 1 28.3106 8.87197 12.4475 12 11.1451813342 1.7683749819 13.3763780668
1861 1 31.6924 7.11033 10.5524 12 10.9048297941 1.760441722 16.5843431651
1862 1 33.6219 8.69609 10.5561 12 10.9473056668 1.760441722 16.1437601769
1863 1 33.5046 6.97609 12.3582 12 11.1730909909 1.786999123 17.0986646757
1864 1 31.8377 8.74787 12.2978 12 11.0988365938 1.7683749819 14.822207701
1865 1 35.3715 6.99175 10.6052 12 11.3233894869 1.786999123 18.3772990461
1866 1 37.0577 8.82646 10.611 12 10.839606316 1.7616606705 17.8659327285
1867 1 37.1053 7.05212 12.3837 12 10.9016832458 1.7857825278 18.8441090426
1868 1 35.2855 8.80011 12.3527 12 11.1156505683 1.7856570032 16.4225195478
1869 1 38.8475 7.09563 10.6188 12 11.0238396767 1.7589401794 20.2438451528
1870 1 40.7688 8.97466 10.6499 12 11.1521066457 1.7629132246 20.2168126045
1871 1 40.5989 7.14588 12.3897 12 10.8524477364 1.7386410496 20.9800187769
1872 1 38.7652 8.79586 12.3692 12 10.7438885968 1.7425391063 18.5619734274
1873 1 0.0863371 10.7529 10.6602 12 11.0940279854 1.7630823465 20.4679601687
1874 1 1.7495 12.4566 10.6395 12 11.1443968655 1.7631423077 20.9823621823
1875 1 1.73423 10.6765 12.4355 12 10.9984460598 1.7659711103 21.4891730205
1876 1 42.3757 12.5169 12.4314 12 10.9543027988 1.7659711103 19.0354105526
1877 1 3.43665 10.5305 10.5633 12 11.5681185004 1.7873879767 22.3535870704
1878 1 5.2394 12.4001 10.6236 12 11.4989156444 1.7873879767 19.8772396243
1879 1 5.39495 10.5284 12.3376 12 11.328434884 1.7873879767 20.4075120619
1880 1 3.58649 12.3196 12.443 12 11.5441982257 1.7671114862 20.8988442452
1881 1 7.00584 10.5862 10.4501 12 11.1118154055 1.7873879767 19.6117085405
1882 1 8.77197 12.3428 10.5476 12 11.2640432743 1.7714119864 17.204761704
1883 1 8.80498 10.5875 12.3165 12 11.1698907669 1.7551566228 17.8372619198
1884 1 7.08289 12.4826 12.2947 12 11.2094750584 1.7678017234 17.9661178962
1885 1 10.6422 10.5483 10.5449 12 10.9408202016 1.7703302462 17.1373574926
1886 1 12.4074 12.3607 10.6168 12 11.22321499 1.7703253914 14.7280849144
1887 1 12.4694 10.5808 12.3272 12 10.8585467466 1.7629767988 15.4351689976
1888 1 10.6319 12.2032 12.3447 12 11.4620752856 1.7902466833 15.4799137772
1889 1 14.0976 10.6113 10.4996 12 11.0619717623 1.7649666363 14.9972732453
1890 1 15.8733 12.3258 10.5583 12 11.2319268656 1.7680328488 12.7485322372
1891 1 15.866 10.6072 12.2689 12 10.9577937883 1.7455648337 13.4223456511
1892 1 14.2045 12.2954 12.384 12 10.6819500587 1.7357679681 13.0868327888
1893 1 17.6334 10.4526 10.6355 12 10.9699299491 1.7647426887 13.3390098818
1894 1 19.3944 12.342 10.6199 12 11.2832721481 1.7647426887 11.1937352731
1895 1 19.4895 10.4379 12.3574 12 11.1261784858 1.7518067609 12.0902311348
1896 1 17.645 12.3445 12.3587 12 11.1108576899 1.7647426887 11.1152634191
1897 1 21.2849 10.6245 10.5639 12 11.16811584 1.7518067609 12.2280920652
1898 1 22.9463 12.4269 10.6583 12 10.9141657331 1.7469016046 10.2619925837
1899 1 22.9349 10.6651 12.4 12 11.0546563713 1.7946257154 11.2987765376
1900 1 21.1471 12.3591 12.3385 12 11.2068276139 1.7705713011 9.9860731812
1901 1 24.7633 10.5791 10.6751 12 10.7485358578 1.7562881944 11.7773014338
1902 1 26.3528 12.3522 10.5308 12 10.9356067225 1.7595121974 10.328248377
1903 1 26.5455 10.6753 12.3892 12 11.1061591216 1.7578165877 11.2972824667
1904 1 24.6798 12.3557 12.3889 12 10.9732147754 1.762615253 9.5403769135
1905 1 28.3033 10.7185 10.7328 12 11.1373253452 1.7578165877 12.1382472871
1906 1 30.0846 12.4043 10.6249 12 11.0363861186 1.7466437815 11.4141958337
1907 1 30.0945 10.6366 12.3877 12 11.0385000035 1.7683749819 12.3835914831
1908 1 28.3261 12.4838 12.3789 12 10.9719966018 1.7453697549 10.0521498425
1909 1 31.7883 10.5522 10.5669 12 10.9898480516 1.7466437815 13.7400709788
1910 1 33.4489 12.4054 10.5618 12 11.2775242325 1.7845562879 13.1450219444
1911 1 33.5303 10.5717 12.3048 12 11.1507393084 1.7845562879 14.0549772519
1912 1 31.8101 12.4055 12.4004 12 11.1275884928 1.7842229735 11.6621418323
1913 1 35.3449 10.5213 10.6268 12 11.190834166 1.7640912368 15.5867011429
1914 1 37.2581 12.3942 10.5556 12 11.2001598038 1.7692373641 15.5651296839
1915 1 37.1294 10.6124 12.4227 12 10.9883218725 1.7672998206 16.1556667062
1916 1 35.3872 12.322 12.3019 12 11.1992818893 1.7845562879 13.8108926189
1917 1 38.8633 10.5279 10.6876 12 10.6730885302 1.7640912368 17.8437880175
1918 1 40.6184 12.3387 10.6456 12 10.9560754425 1.7738783249 18.0983243248
1919 1 40.6492 10.6107 12.3388 12 10.959973165 1.7659711103 18.7204119098
1920 1 38.92 12.3255 12.324 12 10.732406706 1.7692638631 16.3528212443
1921 1 0.0961349 14.079 10.5205 12 10.8905569963 1.7738783249 18.8788204837
1922 1 1.75756 15.8828 10.6259 12 10.8927842328 1.7435751636 19.6587215451
1923 1 1.78293 14.1992 12.4267 12 11.1787355669 1.7671114862 19.8906198957
1924 1 42.3661 15.8524 12.3289 12 10.9993060259 1.7425545861 17.6083297843
1925 1 3.55221 14.2673 10.5685 12 11.1065005408 1.7671114862 20.4219028714
1926 1 5.32805 15.8723 10.5537 12 11.1018608617 1.7841491342 18.2250105008
1927 1 5.30501 14.2076 12.3834 12 11.0829222831 1.7671114862 18.5282630046
1928 1 3.56357 15.896 12.4179 12 11.0165824548 1.7642347755 19.3743632083
1929 1 7.11753 14.127 10.4053 12 10.9814350094 1.7679300151 17.5292259146
1930 1 8.77761 15.9134 10.6289 12 10.9713918741 1.7555960207 15.2447195238
1931 1 8.88192 14.1704 12.3068 12 11.0522011011 1.7798765831 15.5798930162
1932 1 7.03962 15.8429 12.2464 12 10.6557127208 1.7273675759 16.3085050399
1933 1 10.5977 14.1054 10.5049 12 11.4513164678 1.7798765831 14.8286238628
1934 1 12.329 15.8023 10.5453 12 10.989482767 1.7568818441 12.5855646728
1935 1 12.4196 14.1154 12.4351 12 11.2764492831 1.7798765831 12.9363649547
1936 1 10.5674 15.9532 12.2854 12 11.3336421802 1.7732250435 13.2618345306
1937 1 14.0918 14.1401 10.5368 12 11.0892734177 1.7808938762 12.5004037762
1938 1 15.8577 15.8514 10.5744 12 11.1746417377 1.7680328488 10.3167112002
1939 1 15.7989 14.1593 12.2735 12 11.0758378482 1.7652342517 10.8002347344
1940 1 14.0815 15.8902 12.3666 12 10.7338903292 1.7567119287 10.6306110241
1941 1 17.7035 14.1 10.632 12 11.0955137274 1.7680328488 10.522544414
1942 1 19.3424 15.9187 10.6111 12 11.0856853915 1.7893943804 8.5894106845
1943 1 19.4198 14.2022 12.3547 12 11.0774404713 1.7559476186 8.8502629608
1944 1 17.5634 15.8826 12.3635 12 11.1312293537 1.7802855919 8.5127216386
1945 1 21.1072 14.0712 10.499 12 11.2031799624 1.7881774143 9.3971428871
1946 1 22.9153 15.8245 10.7159 12 11.2654305521 1.7893943804 7.3927607205
1947 1 22.9197 14.1632 12.3905 12 10.959688148 1.758020414 8.0185662629
1948 1 21.1029 15.9137 12.4617 12 11.1125685243 1.7892830197 6.8750874226
1949 1 24.7089 14.1637 10.5986 12 11.1596243453 1.7678764728 8.5888269158
1950 1 26.4361 15.9891 10.5879 12 11.4484625038 1.7850737268 7.2759359409
1951 1 26.531 13.983 12.4137 12 11.5553811651 1.7850737268 8.1622676517
1952 1 24.6006 15.8672 12.4507 12 11.3171454266 1.7850737268 6.2182347274
1953 1 28.2878 14.1329 10.6153 12 11.2877225651 1.7676643816 9.2801395033
1954 1 30.0307 15.8289 10.5453 12 10.8254284509 1.732172511 8.9134853267
1955 1 30.121 14.2551 12.3442 12 11.1210107607 1.7453697549 9.348609321
1956 1 28.3086 15.9199 12.4363 12 11.237044804 1.7844158485 7.0925045232
1957 1 31.8793 14.1303 10.4965 12 10.9811427661 1.7505045777 11.0869150298
1958 1 33.5338 15.8699 10.692 12 10.8995403823 1.7505045777 10.8450136174
1959 1 33.5574 14.1367 12.4168 12 10.8839793011 1.7845562879 11.3047551761
1960 1 31.8109 15.9597 12.3 12 11.1223368383 1.7337367325 8.9751472718
1961 1 35.3498 14.1475 10.7329 12 11.5484545535 1.7614212405 13.0860527132
1962 1 37.1437 15.8989 10.4917 12 11.1280402084 1.7640019808 13.5948557644
1963 1 37.187 14.1917 12.2998 12 10.9386873585 1.7692638631 13.921499969
1964 1 35.244 15.9468 12.3498 12 10.8839724323 1.7639665017 11.4102082184
1965 1 38.9174 14.1711 10.5251 12 10.9061945961 1.7698932598 15.8284055015
1966 1 40.6322 15.8746 10.5465 12 11.0858244862 1.7738783249 16.5098197675
1967 1 40.6198 14.1294 12.3967 12 10.9402489714 1.7738783249 16.7587932714
1968 1 38.9343 15.8615 12.3203 12 10.8692684653 1.7528159189 14.5362316082
1969 1 42.3573 17.599 10.4933 12 10.7460665058 1.7467273014 17.5279119796
1970 1 1.78077 19.3572 10.5668 12 11.0689088006 1.7467416424 18.891884051
1971 1 1.61964 17.6338 12.2451 12 11.0842791695 1.792849018 18.6737610436
1972 1 -0.0179052 19.4489 12.4257 12 11.0155859745 1.7467416424 16.7045805493
1973 1 3.44227 17.6152 10.5438 12 11.3238830171 1.7842926097 19.3560731155
1974 1 5.14068 19.4381 10.4987 12 11.4525947432 1.7842926097 17.3601310828
1975 1 5.26967 17.6074 12.4757 12 11.0986506466 1.7814572226 17.2130427203
1976 1 3.44264 19.3184 12.3756 12 11.4616143327 1.7725977256 18.5406108138
1977 1 6.99594 17.6084 10.6408 12 11.2084913654 1.7842926097 16.1036453264
1978 1 8.83892 19.3814 10.52 12 11.048839074 1.7720886071 13.9853953181
1979 1 8.75351 17.6668 12.3549 12 11.1402665034 1.7720730933 14.0290904907
1980 1 6.98301 19.5018 12.2372 12 11.1284416713 1.7720886071 15.1466621323
1981 1 10.5675 17.7083 10.4725 12 11.1914985062 1.7526904531 13.0580096476
1982 1 12.4059 19.4391 10.5125 12 11.1165455168 1.7531979614 10.9082169335
1983 1 12.3731 17.6202 12.2647 12 11.1910965289 1.7577881464 10.9589288854
1984 1 10.6134 19.4197 12.2727 12 11.4358628098 1.7708944741 11.7837198743
1985 1 14.0429 17.6123 10.6495 12 10.8982795406 1.7450054723 10.3464331213
1986 1 15.8631 19.568 10.521 12 10.6828813975 1.7831828622 8.2691058639
1987 1 15.8252 17.7453 12.3176 12 11.1557884183 1.7817103152 8.2829619926
1988 1 14.0816 19.4946 12.3169 12 11.1618828569 1.783955987 8.7082192387
1989 1 17.5907 17.7043 10.5782 12 11.0168101469 1.7464937516 8.2346411053
1990 1 19.4217 19.3938 10.5402 12 10.815404371 1.7487669953 6.4332466038
1991 1 19.4435 17.6434 12.3213 12 10.8838723956 1.7527162408 6.3602405338
1992 1 17.6404 19.4194 12.3008 12 11.2488671531 1.783955987 6.1355072897
1993 1 21.1634 17.729 10.5724 12 10.9808714502 1.7893943804 6.7646760613
1994 1 22.8549 19.4809 10.6551 12 11.1286013727 1.7771405654 5.046409024
1995 1 22.9471 17.7174 12.3755 12 11.2683865003 1.7890735545 4.9817159461
1996 1 21.0973 19.3995 12.5259 12 10.8700330108 1.7526812457 4.409068606
1997 1 24.6663 17.5714 10.6239 12 11.1945849614 1.7765972502 5.9164757473
1998 1 26.443 19.3982 10.5249 12 11.6184285828 1.8063416742 5.1851865843
1999 1 26.6544 17.6772 12.3873 12 11.2202599961 1.7770603964 5.0130885216
2000 1 24.7688 19.3052 12.3759 12 11.2634189819 1.7782719216 3.4549670156
2001 1 28.272 17.5497 10.5623 12 10.9056581342 1.8063416742 6.9025280913
2002 1 30.0618 19.3617 10.6294 12 10.6376165713 1.8060168133 6.809425542
2003 1 29.9969 17.7145 12.3206 12 10.9576731494 1.7337367325 6.7221757863
2004 1 28.2858 19.3978 12.3718 12 11.2990729637 1.8063416742 4.7303417833
2005 1 31.8087 17.7502 10.6845 12 10.7477512 1.7384258128 8.7046191243
2006 1 33.5331 19.4245 10.6239 12 11.2474069515 1.770284737 9.3096738789
2007 1 33.5969 17.7273 12.3775 12 10.9585988125 1.7411631461 9.1909236993
2008 1 31.7682 19.4755 12.4386 12 10.6781184852 1.7272830899 6.9593047133
2009 1 35.3485 17.535 10.521 12 11.1091146554 1.7701366523 11.4513555283
2010 1 37.0676 19.3668 10.5825 12 11.0310223772 1.770284737 12.3023621442
2011 1 37.1606 17.6302 12.2164 12 11.0695793808 1.7524330491 12.3037335403
2012 1 35.3936 19.3594 12.3825 12 11.4157890866 1.7819133146 10.1213005467
2013 1 38.8529 17.7432 10.5911 12 11.2121133767 1.7701696354 14.2987393915
2014 1 40.7253 19.3333 10.5958 12 10.898781136 1.7467416424 15.6127393327
2015 1 40.7435 17.6366 12.3469 12 10.9063421551 1.7538208445 15.5331079955
2016 1 38.9414 19.5048 12.3526 12 10.9881890151 1.7555348531 13.3865002947
2017 1 42.4075 21.117 10.6558 12 10.9392156369 1.7467416424 16.9696775521
2018 1 1.64348 22.9735 10.5105 12 10.7147715105 1.7316792497 18.5958087949
2019 1 1.68978 21.2669 12.3479 12 10.9346946817 1.7725977256 18.2032092821
2020 1 0.0773331 22.9686 12.3543 12 10.7854726484 1.7575875031 16.6157478844
2021 1 3.37076 21.2037 10.5546 12 11.1288912642 1.7725977256 18.7637513488
2022 1 5.29151 22.9881 10.56 12 10.6835002952 1.7418866681 16.7791287019
2023 1 5.21921 21.2882 12.2228 12 11.0520539743 1.7725485738 16.5605883423
2024 1 3.4743 23.0091 12.2838 12 10.9338410681 1.7668420186 18.1637792067
2025 1 7.02787 21.1383 10.5368 12 10.7272950335 1.7568312633 15.317259734
2026 1 8.76782 22.9293 10.5397 12 11.0814049364 1.7461667903 13.4918133817
2027 1 8.77569 21.212 12.2542 12 11.0679653638 1.7720886071 13.1317870605
2028 1 7.02834 22.9791 12.363 12 10.7300084019 1.7418866681 14.6634181478
2029 1 10.4849 21.154 10.364 12 11.2399886855 1.7648762128 12.2279863171
2030 1 12.3684 22.9298 10.4443 12 11.2435604221 1.7744610575 10.2413383841
2031 1 12.3865 21.2107 12.2642 12 11.2350853639 1.7744610575 9.7397997405
2032 1 10.5409 22.9369 12.2416 12 11.3918866716 1.7744610575 11.2908550627
2033 1 14.1401 21.2251 10.4526 12 10.6499654963 1.7507320295 9.0768309378
2034 1 15.8393 23.067 10.466 12 10.7898432192 1.7414094828 7.3137606363
2035 1 15.8182 21.3439 12.1691 12 10.9977143271 1.783955987 6.7533071918
2036 1 14.0893 22.9185 12.3166 12 10.823968452 1.7742666152 7.9260558981
2037 1 17.7024 21.2105 10.559 12 10.8677537184 1.736370825 6.5401239099
2038 1 19.5104 22.8842 10.6158 12 11.1708897637 1.7947000353 4.9424112346
2039 1 19.4348 21.1111 12.3284 12 10.8821311392 1.7564716569 4.2825594609
2040 1 17.6088 22.8868 12.2274 12 11.3186682445 1.7564716569 4.9525398687
2041 1 21.1075 21.2165 10.5426 12 11.0531024198 1.7524630975 4.6820381098
2042 1 22.9721 22.9756 10.6923 12 11.0410645353 1.7520279007 3.5167625774
2043 1 22.905 21.0133 12.5006 12 11.1463702495 1.7524630975 2.7171948353
2044 1 21.1084 22.9999 12.3906 12 11.1105335618 1.7564716569 2.6375808373
2045 1 24.6478 21.1395 10.7143 12 11.129278431 1.7771405654 4.0628506177
2046 1 26.5516 22.8157 10.5358 12 11.2653878272 1.7412129353 3.9375973793
2047 1 26.3946 21.1791 12.4377 12 11.47754479 1.772684581 2.7004501434
2048 1 24.6128 22.8991 12.3949 12 10.838437181 1.7602809055 1.9000871612
2049 1 28.3989 21.1613 10.4719 12 11.5997284461 1.8062273018 5.0990592957
2050 1 30.0902 22.9367 10.5109 12 11.1058949351 1.7716602359 5.8947677613
2051 1 30.0587 21.0682 12.4012 12 11.1017050187 1.7712488391 5.1195224734
2052 1 28.237 22.92 12.4204 12 11.341078594 1.772684581 3.2529386359
2053 1 31.7168 21.1648 10.5449 12 11.1924712452 1.776118992 7.4048508206
2054 1 33.6922 22.9354 10.6097 12 11.3001587152 1.776118992 8.8954537244
2055 1 33.5686 21.1763 12.3952 12 11.3082171617 1.7626013649 8.1110361789
2056 1 31.7362 22.8873 12.3906 12 11.287193693 1.7851296527 6.3901273816
2057 1 35.3571 21.2606 10.6582 12 10.9826870771 1.770284737 10.4679308754
2058 1 37.1542 22.9511 10.576 12 10.7613609058 1.7541793763 12.0872218108
2059 1 37.186 21.1691 12.2377 12 10.8949958786 1.7742902234 11.5235324652
2060 1 35.4247 22.9112 12.4059 12 10.7986470237 1.75584251 9.7926450104
2061 1 38.9203 21.151 10.6291 12 11.0071782881 1.7457295819 13.7038267921
2062 1 40.716 22.9753 10.5602 12 10.95515429 1.7468627373 15.3940070121
2063 1 40.6666 21.2994 12.2992 12 10.9205581198 1.7681981357 14.8403291736
2064 1 38.8633 22.9995 12.3281 12 10.6754109856 1.7418376671 13.0857273302
2065 1 42.4386 24.7315 10.5477 12 10.8643991253 1.7575865494 17.0800333137
2066 1 1.7477 26.4704 10.588 12 11.0256306027 1.7637770386 18.8288490466
2067 1 1.85396 24.7344 12.2818 12 10.762425763 1.7540447835 18.3960109048
2068 1 -0.0104307 26.4717 12.2576 12 11.1356241849 1.785426883 16.7027275817
2069 1 3.4693 24.6853 10.5482 12 10.8646271456 1.7633559578 18.4614181664
2070 1 5.27318 26.441 10.5457 12 11.0159297081 1.792958212 16.7962760249
2071 1 5.27778 24.6668 12.2958 12 11.0342801258 1.792958212 16.343356227
2072 1 3.45166 26.5205 12.3656 12 11.2479529174 1.792958212 18.2222328814
2073 1 6.95708 24.762 10.5135 12 10.7904461239 1.7450626072 15.1029341137
2074 1 8.83407 26.4309 10.6028 12 10.9013442407 1.7528933557 13.3906296951
2075 1 8.8275 24.6788 12.2263 12 10.8149556092 1.7465853884 12.8646696288
2076 1 7.04274 26.4407 12.3265 12 11.0682697513 1.7928001027 14.691969397
2077 1 10.6553 24.7986 10.594 12 11.1028193602 1.7503448725 11.5818752719
2078 1 12.3231 26.5558 10.5529 12 11.1497146017 1.7528933557 10.224851045
2079 1 12.4061 24.7504 12.3472 12 11.2232193317 1.7744610575 9.3582488057
2080 1 10.5307 26.4821 12.4415 12 11.034111889 1.7528933557 11.283771064
2081 1 14.102 24.7092 10.5696 12 11.0941589536 1.7609556121 8.4888352383
2082 1 15.834 26.4491 10.5217 12 11.049579328 1.762719773 7.2755067196
2083 1 15.9417 24.7217 12.3213 12 11.0779708824 1.7507107739 6.0419771025
2084 1 14.1927 26.5135 12.3165 12 10.6224832484 1.7493499414 7.8579809915
2085 1 17.6754 24.7532 10.4787 12 11.236380448 1.7711196027 5.7749784152
2086 1 19.331 26.4405 10.5269 12 10.7912587534 1.7704300159 5.0470925298
2087 1 19.4127 24.7411 12.3827 12 11.1379106486 1.7711196027 3.2005294449
2088 1 17.6565 26.3828 12.325 12 11.0853119064 1.7774321166 4.819757885
2089 1 21.2062 24.6863 10.5079 12 11.0648973903 1.7711196027 4.0945118011
2090 1 22.9782 26.4057 10.6425 12 11.0572750466 1.7729383867 3.648454151
2091 1 23.008 24.7998 12.2515 12 10.4942301831 1.7436419565 1.9511167955
2092 1 21.1195 26.468 12.2779 12 10.8438785018 1.7436419565 2.7061008644
2093 1 24.743 24.5655 10.6 12 10.7581605783 1.7388993186 3.6043101636
2094 1 26.4464 26.4205 10.5086 12 11.1980687545 1.7999737056 4.3510711132
2095 1 26.578 24.6023 12.3019 12 10.9949250917 1.737641884 2.5017180749
2096 1 24.7994 26.4623 12.3265 12 10.7644029142 1.7416521926 2.4066733518
2097 1 28.3228 24.6091 10.5814 12 11.2995233793 1.7999737056 4.8811695661
2098 1 30.1503 26.5962 10.5386 12 11.4251145569 1.7993146182 6.7283977055
2099 1 30.1207 24.6974 12.27 12 11.3450284479 1.7897776386 5.1953794153
2100 1 28.2743 26.4323 12.3704 12 11.3369352893 1.7999737056 4.2311131794
2101 1 31.786 24.6952 10.5042 12 11.5907527745 1.7864107847 7.474674031
2102 1 33.6176 26.4546 10.5793 12 11.261473896 1.7646785167 9.3715184215
2103 1 33.6846 24.5938 12.4138 12 11.3202952692 1.7864107847 8.2515799136
2104 1 31.8786 26.4982 12.4066 12 11.3764641097 1.7895569919 7.0167227442
2105 1 35.436 24.7404 10.5704 12 10.9969892394 1.7612618614 10.615908245
2106 1 37.2968 26.4487 10.4693 12 11.1677458829 1.7592694234 12.5326979826
2107 1 37.1495 24.7068 12.3742 12 10.9400139621 1.7541793763 11.4866334797
2108 1 35.3761 26.4508 12.249 12 11.240597074 1.7614054601 10.0739389579
2109 1 38.9366 24.6287 10.4718 12 10.6892509594 1.7541556938 13.8404633225
2110 1 40.6682 26.4548 10.4844 12 10.9593401081 1.7435697959 15.5698076506
2111 1 40.5785 24.6935 12.249 12 10.9667507745 1.7575875031 14.8002315109
2112 1 38.8994 26.3828 12.237 12 10.8715547871 1.7431697318 13.3290191498
2113 1 42.3466 28.3173 10.5357 12 10.914252029 1.748989488 17.4288375667
2114 1 1.63398 30.027 10.6158 12 10.8639726517 1.7671113477 19.4187004614
2115 1 1.72781 28.3089 12.2883 12 11.0331739063 1.7752466392 18.6695739837
2116 1 42.3469 30.0943 12.3924 12 11.0564364565 1.7650801101 17.4134874392
2117 1 3.44572 28.2556 10.4883 12 11.2274554435 1.7752777571 18.8224586446
2118 1 5.22173 30.0545 10.4882 12 11.2545492737 1.7665007135 17.5887103537
2119 1 5.27725 28.3135 12.3464 12 11.1658292054 1.7929560009 16.7139954014
2120 1 3.4729 30.064 12.3653 12 11.1677144038 1.7752777571 18.8732785819
2121 1 6.89493 28.1136 10.6136 12 10.8927759611 1.7439419817 15.4973488571
2122 1 8.72209 29.9951 10.6023 12 10.7104383922 1.7139555495 14.3748421956
2123 1 8.75138 28.2988 12.284 12 11.0126360827 1.747840281 13.3982068413
2124 1 6.94365 29.9765 12.2789 12 10.9786212237 1.7768071651 15.5956322035
2125 1 10.4848 28.3476 10.5851 12 10.9769186681 1.7528933557 12.2744683681
2126 1 12.4504 29.9788 10.7426 12 11.1301976754 1.7312065881 11.1596419247
2127 1 12.4015 28.1511 12.2937 12 10.9152091525 1.7605084153 9.9657811149
2128 1 10.5188 29.9535 12.3488 12 11.0769325259 1.7434011488 12.3260466399
2129 1 14.1347 28.1943 10.5027 12 10.7251806669 1.7451386677 9.156252693
2130 1 15.79 29.9124 10.5959 12 10.8417244823 1.7540816008 8.737145994
2131 1 15.8643 28.1454 12.3879 12 10.7520158827 1.7618561275 6.9544988362
2132 1 14.1608 29.9965 12.3763 12 10.8987260825 1.7404728046 9.2714411163
2133 1 17.5838 28.2619 10.6115 12 10.9324221343 1.762164387 6.7070295601
2134 1 19.3059 30.0142 10.4967 12 11.0539171947 1.7921733945 6.7349730361
2135 1 19.4459 28.2044 12.3096 12 10.8030954558 1.762164387 4.5782652588
2136 1 17.5877 29.9752 12.3163 12 11.008400394 1.7602311935 6.7477035685
2137 1 21.0571 28.1974 10.5795 12 11.228945911 1.7937034829 4.7817362749
2138 1 22.9315 30.1026 10.5042 12 11.2473606683 1.7937034829 5.7900033079
2139 1 22.9548 28.2432 12.1881 12 11.1414607949 1.7686905243 3.286270715
2140 1 21.1459 29.9423 12.3154 12 11.0224983906 1.7936986948 4.9595824165
2141 1 24.8062 28.2891 10.5848 12 11.0273893368 1.7418515089 4.826293444
2142 1 26.5398 29.9767 10.4959 12 10.8844720859 1.7643229351 6.5349615272
2143 1 26.5618 28.2633 12.2844 12 10.9704634017 1.7538036629 4.248897993
2144 1 24.6976 30.0641 12.2791 12 10.9028504097 1.7819714903 4.9676862729
2145 1 28.3056 28.2047 10.4942 12 11.0516218836 1.7999737056 6.1264976776
2146 1 30.0203 30.0206 10.5153 12 10.7861653841 1.7631575251 8.2427811097
2147 1 30.062 28.279 12.3361 12 11.2792078832 1.78960945 6.455498167
2148 1 28.3246 30.0739 12.244 12 11.3305781494 1.7652225171 6.4213387969
2149 1 31.8852 28.3466 10.5821 12 11.0196198375 1.7675548265 8.6571898177
2150 1 33.648 29.9848 10.6561 12 10.7893167573 1.7502831112 10.6872732554
2151 1 33.5949 28.246 12.4302 12 11.0229975512 1.7675548265 9.0171850828
2152 1 31.8495 30.0413 12.3301 12 10.8636046091 1.7675548265 8.728426348
2153 1 35.4763 28.3037 10.6311 12 10.9886017323 1.7592694234 11.3730330305
2154 1 37.2554 29.9767 10.6269 12 10.7770537279 1.7584254722 13.4478899667
2155 1 37.2021 28.1816 12.3074 12 11.1614155685 1.7769469448 12.139847031
2156 1 35.4159 30.0171 12.3941 12 11.0880409651 1.7810217706 11.3131471213
2157 1 38.9852 28.3053 10.5462 12 10.8332766122 1.7592694234 14.3872606799
2158 1 40.7487 30.0386 10.5859 12 11.0600293458 1.7522044008 16.453325249
2159 1 40.6098 28.1809 12.3776 12 10.9948661223 1.75287654 15.2555736093
2160 1 38.9016 29.9674 12.4627 12 11.3376271885 1.7590676339 14.2340884388
2161 1 0.0927014 31.8717 10.6507 12 10.9608422014 1.7543934893 18.6614154785
2162 1 1.74762 33.7005 10.5679 12 11.1266705675 1.7621314932 20.8814451352
2163 1 1.79532 31.8367 12.3798 12 11.0945331263 1.7650801101 19.7444747665
2164 1 42.4014 33.6037 12.4739 12 11.0627930639 1.7666886416 18.8735233664
2165 1 3.34862 31.8904 10.4829 12 11.0577624649 1.7661384495 19.9080572352
2166 1 5.24088 33.5236 10.5455 12 11.1841559378 1.7745653801 18.8916232759
2167 1 5.1766 31.7873 12.2731 12 11.3418821828 1.7768217333 17.8781973108
2168 1 3.53672 33.6081 12.3307 12 11.0849958535 1.7612881056 20.1028626186
2169 1 7.12354 31.8385 10.5413 12 11.1713638774 1.7770835733 16.5207253787
2170 1 8.94456 33.5621 10.6076 12 11.1593931849 1.7770835733 15.8305237599
2171 1 8.72588 31.6801 12.3955 12 11.0125846179 1.7768217333 14.6574681918
2172 1 6.9915 33.5243 12.4603 12 11.303692993 1.7770835733 17.0287097787
2173 1 10.5276 31.7492 10.652 12 11.2849213375 1.7502230108 13.6022258031
2174 1 12.4398 33.5953 10.5554 12 11.4361831261 1.7843967951 13.1716752343
2175 1 12.3365 31.7639 12.4034 12 11.1720898329 1.7843967951 11.6601389564
2176 1 10.5602 33.5545 12.3462 12 11.2912683614 1.7839211704 14.0535882901
2177 1 14.0632 31.7923 10.6113 12 11.199797746 1.7878462462 10.9722251526
2178 1 15.9124 33.6273 10.632 12 11.0140805708 1.7401782359 10.8800474092
2179 1 15.9068 31.8538 12.4072 12 11.1607501119 1.7484143775 8.9735031502
2180 1 14.1527 33.6491 12.3981 12 11.1054123142 1.7843967951 11.3481203105
2181 1 17.5422 31.7492 10.5865 12 10.8501400439 1.7560723071 8.7662047193
2182 1 19.2158 33.5936 10.5775 12 11.0624694121 1.7746138958 9.3936367725
2183 1 19.2791 31.8598 12.2945 12 11.1131226448 1.7557799041 7.1522662209
2184 1 17.646 33.5966 12.4431 12 10.8231757928 1.749764135 9.1982454165
2185 1 21.0476 31.7766 10.623 12 11.3352954431 1.7937034829 7.3208168682
2186 1 22.9105 33.6126 10.5839 12 11.2778948198 1.7609325675 8.7432364225
2187 1 22.8945 31.7621 12.2392 12 11.1556861716 1.7572497093 6.3814334571
2188 1 21.0591 33.5837 12.2265 12 11.0935671852 1.751014437 8.2044396286
2189 1 24.7889 31.7569 10.5887 12 11.0146824033 1.7631415837 7.3050562518
2190 1 26.5466 33.5468 10.5841 12 11.2069121142 1.7735163762 9.0787148982
2191 1 26.4203 31.7559 12.3248 12 11.1970014845 1.7643229351 6.6854941057
2192 1 24.7285 33.5877 12.3208 12 11.0733278071 1.7664171304 7.9768816866
2193 1 28.3297 31.7772 10.4564 12 10.9952441551 1.7743952292 8.49894357
2194 1 30.1416 33.5812 10.5815 12 11.0642297545 1.7756680759 10.577491111
2195 1 30.0998 31.8327 12.2589 12 10.9778494928 1.7652225171 8.6587605165
2196 1 28.2815 33.4703 12.3242 12 11.4061653218 1.7756680759 8.8007785372
2197 1 31.8494 31.727 10.5811 12 10.9452266468 1.7493989155 10.4751070235
2198 1 33.6702 33.4373 10.5493 12 11.1395780494 1.75797866 12.7589911116
2199 1 33.5508 31.7678 12.4577 12 10.9130431932 1.7498551868 10.9105937636
2200 1 31.8379 33.6458 12.32 12 11.377887381 1.7613252181 10.9736668153
2201 1 35.4372 31.7433 10.6985 12 10.6949945119 1.7393767331 12.8893778793
2202 1 37.0281 33.4459 10.7057 12 11.0842648869 1.7831978418 15.0113054275
2203 1 37.2168 31.7578 12.4351 12 11.154445103 1.7590676339 13.6422535192
2204 1 35.2791 33.5124 12.3716 12 10.8086414001 1.7330293395 13.2262894853
2205 1 38.9355 31.8273 10.558 12 11.1680181689 1.7831978418 15.6545842084
2206 1 40.7886 33.7067 10.5319 12 11.120576712 1.7802997331 18.078212639
2207 1 40.7205 31.8965 12.3354 12 11.2958151639 1.7590676339 16.6631205509
2208 1 38.9826 33.5575 12.388 12 11.4514230893 1.7831978418 16.0491927533
2209 1 -0.012646 35.4287 10.5477 12 11.0390172281 1.7667091179 20.281419664
2210 1 1.80863 37.1723 10.5546 12 10.7710973799 1.7589582097 22.683842551
2211 1 1.76821 35.356 12.4164 12 11.1853975138 1.7667091179 21.2809292947
2212 1 0.0879031 37.1307 12.3589 12 11.5222417446 1.7797634764 20.8595850221
2213 1 3.47701 35.3983 10.6729 12 11.0073938407 1.7589673063 21.2668682804
2214 1 5.31704 37.2142 10.7021 12 10.9291083764 1.7589673063 20.6517154895
2215 1 5.25966 35.3618 12.4798 12 11.0223764755 1.7522323246 19.4035679832
2216 1 3.48902 37.2063 12.2874 12 11.2503520529 1.7589673063 21.8554748855
2217 1 7.00426 35.3775 10.7206 12 11.2510154942 1.7770835733 18.3145787587
2218 1 8.75421 37.0598 10.6217 12 10.7777238082 1.7515919907 17.9048275378
2219 1 8.89413 35.3688 12.3734 12 11.17653614 1.7705731068 16.3830360388
2220 1 7.055 37.1318 12.4499 12 10.9031088842 1.7700016644 18.845783746
2221 1 10.5901 35.4128 10.5659 12 11.0534749694 1.7502213298 15.5753670881
2222 1 12.3712 37.0737 10.6874 12 10.9716850288 1.752915108 15.3945949388
2223 1 12.312 35.3293 12.3917 12 11.2674954278 1.7843967951 13.7545293747
2224 1 10.5188 37.084 12.42 12 11.0926360061 1.7691920127 16.1958606687
2225 1 14.0772 35.3975 10.6 12 11.0464852661 1.7811768604 13.1936115108
2226 1 15.7743 37.1957 10.6398 12 10.818648966 1.7863226412 13.6278021441
2227 1 15.9391 35.3921 12.322 12 11.0323147885 1.7802374431 11.5403629289
2228 1 14.1483 37.2088 12.4245 12 10.8505852151 1.7811768604 13.9406662946
2229 1 17.6073 35.396 10.5939 12 10.7821358011 1.7672220067 11.408234979
2230 1 19.4734 37.1142 10.504 12 10.6728437576 1.7672245504 12.3464817318
2231 1 19.3722 35.3414 12.3829 12 11.3734473403 1.7756746632 10.077098353
2232 1 17.6552 37.0963 12.3031 12 11.2369779061 1.7593168594 12.2241790818
2233 1 21.1361 35.3488 10.4809 12 10.9128017536 1.7672245504 10.5034744192
2234 1 22.849 36.9975 10.5908 12 11.0600119621 1.7577603063 11.8414785432
2235 1 22.8627 35.2574 12.3393 12 10.9692684464 1.7650232558 9.5756274084
2236 1 21.1456 37.1302 12.1956 12 11.1812419887 1.7577547123 11.501350536
2237 1 24.6615 35.3341 10.5882 12 11.0790996709 1.7663582677 10.3145244282
2238 1 26.4619 37.1103 10.5865 12 11.1340157724 1.7626761014 12.0833454147
2239 1 26.4939 35.3547 12.3386 12 11.4243673761 1.7664171304 9.8370767503
2240 1 24.5767 37.1132 12.3935 12 11.2130767662 1.7664171304 11.247269439
2241 1 28.3508 35.3658 10.5118 12 11.0759206002 1.7756680759 11.1327390622
2242 1 30.0611 37.0171 10.5651 12 10.9271479289 1.7845052525 13.1379107118
2243 1 29.9582 35.3757 12.3273 12 10.9415117964 1.7484816134 11.148514499
2244 1 28.2833 37.0898 12.297 12 11.0709784361 1.7793651795 11.928232202
2245 1 31.8733 35.3453 10.607 12 11.3117131017 1.7488524199 12.7831229801
2246 1 33.6244 37.2132 10.5508 12 11.1993062548 1.7711948215 15.1851196753
2247 1 33.6659 35.4245 12.3225 12 11.2677623891 1.7715369407 13.359880057
2248 1 31.689 37.1128 12.3401 12 11.189482116 1.7726967519 13.4478313022
2249 1 35.3263 35.3447 10.6137 12 10.6632739874 1.7525981396 15.0489857646
2250 1 36.992 36.9714 10.6264 12 10.9460413215 1.7524813206 17.2020150564
2251 1 37.0111 35.2943 12.3474 12 11.1547057333 1.7585075715 15.5627245775
2252 1 35.3408 37.13 12.3773 12 10.9503550431 1.7665100183 15.5847634605
2253 1 38.9268 35.3834 10.6165 12 11.2786314962 1.7831978418 17.5788314155
2254 1 40.7033 37.0312 10.4776 12 10.8407879805 1.7613905884 19.9127771432
2255 1 40.6731 35.3455 12.4241 12 11.3074752927 1.7667091179 18.3803719047
2256 1 38.8366 37.0573 12.3259 12 11.3149248111 1.790169052 17.9690960952
2257 1 -0.0198361 38.8691 10.6182 12 11.2352756832 1.7787648182 22.2303590898
2258 1 1.80373 40.7169 10.4003 12 11.0713136772 1.7491313353 24.7530167977
2259 1 1.86262 39.0138 12.2652 12 11.442864137 1.778924404 23.3422059113
2260 1 0.0142031 40.6798 12.2705 12 11.4460412196 1.7797634764 22.8899611422
2261 1 3.55476 38.9129 10.4675 12 10.865004943 1.7588695456 23.0502304759
2262 1 5.21278 40.684 10.6038 12 10.9296947369 1.7831583613 22.7907603258
2263 1 5.31394 38.9318 12.4152 12 11.1010280209 1.7688994608 21.2901968901
2264 1 3.62491 40.7011 12.3496 12 10.9118060058 1.7335094943 23.6921469865
2265 1 7.03061 38.8274 10.6761 12 11.0609889858 1.7699464316 20.2583339162
2266 1 8.84057 40.6174 10.6091 12 10.9171796681 1.7524477155 20.2065460953
2267 1 8.89378 38.8478 12.3818 12 11.0095417781 1.7700016644 18.5531352222
2268 1 7.06224 40.6684 12.3912 12 11.3000100405 1.7700016644 21.0978368098
2269 1 10.5138 38.8127 10.5852 12 11.1129664843 1.7486938349 17.8415046426
2270 1 12.3356 40.6208 10.6042 12 11.0450620903 1.7486938349 18.1164022602
2271 1 12.3628 38.8549 12.3577 12 11.2745881856 1.7576798499 16.2845193891
2272 1 10.4933 40.6767 12.3573 12 10.8305882205 1.7496292087 18.8249966441
2273 1 14.1138 38.7904 10.6173 12 10.6412397809 1.7569495549 15.7225583515
2274 1 15.8591 40.6748 10.5682 12 10.9684914021 1.7450390296 16.5516740813
2275 1 15.8571 38.881 12.3939 12 11.0610508918 1.7501812532 14.4910137086
2276 1 14.1286 40.6894 12.3285 12 11.2235755103 1.7674204576 16.8522226567
2277 1 17.6777 38.8859 10.5961 12 11.0098186717 1.746339503 14.3467405331
2278 1 19.4612 40.615 10.6553 12 10.9852209652 1.7823900116 15.4787469111
2279 1 19.3745 38.84 12.3758 12 11.0297247858 1.7585022682 13.3322005788
2280 1 17.6498 40.5826 12.4659 12 11.1853249517 1.7472061184 15.3785190012
2281 1 21.145 38.8652 10.5977 12 10.7826191812 1.7585022682 13.6697687702
2282 1 23.0289 40.66 10.5359 12 10.721567889 1.7578823724 15.247175072
2283 1 22.8905 38.9228 12.3787 12 10.8743111851 1.758476975 13.0558116108
2284 1 21.302 40.6571 12.3068 12 10.9528502556 1.7585022682 14.8565054186
2285 1 24.6551 38.7902 10.5626 12 11.2210245413 1.7754206791 13.4440103882
2286 1 26.4848 40.633 10.5543 12 11.3700758244 1.7626761014 15.3180235808
2287 1 26.383 38.985 12.3475 12 11.3834690044 1.7793651795 13.2206667875
2288 1 24.6294 40.6836 12.2748 12 10.868128997 1.7476834558 14.7279631407
2289 1 28.2719 38.74 10.5559 12 11.3492895134 1.7793651795 13.9668537055
2290 1 29.9194 40.6636 10.5768 12 10.9964086518 1.7551331778 16.1851475221
2291 1 29.9892 38.8502 12.3262 12 11.199896072 1.7773861062 14.1218898655
2292 1 28.2731 40.6378 12.4186 12 11.3129758615 1.7793651795 15.1719173476
2293 1 31.7658 38.8161 10.5922 12 11.3225455163 1.7670417403 15.3760296013
2294 1 33.5939 40.6253 10.5141 12 11.400206347 1.7653896515 17.780918712
2295 1 33.5211 38.9524 12.3789 12 11.462146474 1.7726967519 15.8821676129
2296 1 31.7078 40.6453 12.2757 12 11.3234366115 1.7726443493 16.4371879647
2297 1 35.4118 38.942 10.6768 12 11.0391154586 1.7557240215 17.4811889452
2298 1 37.1817 40.5702 10.621 12 11.0067410555 1.7721510829 19.7544036656
2299 1 37.1203 38.8629 12.3685 12 11.14200733 1.7718780797 17.9376127056
2300 1 35.3647 40.7368 12.369 12 11.1461824195 1.771864424 18.2939179161
2301 1 38.8937 38.7888 10.5971 12 11.0614256793 1.7613905884 19.6550540713
2302 1 40.6343 40.5911 10.6353 12 11.0214712309 1.7610119162 21.9943889808
2303 1 40.6384 38.7851 12.344 12 11.2386629076 1.7797634764 20.3521212381
2304 1 38.9473 40.6044 12.3773 12 10.9932452221 1.7721510829 20.3544308107
2305 1 -0.0279576 0.00863893 14.2161 12 11.2205679851 1.7620615806 23.6415756932
2306 1 1.68976 1.82986 14.1195 12 11.0966730998 1.7761041405 26.1302655727
2307 1 1.79659 0.0651642 15.9546 12 11.1181631344 1.7761041405 24.8322273959
2308 1 -0.0071974 1.79268 15.8534 12 11.0899916071 1.7854402504 24.7323825623
2309 1 3.49064 0.0686485 14.1911 12 11.0170115249 1.7606701045 24.7556629995
2310 1 5.2728 1.80041 14.057 12 11.2075287671 1.7641996318 24.6911524426
2311 1 5.31709 -0.0220236 16.0342 12 11.1305627204 1.7641996318 23.3089907074
2312 1 3.55602 1.78664 15.8768 12 11.3772187134 1.7761041405 25.8303715988
2313 1 7.0239 0.143387 14.2238 12 11.0551666709 1.7412610825 22.2798597386
2314 1 8.80992 1.81586 14.1761 12 10.9766635919 1.7591001604 22.4395842546
2315 1 8.87115 -0.0252811 15.8225 12 11.1377442606 1.7448681299 20.8963096106
2316 1 7.07895 1.78316 15.9177 12 11.0602390048 1.7641996318 23.4323828859
2317 1 10.6451 -0.0268424 13.9883 12 10.7353744037 1.7496012447 19.8932182254
2318 1 12.3969 1.67234 14.1734 12 11.1121362448 1.7538372577 20.3993984128
2319 1 12.2514 -0.0199458 15.9074 12 10.9975955297 1.7521919798 18.949077639
2320 1 10.5933 1.68476 15.8844 12 11.1521963395 1.7559330842 21.2725416382
2321 1 14.1073 42.3746 14.1812 12 11.0006709821 1.7681178424 18.0841737263
2322 1 15.8485 1.76772 14.0857 12 11.0500742593 1.7681178424 19.1044114033
2323 1 15.9184 42.3693 15.9089 12 11.1295912614 1.7679278233 17.2957938056
2324 1 14.1988 1.7914 15.8838 12 11.2306615059 1.7541256103 19.6622688767
2325 1 17.6384 42.3453 14.2086 12 11.2402928965 1.7717045205 16.8004621143
2326 1 19.4833 1.77105 14.1918 12 11.1965451993 1.7717045205 18.2419482057
2327 1 19.3896 42.4151 15.9262 12 11.1568109488 1.7803388717 16.4313458406
2328 1 17.7018 1.75115 15.88 12 11.1344296899 1.7625096291 18.5011078733
2329 1 21.1771 -0.00100192 14.0768 12 10.9477509292 1.7803388717 16.3266679368
2330 1 22.8281 1.69222 14.153 12 11.2549634556 1.7462878715 17.8947153764
2331 1 22.9444 0.00929086 15.9482 12 11.3531242822 1.7803388717 16.1119130007
2332 1 21.0802 1.83449 15.8779 12 10.9945856439 1.7803388717 18.0603644822
2333 1 24.7569 -0.0705468 14.0542 12 11.0023687678 1.7462878715 16.0950558767
2334 1 26.5225 1.79441 14.1592 12 10.9871332345 1.7659549742 18.0715386281
2335 1 26.4094 0.0301894 15.8675 12 11.034836292 1.7619925838 16.2281040341
2336 1 24.7517 1.8226 15.8195 12 11.201683294 1.7464066947 17.906245266
2337 1 28.2281 42.4285 14.0966 12 11.0614148013 1.7619925838 16.6175982569
2338 1 29.8808 1.771 14.2122 12 11.0146440137 1.7426345268 18.7249762902
2339 1 29.9705 0.0108614 15.8647 12 11.2310362537 1.7975608338 16.8654868278
2340 1 28.2343 1.76685 16.0588 12 10.8212428582 1.761436476 18.1867431174
2341 1 31.8615 0.00911861 14.1237 12 11.2078226541 1.7980558961 17.7248952031
2342 1 33.5244 1.81095 14.1615 12 11.0619459342 1.7596470454 19.9861456608
2343 1 33.5884 0.0481442 15.8835 12 11.4602859724 1.7980558961 18.1939109256
2344 1 31.7283 1.80344 15.9606 12 11.1332382296 1.7980558961 19.0799757783
2345 1 35.3558 42.3751 14.1504 12 11.0105499628 1.7634209304 19.2012413888
2346 1 37.0246 1.71211 14.1742 12 11.133371815 1.7656870448 21.5462576656
2347 1 37.0873 42.397 15.9143 12 11.0476928878 1.7658288905 19.9267415747
2348 1 35.3094 1.74537 15.9781 12 11.2685980081 1.7605032129 20.4776860618
2349 1 38.9809 42.3887 14.1384 12 10.9170896466 1.7658288905 21.3027867212
2350 1 40.6453 1.78654 14.1635 12 11.0800777481 1.7849628278 23.7390907662
2351 1 40.6056 42.3209 15.911 12 11.0554472044 1.7843815899 22.103255515
2352 1 38.8637 1.63016 15.9169 12 11.1343966349 1.7854402504 22.3115658226
2353 1 42.3119 3.61236 14.1834 12 11.0376125528 1.7502416147 24.5185064544
2354 1 1.76751 5.27473 14.2205 12 11.1790069433 1.7721690104 24.627274327
2355 1 1.74806 3.6156 15.928 12 11.178471681 1.7761041405 25.7254537956
2356 1 42.3714 5.31752 15.9467 12 10.9997325379 1.7422574673 23.2451884488
2357 1 3.47795 3.54477 14.0778 12 11.1840236055 1.7578002655 26.006405967
2358 1 5.35474 5.29391 14.1727 12 11.2124058862 1.7578002655 23.4585310425
2359 1 5.31788 3.58656 15.8926 12 11.0628015477 1.7637201634 24.5446020912
2360 1 3.6653 5.22988 15.9435 12 11.1759815485 1.7870898088 24.492697854
2361 1 7.11623 3.43542 13.9451 12 11.1779621192 1.760232067 23.7607503043
2362 1 8.73765 5.36192 14.0728 12 11.2263237685 1.7670359243 21.2594781044
2363 1 8.81075 3.59892 15.8922 12 11.1139412603 1.760232067 22.40944555
2364 1 7.07625 5.24364 15.9405 12 11.0968768564 1.7541759859 22.1456138842
2365 1 10.6182 3.6183 14.1422 12 11.2361520868 1.760232067 21.6216862712
2366 1 12.3033 5.33046 14.1538 12 11.13500906 1.7520768266 19.290873981
2367 1 12.3094 3.50243 16.0197 12 11.282938355 1.7559330842 20.7042698178
2368 1 10.6293 5.2882 15.8455 12 11.0390731418 1.7970996449 20.0117393231
2369 1 14.1003 3.52943 14.1131 12 11.1338245712 1.7643424102 19.9792711092
2370 1 15.7568 5.29174 14.0232 12 11.4097405317 1.7692267499 17.7112965177
2371 1 15.9373 3.58492 15.891 12 10.9434106082 1.7533204209 19.0837784784
2372 1 14.1394 5.26939 15.8691 12 11.2785004646 1.7520768266 18.2964085706
2373 1 17.7048 3.58086 14.1887 12 11.2344795862 1.7692267499 18.6398733949
2374 1 19.4537 5.37042 14.1017 12 11.0064950125 1.7568930872 16.5094905217
2375 1 19.2803 3.64788 15.9544 12 11.0479125258 1.7500919966 18.0925694526
2376 1 17.5065 5.39972 15.9151 12 11.0272454149 1.7690360491 16.8466429068
2377 1 21.1904 3.58777 14.1886 12 11.2229089492 1.7594659258 17.9993320769
2378 1 22.9649 5.49037 14.1329 12 11.0482821281 1.752545098 16.0438119342
2379 1 22.9111 3.59369 15.8678 12 11.2751580218 1.7432273439 17.8017285367
2380 1 21.1701 5.34947 15.9513 12 11.041114461 1.7798159196 16.1302682943
2381 1 24.7891 3.53755 14.1658 12 11.0769906566 1.7432273439 17.9926138112
2382 1 26.5387 5.30641 14.1494 12 10.7926867256 1.7593749008 16.3240624141
2383 1 26.5313 3.57989 15.8844 12 10.7845785804 1.7531356976 17.8874074222
2384 1 24.7582 5.29096 15.9056 12 11.1668122655 1.7497850725 16.0968566438
2385 1 28.2531 3.51378 14.2095 12 10.8425602074 1.7591277197 18.3387669264
2386 1 30.0591 5.24472 14.2328 12 11.3804298484 1.7718556189 17.1103653628
2387 1 30.0485 3.5256 15.9799 12 10.8929386413 1.7589119006 18.6027903125
2388 1 28.1513 5.33542 15.9418 12 10.9290919717 1.7595841777 16.3932220568
2389 1 31.7743 3.43438 14.1512 12 11.1791644397 1.7718556189 19.3894920423
2390 1 33.5973 5.27839 14.14 12 11.2401099044 1.7718556189 18.4087553209
2391 1 33.571 3.55734 16.0509 12 11.1267800465 1.7601956998 19.8432797153
2392 1 31.8339 5.26424 15.9608 12 11.0294185938 1.7707361417 17.5809035156
2393 1 35.32 3.55412 14.114 12 11.2183674291 1.7706009595 20.6907546985
2394 1 37.1404 5.40043 14.0958 12 11.0740009077 1.7711697528 19.985520574
2395 1 37.1405 3.42899 15.9764 12 11.3244627953 1.7589636692 21.5905822305
2396 1 35.3406 5.22851 15.8463 12 11.0527099476 1.7711697528 19.1400052617
2397 1 38.8167 3.46721 14.1769 12 11.2536169283 1.7608391387 22.5086779898
2398 1 40.6 5.31477 14.1879 12 10.8416529184 1.7502416147 22.1169474045
2399 1 40.6001 3.56431 15.9154 12 11.0187792435 1.7854402504 23.415577149
2400 1 38.8503 5.3406 15.881 12 10.8994633477 1.7733159087 20.9419063008
2401 1 42.3241 7.02364 14.0251 12 10.9560062554 1.7555317955 22.0841926522
2402 1 1.79676 8.93986 14.2004 12 10.8716181632 1.7555317955 22.3123795081
2403 1 1.76988 7.04703 15.8488 12 11.2523869454 1.7870898088 23.4009873897
2404 1 42.3397 8.74392 15.7439 13 11.1994335306 1.7540390827 20.8843950068
2405 1 3.55173 7.04946 14.0889 12 11.3102180561 1.7870898088 23.5792454427
2406 1 5.25778 8.90763 14.0911 12 11.0673290663 1.7709565609 21.1125038911
2407 1 5.39989 7.11172 15.895 12 11.3258748275 1.786179077 21.9509883619
2408 1 3.56337 8.7993 15.8537 12 11.1084805907 1.7870898088 22.27746544
2409 1 6.93545 7.10706 14.0089 12 11.0389130067 1.741699431 21.1149234124
2410 1 8.73495 8.72935 14.0867 12 11.0296439056 1.7548936781 18.7263404285
2411 1 8.80814 7.03128 15.8807 12 11.3696880016 1.761584371 19.6774718411
2412 1 7.15942 8.85026 15.8345 12 11.1039511875 1.7752975314 19.4939111919
2413 1 10.625 7.06114 14.1569 12 11.1559656938 1.7589225354 18.7982233009
2414 1 12.35 8.81045 14.0879 12 10.906272187 1.7631301466 16.4269099524
2415 1 12.3206 7.04727 15.919 12 11.2651592918 1.7807875582 17.6298176665
2416 1 10.6531 8.88724 16.0121 12 11.1975465311 1.7636692295 17.0716696315
2417 1 13.9998 7.20543 14.0061 12 11.061038385 1.7662939701 16.8390572372
2418 1 16.0193 8.79965 14.0395 12 11.1396786465 1.7662939701 14.4678484081
2419 1 15.8066 7.08027 15.8892 12 11.2175365162 1.7662939701 15.9280026531
2420 1 14.1625 8.80351 15.8019 12 11.1112134064 1.7607240315 15.2013281426
2421 1 17.7714 7.09068 14.1129 12 11.0833666461 1.7692267499 15.3086636207
2422 1 19.4513 8.74157 14.2264 12 10.8827348675 1.7469615925 13.242697428
2423 1 19.4255 7.04871 15.9579 12 10.8874938206 1.7804937941 14.7374114614
2424 1 17.5047 8.89291 15.9002 12 11.0090199032 1.7553624442 13.5751087935
2425 1 21.2052 7.15518 14.1518 12 10.9799980103 1.7804937941 14.4827300757
2426 1 22.8632 8.85558 14.164 12 11.2624708673 1.794691035 12.7061455913
2427 1 22.9804 7.06676 16.0079 12 11.3860209192 1.7804937941 14.3252671632
2428 1 21.1859 8.9186 16.0841 12 10.8370124452 1.7804937941 12.5802209302
2429 1 24.7667 7.1126 14.1444 12 11.0262090598 1.746755642 14.432488215
2430 1 26.5208 8.92874 14.1096 12 11.1589206846 1.7571752292 12.7418956195
2431 1 26.382 7.05819 15.913 12 11.1332151623 1.7571752292 14.4216847237
2432 1 24.6555 8.83661 15.9229 12 11.2515379749 1.7700900665 12.5614580222
2433 1 28.3686 7.07406 14.273 12 11.2971741361 1.764800202 14.8911806788
2434 1 30.0682 8.83365 14.137 12 11.0283144919 1.7672370436 13.761544432
2435 1 30.0676 7.10859 15.9779 12 10.9852903928 1.7614901165 15.215371638
2436 1 28.2925 8.92508 15.8184 12 10.8907891693 1.7614901165 12.9593634308
2437 1 31.8349 7.01616 14.1389 12 11.2728759246 1.7710135662 16.1210398688
2438 1 33.512 8.80057 14.0884 12 10.9162897812 1.7634059822 15.2264738982
2439 1 33.6608 7.04263 15.9069 12 11.0566884863 1.7634059822 16.7551401038
2440 1 31.8068 8.93067 15.9051 12 11.1863891804 1.7705742432 14.2418403396
2441 1 35.3861 7.10079 14.1698 12 11.1655429309 1.786999123 17.6144724879
2442 1 37.0836 8.85771 14.163 12 10.8357329187 1.7425391063 17.1628679429
2443 1 37.0916 7.06632 15.8914 12 10.8609717637 1.7560870424 18.5095183736
2444 1 35.3023 8.95079 15.8917 12 10.7868442702 1.7522370448 15.9384326382
2445 1 38.8111 7.13308 14.1321 12 10.5723653458 1.7386410496 19.5857766788
2446 1 40.4783 8.84874 14.1441 12 10.9868866058 1.7573772476 19.4885640337
2447 1 40.5557 7.06444 15.8636 12 10.962757381 1.7573772476 20.7274586714
2448 1 38.7561 8.88742 15.9166 12 11.1409946003 1.7573772476 18.1665814855
2449 1 42.3834 10.7003 14.2601 12 10.8577565806 1.7659711103 19.7892731254
2450 1 1.73879 12.3151 14.1597 12 10.8912062834 1.7631043526 20.4589246219
2451 1 1.68743 10.6014 15.9634 12 10.7732435957 1.7447930821 21.2232119055
2452 1 0.0305159 12.3476 15.962 12 10.5558461467 1.7442213523 18.8937363647
2453 1 3.46255 10.6302 14.2434 12 10.8758651299 1.7394150031 21.5230263558
2454 1 5.38948 12.3078 14.1585 12 11.2404486562 1.7560378443 19.0528992753
2455 1 5.27804 10.5987 15.8603 12 11.2183653424 1.7752975314 19.8404990564
2456 1 3.54121 12.4443 15.9735 12 10.9595979956 1.7447930821 20.3250235643
2457 1 7.10861 10.587 14.052 12 11.0352261417 1.7752975314 18.6670036286
2458 1 8.85507 12.4107 14.0065 12 11.1684781403 1.7861420152 16.2328048421
2459 1 8.85902 10.635 15.8409 12 10.9195937741 1.7736821327 17.0469970458
2460 1 7.15709 12.3929 15.903 12 10.9199781624 1.7752975314 17.2810745499
2461 1 10.5652 10.4642 14.1562 12 11.3699128503 1.7902466833 16.2490360408
2462 1 12.4897 12.326 13.9937 12 11.1485286219 1.7902466833 13.6975754874
2463 1 12.3409 10.672 15.851 12 11.1111640405 1.7631301466 14.6578696396
2464 1 10.5148 12.4704 15.8989 12 11.0906378835 1.7902466833 14.5984708818
2465 1 14.1545 10.5616 14.1584 12 10.8458389214 1.7607739872 13.9819554694
2466 1 15.8768 12.3224 14.0983 12 10.8989432352 1.7444914064 11.6025343307
2467 1 15.8587 10.572 15.8719 12 10.7770739002 1.7747897288 12.8229606314
2468 1 14.2603 12.3198 15.8711 12 11.0222462292 1.7742601859 12.2063357672
2469 1 17.6354 10.6537 14.0483 12 10.9118292138 1.7477019023 12.1149084259
2470 1 19.3244 12.2943 14.0802 12 11.0229327193 1.7702272386 9.9775600646
2471 1 19.3388 10.5454 15.8454 12 10.9066546951 1.7477019023 11.3908335861
2472 1 17.6604 12.3041 15.9153 12 11.1019816853 1.7383796606 10.4362872914
2473 1 21.1367 10.5375 14.1736 12 10.9067054326 1.7705713011 11.1795579407
2474 1 22.9205 12.391 14.1508 12 11.1250003124 1.7705713011 9.2216946068
2475 1 22.873 10.6156 15.8934 12 11.1115370221 1.7532491843 10.7850262702
2476 1 21.0638 12.3111 15.8771 12 11.1461574417 1.7705489423 9.2537448096
2477 1 24.718 10.5522 14.0795 12 11.2011369816 1.7532491843 11.011323798
2478 1 26.5247 12.3512 14.1846 12 11.0536004012 1.7551839336 9.3683532987
2479 1 26.5857 10.5611 15.9371 12 10.7878322991 1.7571752292 10.9877312718
2480 1 24.7576 12.335 15.8645 12 11.2831437271 1.7649553291 9.0821585898
2481 1 28.4151 10.7129 14.1795 12 10.8625857564 1.7301872832 11.4255291875
2482 1 30.0782 12.4528 14.2062 12 11.0024385564 1.7702790847 10.4604537212
2483 1 29.9711 10.6375 15.905 12 10.7827109725 1.7612568422 11.930925911
2484 1 28.2618 12.3503 16.0066 12 10.6974401638 1.7552489073 9.6889809659
2485 1 31.8311 10.5903 14.0449 12 11.1304793371 1.7702790847 12.8894422891
2486 1 33.6134 12.4352 14.1296 12 11.0560016717 1.7844842147 12.2409989576
2487 1 33.5679 10.5421 15.8356 12 10.7283520837 1.7523650782 13.6544546975
2488 1 31.7085 12.3568 15.943 12 11.0521924465 1.7702790847 11.1438805205
2489 1 35.2021 10.5608 14.1287 12 10.9913182724 1.7556548412 14.6758816713
2490 1 37.0533 12.4071 14.092 12 10.8654781501 1.7692638631 14.5899057626
2491 1 37.1628 10.6142 15.815 12 10.9749731266 1.7287830254 15.8169679847
2492 1 35.356 12.3681 15.8556 12 11.0594053028 1.75775571 13.3014234657
2493 1 38.8953 10.6819 14.0402 12 10.8459677379 1.7503202286 17.103382712
2494 1 40.6999 12.336 14.1543 12 10.8066175384 1.7504430169 17.4921625362
2495 1 40.6989 10.5658 15.9945 12 11.10220469 1.7573772476 18.4623645731
2496 1 38.8773 12.2654 15.871 12 10.7749480378 1.7317947289 15.9787950814
2497 1 0.0139144 14.0974 14.2442 12 11.0518413403 1.7425545861 18.1073866679
2498 1 1.80472 15.905 14.1253 12 11.1004107293 1.792849018 19.073657095
2499 1 1.73512 14.1365 15.8824 12 10.9079076216 1.753739275 19.5814449879
2500 1 42.3696 15.9691 15.878 12 11.0250550612 1.7767250237 17.221195119
2501 1 3.59791 14.096 14.1621 12 11.088388687 1.7652521352 19.7829238409
2502 1 5.34975 15.9422 14.1794 12 10.6154403301 1.7416557707 17.4615194444
2503 1 5.3576 14.1615 15.8971 12 10.5670215942 1.7416557707 17.9398554883
2504 1 3.66279 15.8663 15.8276 12 10.7267985922 1.753739275 18.843737157
2505 1 7.07541 14.1268 14.0948 12 10.810762923 1.7416557707 16.7321927052
2506 1 8.8051 15.8281 14.0114 12 10.8524478271 1.7601147976 14.449053265
2507 1 8.78891 14.1464 15.8922 12 10.853873173 1.7611249455 14.9705489287
2508 1 7.18797 15.8097 15.8782 12 10.7127119862 1.7530577318 15.5989121933
2509 1 10.6539 14.1448 14.1778 12 11.1621633144 1.7881790701 13.7784505388
2510 1 12.4194 15.905 14.1485 12 10.9027125767 1.7615761055 11.3825425819
2511 1 12.3383 14.0535 15.9216 12 11.0558840592 1.7734072136 12.2032752006
2512 1 10.6023 15.8345 15.8029 12 11.0126344815 1.7667631059 12.5796555064
2513 1 14.1561 14.1089 14.1505 12 10.9798347329 1.7679860002 11.3132778816
2514 1 15.7859 15.9622 14.0814 12 11.2291578021 1.7802855919 8.9687705076
2515 1 15.9753 14.1587 15.9451 12 11.2584109566 1.7742601859 9.7367396354
2516 1 14.0169 15.8439 15.9044 12 11.1313354169 1.7742601859 9.798370925
2517 1 17.6271 14.1162 14.1259 12 11.4396635902 1.779922872 9.1714366936
2518 1 19.3913 15.9878 14.085 12 10.930530542 1.7801600113 6.7438039518
2519 1 19.4031 14.13 15.9153 12 11.1836214147 1.7552187243 8.0197600725
2520 1 17.6196 15.9029 15.9224 12 11.1400762879 1.7802855919 7.4050773219
2521 1 21.1253 14.0744 14.2071 12 11.1664968571 1.7705713011 7.7831976974
2522 1 22.861 15.8852 14.2046 12 11.0855363989 1.7888796368 5.8230244591
2523 1 22.9218 14.1312 16.0065 12 10.9840303627 1.7441851459 7.2676524162
2524 1 21.1991 15.8553 15.9367 12 10.648623887 1.7505036229 5.7710947818
2525 1 24.6054 14.119 14.1776 12 11.1695142708 1.7615913191 7.4549120127
2526 1 26.4795 15.876 14.136 12 11.3381287432 1.7850737268 5.9545986824
2527 1 26.5279 14.1715 15.8603 12 10.8137381458 1.7552489073 7.4529959145
2528 1 24.7675 15.8133 16.0302 12 10.8519617495 1.7543018276 5.602733449
2529 1 28.2773 14.0593 14.2109 12 10.9765375891 1.7658995806 8.2674773005
2530 1 30.0073 15.8655 14.1575 12 11.1911553023 1.7658995806 7.4411739245
2531 1 29.9998 14.1844 16.0354 12 10.8994894428 1.7412085217 8.7290950367
2532 1 28.2344 15.8611 15.9816 12 10.8038839972 1.7711492157 6.4579790645
2533 1 31.8291 14.1808 14.2724 12 11.0322396955 1.7683243178 9.7839256274
2534 1 33.6047 15.8749 14.2203 12 11.0112946808 1.7660271381 9.7405481495
2535 1 33.5818 14.151 15.8162 12 10.7394786124 1.7552948576 10.7875975197
2536 1 31.7324 15.8982 15.98 12 11.2080647419 1.7648437742 8.2529580383
2537 1 35.355 14.0811 13.9631 12 10.8344964649 1.7662726756 12.2471610782
2538 1 37.1351 15.8798 13.9878 12 11.2758528355 1.7662726756 12.6437365935
2539 1 37.1923 14.0102 15.8374 12 11.1049764888 1.7466188876 13.5815431077
2540 1 35.3704 15.6718 15.9317 12 11.2946946153 1.7662726756 11.1322442106
2541 1 38.8943 14.0675 14.0935 12 10.8931953358 1.7398632738 15.0525171957
2542 1 40.6016 15.8127 14.1553 12 10.8336199804 1.7418562596 15.730830615
2543 1 40.535 14.0212 15.9317 12 11.0051541357 1.7405132151 16.3855258187
2544 1 38.8662 15.8994 15.9125 12 11.0654684633 1.7602633546 14.0321513267
2545 1 42.3788 17.5669 13.9874 12 10.8999233173 1.792849018 16.8291895871
2546 1 1.70805 19.4804 14.1842 12 11.3226663515 1.792849018 18.1315060052
2547 1 1.73549 17.6258 15.8479 12 11.3160365839 1.7913784554 18.4435290112
2548 1 42.3542 19.3981 15.909 12 11.1488653963 1.7744773481 16.3067101423
2549 1 3.53676 17.642 14.1843 12 11.1919371869 1.7928085959 18.6044003708
2550 1 5.40675 19.4959 14.0096 12 11.0462739625 1.7654522968 16.3626612688
2551 1 5.3817 17.6926 15.8538 12 11.232720588 1.7426525907 16.663609
2552 1 3.55271 19.4801 15.9156 12 11.4351707064 1.7426525907 18.0517161712
2553 1 7.07512 17.5745 14.0503 12 10.9413408463 1.7294411924 15.2973760902
2554 1 8.80518 19.4709 14.0601 12 11.4973504051 1.7720886071 13.0826925911
2555 1 8.82775 17.5526 15.7984 12 11.4108856398 1.7667586461 13.4531342687
2556 1 7.05537 19.4671 15.8042 12 11.2985812241 1.7415408144 14.6240190137
2557 1 10.6543 17.6708 14.144 12 11.4266030687 1.7667631059 11.9790763878
2558 1 12.3648 19.5155 14.1346 12 11.2843331443 1.7577881464 9.7064955376
2559 1 12.3653 17.6661 15.8634 12 11.0555994962 1.7667631059 10.1819832811
2560 1 10.5058 19.528 15.8636 12 11.1403538387 1.7640728609 11.2584475514
2561 1 14.1557 17.6438 14.1219 12 10.9809000855 1.7577881464 9.0236434678
2562 1 15.782 19.4491 14.1312 12 11.39527829 1.783955987 6.7223856949
2563 1 15.8613 17.6669 15.9154 12 11.1797047367 1.7628706413 7.2731522498
2564 1 14.0608 19.4446 15.9072 12 11.1306085345 1.7713762216 7.9236306592
2565 1 17.6968 17.7032 14.06 12 11.303973069 1.7802855919 6.5119527091
2566 1 19.4282 19.4742 14.1472 12 10.697540668 1.7447215965 4.1689775805
2567 1 19.4863 17.6434 15.808 12 10.8050481568 1.7530524677 4.9670797619
2568 1 17.6526 19.3998 15.9057 12 11.0364815068 1.7728809803 4.866002383
2569 1 21.1833 17.6438 14.189 12 10.7650115839 1.7890735545 4.5755829036
2570 1 22.9618 19.4651 14.2525 12 11.0312835577 1.7890735545 2.5702080652
2571 1 23.0087 17.6031 15.9818 12 10.8541500852 1.7888349653 3.8056172296
2572 1 21.2309 19.4547 15.8436 12 10.7707486802 1.7392338498 2.5155919441
2573 1 24.7596 17.616 14.1943 12 11.3065317321 1.7890735545 3.9954490799
2574 1 26.5544 19.4184 14.15 12 11.2622945671 1.7781969663 2.8422189904
2575 1 26.4375 17.5899 15.9732 12 11.0285167863 1.7711492157 4.1666328091
2576 1 24.7738 19.3527 15.9176 12 11.1676106161 1.7782719216 2.0862305996
2577 1 28.2982 17.6558 14.2542 12 11.0819599808 1.7725086 5.0951788558
2578 1 30.1065 19.314 14.1883 12 10.9594555478 1.7725086 5.0032306011
2579 1 29.9881 17.6443 15.9821 12 11.0164936694 1.7709477134 5.7922655349
2580 1 28.2956 19.4238 16.0185 12 11.0166022794 1.7714158918 3.3486392915
2581 1 31.8275 17.6087 14.1111 12 11.1708578939 1.7420624299 7.3353336331
2582 1 33.5177 19.4731 14.1387 12 11.069786011 1.7812224652 7.8834633551
2583 1 33.6215 17.6756 15.9615 12 11.3399484303 1.756247285 8.5723547302
2584 1 31.8723 19.294 15.8874 12 11.0765138967 1.7545363017 6.2582169226
2585 1 35.2983 17.5989 14.2005 12 11.3802072674 1.7819133146 10.2088437269
2586 1 37.2042 19.3171 14.0322 12 11.6225723071 1.7819133146 11.4184783093
2587 1 37.1238 17.4927 15.812 12 11.3693869579 1.7645702119 11.784233221
2588 1 35.3146 19.4736 15.9396 12 11.3709272939 1.7819133146 9.4139807588
2589 1 38.9883 17.599 14.0864 12 11.1526146648 1.7602633546 13.5957389917
2590 1 40.7006 19.4377 14.1482 12 11.3450909921 1.7681981357 14.7652367007
2591 1 40.6506 17.5952 15.8247 12 10.9738322665 1.7686700536 15.0642762109
2592 1 38.8095 19.4132 15.95 12 11.3502562668 1.7645702119 12.8209531801
2593 1 0.0685515 21.2572 14.1639 12 10.917379443 1.7741827147 16.3346674523
2594 1 1.76795 22.9468 14.0958 12 10.9345677822 1.7501809345 18.0118890793
2595 1 1.73168 21.2088 15.9534 12 11.0939280544 1.7744773481 17.9149113583
2596 1 0.0106075 23.0726 15.804 12 11.0523058464 1.7729588623 16.1580078869
2597 1 3.56952 21.0973 14.0904 12 11.3808431298 1.7725977256 17.9153442803
2598 1 5.25459 23.0131 14.0939 12 10.7155899954 1.7511293807 16.1479678659
2599 1 5.36225 21.1604 15.8875 12 10.9096488591 1.7741357134 16.0391165907
2600 1 3.53148 22.859 15.9045 12 11.1941191752 1.7498704228 17.7837821321
2601 1 6.92973 21.2923 14.0024 12 10.7642994583 1.7529882274 14.5820218444
2602 1 8.79935 22.9597 14.0141 12 10.8612104803 1.7560416624 12.6367687703
2603 1 8.74942 21.2952 15.9017 12 10.9705957509 1.7529882274 12.6567570654
2604 1 6.95555 22.879 15.7787 12 10.608427261 1.7560610679 14.3591943584
2605 1 10.5802 21.1145 14.0393 12 11.1767102757 1.7599119251 11.0186253097
2606 1 12.3026 22.9547 14.1203 12 11.1707010026 1.7729520775 9.1567186168
2607 1 12.3093 21.1614 16.0006 12 11.0420767542 1.7519697295 9.1450869908
2608 1 10.571 22.926 15.803 12 11.2004105282 1.7721249863 10.7438156407
2609 1 14.1059 21.2782 14.0994 12 10.9803192074 1.7395499519 7.5753410469
2610 1 15.7803 22.9011 14.0888 12 11.1523942782 1.7674645801 5.7666580637
2611 1 15.8767 21.1192 15.9616 12 11.1683846489 1.7729671431 5.672650586
2612 1 14.0137 22.9009 15.9062 12 10.9768866918 1.7674645801 7.302258053
2613 1 17.6009 21.1449 14.0999 12 11.4532232543 1.7729671431 4.4338080904
2614 1 19.408 22.849 14.1503 12 11.0778740867 1.7663113238 2.4403573912
2615 1 19.4187 21.1246 15.8581 12 10.7278237982 1.7729671431 2.4922080792
2616 1 17.5833 22.9457 15.9439 12 11.0467339899 1.7729671431 3.7340347612
2617 1 21.1653 21.2291 14.1713 12 10.4933831889 1.7484004647 2.1564540124
2618 1 22.8785 23.0499 14.0643 10 13.8812891954 2.8274993469 0.3621336686
2619 1 22.9362 21.3328 15.9476 10 14.5037630663 2.8466933449 0.1950082805
2620 1 21.1227 22.8997 15.7793 10 12.3456056504 2.6043718284 0.1921295215
2621 1 24.6383 21.2605 14.196 11 12.0174626387 2.4102419883 0.8628364927
2622 1 26.4179 22.9742 14.2127 11 11.8439187062 2.4459810473 0.7881692832
2623 1 26.4327 21.2688 15.8915 11 11.7834051757 2.4264411641 0.8033251367
2624 1 38.7618 40.7048 40.6658 12 10.9929686812 1.7461392803 26.5012706711
2625 1 28.1701 21.1886 14.1774 12 11.209124065 1.7725086 2.6547980452
2626 1 30.0241 22.9584 14.1013 12 11.2155146113 1.7891096036 4.1569925456
2627 1 29.9817 21.0759 15.939 12 11.1728447639 1.7712488391 3.8475523
2628 1 28.256 22.9329 15.8369 12 11.1066469067 1.7598273761 1.9765333931
2629 1 31.7061 21.1747 14.2076 12 11.0704195623 1.7712488391 5.7410509104
2630 1 33.5756 22.9487 14.1586 12 11.0905113133 1.7625080396 7.5057747605
2631 1 33.5524 21.1775 15.9521 12 11.1775780785 1.7600943063 7.3394392952
2632 1 31.79 23.0642 15.9083 12 11.2801418906 1.7625080396 5.5061242922
2633 1 35.3422 21.208 14.1614 12 11.2297771674 1.7816008563 9.2629694221
2634 1 37.0978 22.9187 14.0963 12 10.9020073583 1.7721650555 10.9704195739
2635 1 37.2053 21.1906 15.7769 12 11.3817679305 1.7742902234 10.9714254394
2636 1 35.3515 22.9387 15.8566 12 11.2127974774 1.7626753828 9.0692306779
2637 1 38.9441 21.2644 13.9897 12 11.1149699855 1.7720595656 12.8308500519
2638 1 40.6611 22.9854 14.0559 12 11.0302994901 1.767345511 14.5015788685
2639 1 40.6246 21.3154 15.8246 12 11.4051735102 1.7744773481 14.3748185223
2640 1 38.8561 23.0578 15.9685 12 11.1554253038 1.7626753828 12.5713861739
2641 1 0.0706175 24.7091 14.0535 12 11.0457127858 1.7893828168 16.3363904371
2642 1 1.74632 26.3783 14.1296 12 11.1788711218 1.7897569548 18.090564228
2643 1 1.77659 24.6443 15.9131 12 10.8307846712 1.7436542292 17.9080182138
2644 1 42.3507 26.4145 15.9566 12 11.0836738129 1.7897569548 16.1672625395
2645 1 3.63356 24.7093 14.1556 12 10.9357026461 1.752915682 17.7861669237
2646 1 5.30498 26.5374 14.1285 12 11.5606175585 1.792958212 16.2235928805
2647 1 5.26371 24.6799 15.9029 12 11.0888339197 1.7589699555 16.1059249456
2648 1 3.48272 26.3373 15.8869 12 11.115822337 1.7838615153 17.9827187149
2649 1 7.12412 24.6252 14.1283 12 10.8758983357 1.7589699555 14.3027986615
2650 1 8.72755 26.3344 14.1166 12 10.9084908793 1.7702193024 12.8057003883
2651 1 8.7929 24.6442 15.8375 12 10.9336346519 1.7700403714 12.5807677635
2652 1 7.04382 26.4807 15.9444 12 11.0339989848 1.7696185436 14.4596539273
2653 1 10.5347 24.7048 14.0806 12 11.1035802873 1.7539083131 10.9072912614
2654 1 12.463 26.4884 13.9989 12 10.8547126891 1.7605084153 9.1568121473
2655 1 12.4401 24.7599 15.7934 12 11.0922977879 1.7576318666 8.9437625004
2656 1 10.5989 26.5141 15.8183 12 11.2041719909 1.7855698463 10.950106628
2657 1 14.1426 24.6679 14.0617 12 10.7958366471 1.7502260447 7.318642063
2658 1 15.8821 26.3991 14.1499 12 10.8893343679 1.7774321166 5.8119752881
2659 1 15.8338 24.7177 15.8171 12 10.7679429 1.7656191786 5.5516852621
2660 1 14.1589 26.4989 15.8349 12 10.9977494637 1.7576318666 7.463109676
2661 1 17.6754 24.6398 14.1283 12 11.2378872899 1.7774321166 3.8169892602
2662 1 19.4565 26.4549 14.1499 12 11.0737070487 1.7771648985 2.6626265168
2663 1 19.4151 24.6503 15.9623 12 10.9848527162 1.7663113238 1.968454956
2664 1 17.6179 26.3584 15.901 12 11.0775901897 1.7772378685 4.1410892306
2665 1 21.2008 24.7238 14.1059 11 11.7530026488 2.4008559708 0.7964270357
2666 1 22.8633 26.4422 13.9339 11 12.0837446271 2.4105071775 0.8308175064
2667 1 40.6795 38.8196 40.6789 12 11.1418469254 1.7582628599 26.5127321074
2668 1 21.2661 26.4626 15.8453 11 12.3586758953 2.47135365 0.8444140667
2669 1 24.7802 24.7597 13.9227 10 13.0444272565 2.6843885277 0.2823727178
2670 1 26.4864 26.6002 13.9405 12 10.8744166531 1.7393015633 2.3350973775
2671 1 26.411 24.7596 15.8953 10 14.6767066792 2.8466933449 0.357851444
2672 1 24.6651 26.5691 15.795 10 14.0017817314 2.815411226 0.3215462287
2673 1 28.2147 24.6973 14.0517 12 11.0584709189 1.7885851926 2.7140679517
2674 1 30.0286 26.5337 14.1116 12 11.391862149 1.7897776386 4.7241111858
2675 1 29.9515 24.7627 15.8516 12 11.2885494298 1.7888834789 3.6730805853
2676 1 28.1288 26.3983 15.8094 12 11.1018302754 1.7887689473 2.6128813263
2677 1 31.8681 24.7022 14.0773 12 11.2065794854 1.7891096036 5.9432680729
2678 1 33.5604 26.5261 14.1162 12 11.1149956412 1.7616885179 7.8140301293
2679 1 33.5592 24.8227 15.9663 12 11.007253134 1.7613191094 7.2676714842
2680 1 31.8529 26.4898 15.9165 12 11.3162248354 1.7644208353 5.9129515193
2681 1 35.3365 24.6722 14.1491 12 11.1635870915 1.7616885179 9.2548718516
2682 1 37.0758 26.4711 14.0651 12 11.2571488163 1.7777510717 11.1548723447
2683 1 37.0868 24.6898 16.0291 12 11.1600294515 1.7626062628 10.7871433115
2684 1 35.3823 26.4576 15.9426 12 11.254444959 1.7759440653 9.2982050089
2685 1 38.8184 24.694 14.1542 12 11.098019856 1.7467950242 12.6757692228
2686 1 40.615 26.463 13.9664 12 11.1274328269 1.7897569548 14.6151346616
2687 1 40.6835 24.7747 15.8243 12 11.0549047129 1.7450482587 14.3878333786
2688 1 38.8099 26.4547 15.882 12 10.8943613916 1.7357244353 12.6674680728
2689 1 0.0415103 28.278 13.9789 12 11.3985263587 1.7897569548 16.7553150446
2690 1 1.76566 29.9931 14.1407 12 10.8921616361 1.7650801101 18.836730171
2691 1 1.76565 28.0848 15.9377 12 11.3308186719 1.7838615153 18.2584920366
2692 1 0.0240376 29.9789 15.8568 12 11.2475337186 1.7774735311 17.0710176771
2693 1 3.47119 28.2028 14.0948 12 11.1974947152 1.7838615153 18.2850281203
2694 1 5.34342 29.9278 14.0909 12 11.1082271275 1.7516980016 16.8954705219
2695 1 5.31813 28.3368 15.9198 12 11.3171907082 1.7838615153 16.4889540224
2696 1 3.48441 29.9171 15.8543 12 11.2293387562 1.7831471396 18.6628568367
2697 1 7.19688 28.1891 14.1226 12 11.1117592234 1.7432987349 14.641653036
2698 1 8.79088 29.9904 14.1632 12 10.9720959955 1.7560786011 13.677262688
2699 1 8.78867 28.2019 15.9082 12 11.0525960741 1.7702193024 13.0920718996
2700 1 7.00108 30.0736 15.9715 12 10.9765618431 1.75650786 15.3764494474
2701 1 10.6133 28.1292 14.0798 12 11.0960794362 1.7605084153 11.338387623
2702 1 12.345 30.0038 14.1391 12 11.2630776657 1.7605084153 10.4805198839
2703 1 12.2601 28.2674 15.8182 12 11.0846615069 1.7604354459 9.8172320771
2704 1 10.5044 30.0068 15.8076 12 11.1476031751 1.7670337024 12.1150300895
2705 1 14.1868 28.2359 14.0106 12 10.6975719523 1.7603271102 8.0603380217
2706 1 15.9123 29.8974 14.0969 12 10.8443120651 1.7507837668 7.3489233719
2707 1 15.884 28.3122 15.8908 12 10.9448799909 1.7893756652 6.5130542834
2708 1 14.1787 29.8925 15.8475 12 11.1049553127 1.7722564647 8.7104370587
2709 1 17.7088 28.1935 14.1281 12 11.0619597518 1.7774321166 4.9850662373
2710 1 19.3335 29.9788 13.973 12 10.9240257402 1.7573252026 4.9600363905
2711 1 19.4105 28.2142 15.83 12 11.2409482611 1.7752064435 3.3352783727
2712 1 17.6694 29.9705 15.8143 12 10.9554859884 1.7745960844 5.791906389
2713 1 21.0946 28.3154 14.0379 12 11.1886946438 1.7754050432 2.8280709663
2714 1 22.9465 29.9762 14.0149 12 11.2077860687 1.7819714903 4.053995747
2715 1 23.0066 28.3884 15.892 12 11.1286483413 1.7754050432 2.1038387584
2716 1 21.2159 30.0026 15.93 12 11.0976363376 1.7734373216 3.8998765212
2717 1 24.6553 28.2747 13.9906 12 11.1091355429 1.7819628176 2.5508019383
2718 1 26.5249 29.9259 13.9983 12 11.2022522718 1.7818845479 4.5141139609
2719 1 26.489 28.2708 15.7573 12 10.7682183195 1.7459454134 2.6748574514
2720 1 24.7914 30.07 15.8415 12 10.9913253744 1.7819714903 3.741389686
2721 1 28.2995 28.2359 14.1336 12 10.9561850647 1.7606649145 4.4768038598
2722 1 30.0399 29.9846 14.136 12 11.1448176728 1.7652225171 6.7602741351
2723 1 30.0789 28.244 15.9199 12 11.3321139829 1.7663906963 5.1662953918
2724 1 28.2475 30.0193 15.8455 12 11.0997607783 1.7661323914 4.9842203045
2725 1 31.8387 28.329 14.1423 12 11.1006968087 1.7672110636 7.0436390681
2726 1 33.6092 30.0869 14.1532 12 11.1096293174 1.7810117202 9.4200432408
2727 1 33.6076 28.2408 15.9054 12 10.9801238352 1.7760370416 8.2232952172
2728 1 31.8647 30.0462 15.9715 12 11.1728679124 1.7663906963 7.5847095348
2729 1 35.3525 28.2471 14.0643 12 11.3426886795 1.7789695899 10.0278242648
2730 1 37.17 30.02 14.1236 12 11.5039082693 1.7810217706 12.3721621253
2731 1 37.1621 28.2531 15.9322 12 11.1107136721 1.7777510717 11.5035443183
2732 1 35.3411 30.0094 15.9511 12 11.2216457605 1.7810217706 10.5583323052
2733 1 38.9647 28.1 14.2109 12 10.8913412379 1.7777510717 13.3155401737
2734 1 40.5966 29.9531 14.2114 12 11.0724349109 1.75287654 15.4337609057
2735 1 40.6603 28.1832 15.8777 12 11.19649398 1.7774735311 14.8339977352
2736 1 38.9269 29.9197 15.9611 12 11.1107341376 1.775883752 13.7539560866
2737 1 42.3275 31.8068 14.1626 12 10.9818306581 1.7546911908 17.738597623
2738 1 1.72423 33.5163 14.1072 12 11.1084621461 1.7655403547 20.1209003394
2739 1 1.70482 31.7305 15.748 12 10.8712084261 1.7721452656 19.2615564078
2740 1 -0.0105906 33.592 15.9645 12 10.8748888497 1.7656829387 18.4756738012
2741 1 3.54143 31.6879 14.1226 12 11.0765074341 1.7716625802 19.1783065487
2742 1 5.32423 33.6024 14.1014 12 11.0145497169 1.7565897446 18.3495128694
2743 1 5.23026 31.7858 15.8422 12 11.2614728233 1.7721452656 17.6579282155
2744 1 3.50357 33.6736 15.7852 12 11.4061971916 1.7721452656 19.9958523085
2745 1 7.0386 31.7284 14.1073 12 10.9419828786 1.776605997 15.9876951045
2746 1 8.77818 33.4791 14.1339 12 11.0122375502 1.7705731068 15.2282128852
2747 1 8.77889 31.7329 15.8449 12 10.9508824634 1.7623443836 14.3894957093
2748 1 7.06335 33.5198 15.8722 12 10.9721794309 1.7322702112 16.6939994961
2749 1 10.5789 31.7844 14.0695 12 11.1004811724 1.7626580509 12.8642779183
2750 1 12.3871 33.537 14.156 12 10.9165996816 1.7835733154 12.2382272318
2751 1 12.3961 31.8025 15.8629 12 11.3257261216 1.7670337024 11.1765608568
2752 1 10.4876 33.5186 15.9244 12 11.208544552 1.7670337024 13.6988725699
2753 1 14.1308 31.7675 14.0751 12 11.084561709 1.7610718506 9.8228885271
2754 1 15.8979 33.5878 14.0625 12 10.9859798735 1.7543821669 9.7550643139
2755 1 15.9027 31.8115 15.9123 12 11.3641802315 1.7610718506 8.3366731756
2756 1 14.1377 33.474 15.8132 12 10.9214377186 1.7566783195 10.7585293638
2757 1 17.6191 31.7163 14.2001 12 11.0660219873 1.749764135 7.2339114111
2758 1 19.48 33.5227 14.1354 12 11.197116113 1.7746184336 7.9120021616
2759 1 19.4414 31.724 15.7631 12 11.2762793101 1.7705246533 6.1124796326
2760 1 17.7259 33.6772 15.9221 12 11.2112100883 1.7704793755 8.6455251738
2761 1 21.1882 31.7336 14.0481 12 11.4416545664 1.7492831634 5.8283207795
2762 1 22.854 33.6159 14.0373 12 11.2203501404 1.7470752355 7.521267198
2763 1 22.9914 31.7949 15.9052 12 11.3413563366 1.7511302702 5.4994297656
2764 1 21.2595 33.4901 15.9222 12 11.1819722759 1.7705246533 7.3263343181
2765 1 24.6515 31.8596 14.024 12 11.2265526039 1.7819714903 5.7533679192
2766 1 26.4767 33.5769 14.0368 12 11.0608144514 1.7613344326 7.7116954789
2767 1 26.4328 31.7875 15.7858 12 11.0595502527 1.7432906671 5.744804139
2768 1 24.8022 33.5179 15.8427 12 11.0192191504 1.751929923 7.1821229066
2769 1 28.3469 31.7577 14.1444 12 11.1834477998 1.7609245052 6.8865620547
2770 1 29.9886 33.5375 14.0415 12 11.2987461814 1.7613344326 9.2128903206
2771 1 30.006 31.7579 15.8816 12 11.0250077515 1.7663906963 7.3209241243
2772 1 28.2582 33.4809 15.9113 12 10.9010541479 1.7613344326 7.9036986127
2773 1 31.7666 31.7575 14.0294 12 11.2008992985 1.7588773127 9.090939152
2774 1 33.6216 33.6242 14.102 12 11.1743223337 1.7593305012 11.5254879077
2775 1 33.623 31.8354 15.9461 12 11.1015057795 1.7546345446 9.9948657071
2776 1 31.8445 33.4703 15.8273 12 11.3056669655 1.7824969172 9.7683520228
2777 1 35.3615 31.8799 14.1527 12 11.1974350066 1.7810217706 11.8119595876
2778 1 37.1421 33.6314 14.1188 12 11.0726898793 1.7552142003 14.2131608195
2779 1 37.0769 31.8974 15.8706 12 11.3267958882 1.775883752 12.9735619386
2780 1 35.3737 33.784 15.8994 12 10.8297900612 1.7612316634 12.5298725799
2781 1 39.0134 31.8221 14.2281 12 11.3895116858 1.7590676339 14.8117561688
2782 1 40.7563 33.6836 14.2696 12 10.9868257657 1.7390946336 17.2233728619
2783 1 40.6552 31.7929 15.9621 12 10.8364633597 1.7347044891 16.1050891118
2784 1 38.8756 33.5389 15.9829 12 11.0411854512 1.7552142003 15.3132436402
2785 1 0.134673 35.4132 14.252 12 11.2714376076 1.7668810644 19.6361921624
2786 1 1.88455 37.3301 14.2448 12 11.4321531323 1.7668810644 22.091144077
2787 1 1.88481 35.4878 16.0134 12 11.1114608272 1.7631662528 21.0111572643
2788 1 0.043738 37.0965 16.0295 12 10.9716744762 1.7646658483 20.1957492192
2789 1 3.49166 35.3567 14.1485 12 11.1707295545 1.7408533633 20.7637908599
2790 1 5.30463 37.0665 14.1994 12 11.1588039391 1.7524145668 20.028750036
2791 1 5.35241 35.3578 15.9645 12 11.0262364015 1.7385740464 19.0597291734
2792 1 3.55193 37.1577 16.0066 12 10.7800435471 1.7385370053 21.5155953647
2793 1 7.0671 35.3099 14.1195 12 10.8197832434 1.7653078971 17.6163716803
2794 1 8.75099 37.0841 14.2168 12 11.1676828738 1.7691180898 17.2572276616
2795 1 8.71527 35.2763 15.9369 12 11.0091511394 1.7646165921 16.1447957018
2796 1 6.96456 37.1002 15.9345 12 10.9417399641 1.7663948189 18.6249250816
2797 1 10.5923 35.2764 14.2491 12 11.2940814205 1.7690186697 14.697075314
2798 1 12.3867 37.159 14.1346 12 11.1294557437 1.7691920127 14.6994867583
2799 1 12.2697 35.2582 15.9322 12 11.0347241664 1.7355519644 13.3428757296
2800 1 10.6159 37.0672 15.9544 12 11.0680955978 1.7691920127 15.7865284376
2801 1 14.0489 35.2652 14.202 12 11.1035976671 1.7810210007 12.1880537605
2802 1 15.882 37.0697 14.2028 12 11.2152589276 1.7590288109 12.5880027608
2803 1 15.8445 35.3051 15.9556 12 10.7835967525 1.7543821669 11.0280909403
2804 1 14.06 37.0562 15.8836 12 10.8578020778 1.7374561576 13.487597714
2805 1 17.6325 35.3417 14.1754 12 11.1662349203 1.7756746632 10.265686144
2806 1 19.4383 37.1967 14.271 12 11.2221404114 1.7756746632 11.3878701915
2807 1 19.4649 35.3114 15.9373 12 10.9897201982 1.7755706155 9.4744219265
2808 1 17.6243 37.0703 15.9733 12 10.9593059301 1.7554803608 11.7423628445
2809 1 21.1801 35.3501 14.1759 12 11.1845619277 1.7756746632 9.3085019904
2810 1 22.9988 37.1246 14.1531 12 11.0215775988 1.7506651337 10.9398689769
2811 1 22.9583 35.2738 15.9161 12 10.9352460516 1.7516365822 8.9684580174
2812 1 21.1934 37.0198 15.8051 12 10.8353818858 1.759119973 10.8405769046
2813 1 24.6403 35.328 14.1353 12 11.0745481045 1.7664171304 9.1094086681
2814 1 26.4425 37.1174 14.0376 12 11.3072944491 1.7686057281 11.0913773349
2815 1 26.5127 35.2257 15.7677 12 11.0499309658 1.7659477661 9.093065142
2816 1 24.7088 37.0536 15.9268 12 11.1067582702 1.7686057281 10.7089075828
2817 1 28.2301 35.3878 14.1906 12 11.1427016776 1.7613344326 9.9450063222
2818 1 30.0142 37.0432 14.1426 12 10.9820453038 1.7773861062 12.1457665472
2819 1 30.0408 35.2088 15.9974 12 11.0940842801 1.7506852572 10.1577497699
2820 1 28.2314 37.0105 15.9087 12 11.0950553233 1.7711825049 11.2018737642
2821 1 31.7133 35.4178 14.1533 12 11.311206666 1.7613252181 11.6015490048
2822 1 33.5638 37.0195 14.1609 12 11.1383696224 1.7715369407 13.8867953738
2823 1 33.5043 35.2943 15.9558 12 10.985395759 1.7399438868 12.1781389281
2824 1 31.7229 37.1286 15.923 12 10.7594671854 1.7539968646 12.6290897051
2825 1 35.3609 35.3037 14.1969 12 10.7462430294 1.752357736 13.8170132014
2826 1 37.1627 37.1325 14.1843 12 11.1364798772 1.7891965733 16.3128691528
2827 1 37.1181 35.4059 15.938 12 10.8925310143 1.7552142003 14.8762998552
2828 1 35.3041 37.0504 15.8508 12 11.0206796098 1.7734304917 14.6786605637
2829 1 38.8654 35.289 14.1749 12 11.250952162 1.790169052 16.498374079
2830 1 40.7894 37.048 14.1997 12 11.3783391539 1.790169052 19.0242548606
2831 1 40.6078 35.3658 15.9756 12 11.0120734222 1.7576947914 17.7117969123
2832 1 38.8867 37.1328 15.9055 12 11.2330773566 1.7901474179 17.3241644691
2833 1 0.0388966 38.9387 14.1947 12 11.4659442047 1.7797634764 21.4584198872
2834 1 1.84702 40.7081 14.2072 12 11.2979876592 1.7620615806 23.9358188203
2835 1 1.85506 38.8858 16.0771 12 10.8946455362 1.7643005228 22.6798926954
2836 1 0.0368196 40.6183 15.8782 12 11.0640303895 1.7643005228 22.2871579013
2837 1 3.59875 39.0279 14.1879 12 11.114928538 1.7327289287 22.5331111776
2838 1 5.27614 40.8039 14.1192 12 11.0268131592 1.756983414 22.3047240322
2839 1 5.3039 38.9036 15.8588 12 11.0307270586 1.756983414 21.0314808999
2840 1 3.54878 40.7458 15.9965 12 11.0759093173 1.7583750754 23.5478205555
2841 1 7.09243 38.9064 14.2156 12 10.9609776054 1.7700016644 19.6903602445
2842 1 8.85139 40.6486 14.1032 12 10.9056906037 1.7479710207 19.6405156034
2843 1 8.792 38.9211 15.8882 12 10.8915372214 1.7495526602 18.3846159707
2844 1 7.08321 40.6237 15.8505 12 10.8843486286 1.756983414 20.7959139994
2845 1 10.5846 38.8889 14.2012 12 11.2297999586 1.7691920127 17.1728319428
2846 1 12.4133 40.6718 14.0825 12 11.1199022967 1.7674204576 17.4647495386
2847 1 12.426 38.8214 15.9637 12 10.8827911364 1.7603199124 15.8814366857
2848 1 10.6469 40.617 15.8475 12 11.0704946028 1.7496292087 18.3894134572
2849 1 14.1817 38.8083 14.2023 12 10.993113922 1.7674204576 14.9394515167
2850 1 15.9422 40.5962 14.1934 12 11.0874558485 1.7674204576 15.7100312847
2851 1 15.9193 38.8273 16.0447 12 10.8641089137 1.752098112 14.0448688407
2852 1 14.0771 40.634 15.8643 12 11.0403678177 1.7671792282 16.4947622092
2853 1 17.68 38.851 14.1881 12 11.1529429016 1.7593168594 13.4671905512
2854 1 19.5053 40.5767 14.1024 12 11.0991550831 1.7716644971 14.681984179
2855 1 19.5697 38.9455 15.9047 12 10.9461276178 1.806312798 12.9847312292
2856 1 17.7114 40.6008 15.9559 12 11.0634256343 1.7472061184 15.042821406
2857 1 21.2477 38.8258 14.1084 12 10.8413911766 1.7585022682 12.7431034192
2858 1 22.9485 40.6943 14.0712 12 10.9036659858 1.745139045 14.4883288945
2859 1 22.966 38.9243 15.8021 12 11.1015566968 1.7554426248 12.611937954
2860 1 21.1893 40.6473 15.8565 12 11.0732490196 1.7793309163 14.4486754355
2861 1 24.7115 38.9484 14.0922 12 10.8757620156 1.7491607863 12.6991441468
2862 1 26.4254 40.7052 14.1771 12 10.826366496 1.74087992 14.5821267009
2863 1 26.3799 38.911 15.8124 12 11.0888706611 1.7711825049 12.702308825
2864 1 24.6756 40.6671 15.9071 12 11.0097469436 1.7580570336 14.3181395963
2865 1 28.1731 38.85 14.149 12 11.2980246624 1.7791665057 13.1625290748
2866 1 30.0693 40.5921 14.1308 12 11.3795558995 1.7773861062 15.3903071194
2867 1 29.9047 38.8291 15.8957 12 11.0746193912 1.7771451988 13.4178554522
2868 1 28.1866 40.6482 15.8445 12 11.1599158616 1.7688162685 14.7147789509
2869 1 31.7915 38.7819 14.2637 12 11.3058258564 1.7751254585 14.4076810146
2870 1 33.4603 40.6923 14.0593 12 11.3485269325 1.7977873356 16.8598451608
2871 1 33.5791 38.826 15.9194 12 11.1405051448 1.7971592947 15.0248425262
2872 1 31.7516 40.6411 15.9421 12 11.332484556 1.7980558961 15.7573964265
2873 1 35.2772 38.8109 14.119 12 11.2454178957 1.7738952117 16.2904379848
2874 1 37.1026 40.6153 14.162 12 11.1425264303 1.7721510829 18.7764757722
2875 1 37.1677 38.8603 15.8309 12 11.0403173773 1.7738952117 17.2567461049
2876 1 35.3428 40.6252 15.7994 12 11.2746616564 1.7977873356 17.497491645
2877 1 39.0198 38.862 14.0546 12 11.1522237829 1.790169052 18.8233602968
2878 1 40.6933 40.6227 14.1607 12 10.8732500629 1.759902422 21.1894602344
2879 1 40.7562 38.875 15.9234 12 11.1050941044 1.7641347098 19.8605717442
2880 1 38.8654 40.6361 15.8678 12 11.0821413808 1.7578721938 19.69698528
2881 1 -0.00102339 -0.0142018 17.684 12 11.4380464768 1.7863738048 23.3856958158
2882 1 1.66356 1.83616 17.6764 12 11.0766416322 1.7758409863 25.8679562257
2883 1 1.79076 -0.0289912 19.512 12 11.0278031657 1.7826888511 24.769790095
2884 1 0.0709644 1.7569 19.5174 12 11.130940106 1.7872690404 24.7563992048
2885 1 3.50418 0.122562 17.7736 12 11.1158013485 1.7581660509 24.8259266329
2886 1 5.38108 1.84961 17.6757 12 11.0854994669 1.7623723465 24.6822493698
2887 1 5.2153 0.157502 19.4026 12 11.1907990936 1.7554632705 23.7985097063
2888 1 3.47577 1.76581 19.4645 12 10.8711881684 1.7446469251 26.1491878935
2889 1 7.14087 42.4032 17.6284 12 11.2530198192 1.7500438272 22.1138675034
2890 1 8.87411 1.78095 17.6577 12 10.8973700917 1.7481518033 22.4117553892
2891 1 8.95067 42.3828 19.4383 12 11.1816726848 1.7422582932 21.1651942533
2892 1 7.19683 1.77474 19.4099 12 11.0469477374 1.7500438272 23.6467313844
2893 1 10.6117 42.3365 17.6834 12 10.9096472405 1.7480661789 19.8874304943
2894 1 12.3788 1.69083 17.6747 12 10.90266413 1.7533003468 20.4674415103
2895 1 12.405 -0.00724803 19.314 12 11.1221251427 1.7757205057 19.2275527717
2896 1 10.5457 1.7557 19.3278 12 10.9049680865 1.7313357679 21.6675954741
2897 1 14.1624 0.0722344 17.6121 12 11.1543369619 1.7709688923 18.2182653431
2898 1 16.0359 1.77551 17.6573 12 10.9692128573 1.7610714656 19.0890284442
2899 1 15.9463 42.3683 19.3676 12 10.9294211612 1.7708892301 17.6458916172
2900 1 14.1858 1.81939 19.4686 12 11.0087448025 1.7823075414 20.0528898862
2901 1 17.7131 42.4507 17.7289 12 10.9534800457 1.7605492197 16.9337652215
2902 1 19.4874 1.85179 17.6581 12 11.2573768792 1.7605492197 18.2957401692
2903 1 19.5303 42.2734 19.5273 12 10.8839689593 1.7605492197 16.4453530662
2904 1 17.7183 1.6234 19.3821 12 11.0078711273 1.7606763533 18.6246929444
2905 1 21.2241 42.3972 17.6899 12 11.1529556774 1.7787028584 16.1519344044
2906 1 22.8802 1.77233 17.5914 12 11.39958919 1.7425321935 17.8201194586
2907 1 22.9608 0.0423096 19.4929 12 11.047290727 1.7438916422 16.1863303025
2908 1 21.1651 1.67011 19.4782 12 11.1469292166 1.7816170998 17.9368944962
2909 1 24.7062 0.0044149 17.7429 12 11.1731362537 1.7548686191 16.0901680405
2910 1 26.4275 1.72934 17.7054 12 10.9357476329 1.7567843502 17.8996449554
2911 1 26.4902 42.4114 19.4512 12 10.8287066128 1.7570730751 16.2499721818
2912 1 24.7523 1.7525 19.4796 12 11.0806868913 1.7768381121 17.9257044476
2913 1 28.2887 0.0482702 17.6142 12 10.986013145 1.7619925838 16.433205854
2914 1 30.1058 1.79044 17.6786 12 10.8413708832 1.7606637952 18.5186677756
2915 1 29.9678 42.3518 19.4747 12 11.2872709294 1.7631587416 16.7691930332
2916 1 28.2768 1.62255 19.4362 12 11.1109476331 1.7570569127 18.0671608248
2917 1 31.7821 42.3451 17.7363 12 11.5086056521 1.7978411304 17.2447326215
2918 1 33.5138 1.71339 17.7884 12 11.0941137667 1.7819599833 19.5753792314
2919 1 33.5012 0.0330489 19.5247 12 11.4724530417 1.7806102315 18.1406502738
2920 1 31.6922 1.75828 19.4869 12 10.9845214541 1.7631587416 19.0282518917
2921 1 35.3869 -0.0269979 17.701 12 11.2071251133 1.7819599833 18.9098505697
2922 1 37.1011 1.65031 17.7543 12 10.9349954613 1.774615496 21.243973338
2923 1 37.1112 42.3483 19.4467 12 10.8088151481 1.7582694821 19.8960709014
2924 1 35.2721 1.78314 19.5616 12 10.9255040081 1.7610137793 20.5033319271
2925 1 38.9201 42.306 17.716 12 11.1614452026 1.7748697986 20.8987959498
2926 1 40.6618 1.64194 17.7409 12 11.5378279324 1.7854402504 23.3731040239
2927 1 40.5517 42.2558 19.5135 12 11.2870672417 1.7872690404 22.0195485612
2928 1 38.799 1.6183 19.5173 12 10.8829559348 1.7748697986 22.264545249
2929 1 42.3443 3.4507 17.6559 12 10.9927704465 1.7539163859 24.6762182215
2930 1 1.7615 5.40017 17.6296 12 11.128889693 1.7589564996 24.5525924196
2931 1 1.64581 3.52748 19.4287 12 10.9631041539 1.7589564996 25.9701486805
2932 1 42.3579 5.2649 19.3007 12 11.1147633391 1.7589564996 23.5329049955
2933 1 3.57837 3.56753 17.6913 12 11.2813886295 1.7576585299 25.6625695001
2934 1 5.29831 5.28733 17.78 12 11.0186730596 1.7646774603 23.2308895708
2935 1 5.42636 3.54239 19.5148 12 10.8976200575 1.7417960184 24.5032653814
2936 1 3.52914 5.28449 19.3941 12 11.0309143247 1.7573688816 24.5450872175
2937 1 7.08243 3.56065 17.6857 12 10.7530573346 1.7541686718 23.3784692163
2938 1 8.81416 5.34261 17.6649 12 11.0624522082 1.7973460837 20.9119698319
2939 1 8.75149 3.55731 19.4277 12 10.8808333623 1.7621830823 22.4657858601
2940 1 7.08593 5.38317 19.4455 12 11.0478466281 1.7636330832 22.0274335456
2941 1 10.5037 3.50804 17.6704 12 10.9970186315 1.7972225467 21.5077182588
2942 1 12.4074 5.28623 17.6535 12 11.2158649 1.7973460837 19.0268953989
2943 1 12.3567 3.4376 19.3666 12 10.8603641371 1.7268524714 20.7631219738
2944 1 10.6585 5.20043 19.4873 12 11.2496213041 1.7973460837 20.0581797371
2945 1 14.1884 3.51715 17.6722 12 11.0344299692 1.7468372807 19.858129509
2946 1 15.9092 5.19801 17.6956 12 10.8918109583 1.7624034452 17.6238831629
2947 1 15.8633 3.46138 19.5272 12 10.7269305586 1.7605722999 19.3029801024
2948 1 14.0667 5.25186 19.4751 12 11.1528957125 1.7624034452 18.3997151832
2949 1 17.5762 3.56181 17.718 12 10.9815413868 1.7514713458 18.6084571843
2950 1 19.3868 5.39075 17.6981 12 10.9507550093 1.7514713458 16.3924827991
2951 1 19.3834 3.59576 19.5104 12 11.189535904 1.7814562232 18.2068271066
2952 1 17.6076 5.3851 19.4133 12 11.0203430692 1.7616538229 16.9052147029
2953 1 21.0739 3.62724 17.6605 12 11.1069094866 1.7816170998 17.8812726799
2954 1 22.9527 5.17975 17.765 12 11.2674754893 1.7648519732 16.2265715618
2955 1 22.9521 3.45844 19.46 12 11.1956053516 1.7816170998 18.0135984749
2956 1 21.1513 5.28395 19.4862 12 11.0288598295 1.7803753437 16.2825595996
2957 1 24.7114 3.4415 17.619 12 11.1828652678 1.7768381121 17.8936852859
2958 1 26.44 5.25159 17.7022 12 11.3297893599 1.75267041 16.1673775684
2959 1 26.5442 3.49121 19.3847 12 11.2806445091 1.7768381121 18.0484672662
2960 1 24.6354 5.29046 19.5672 12 11.2135229662 1.7768381121 16.1978956944
2961 1 28.3388 3.47811 17.6944 12 11.1551711676 1.758294271 18.2023416008
2962 1 30.0494 5.29947 17.6408 12 11.2593521428 1.7606637952 16.8682952659
2963 1 30.0594 3.45872 19.5243 12 11.1896869135 1.7606637952 18.7621212723
2964 1 28.3296 5.37799 19.4187 12 11.3792836448 1.7522602983 16.476833817
2965 1 31.9295 3.51334 17.738 12 10.9068288902 1.7606637952 19.1909173107
2966 1 33.6626 5.4052 17.6389 12 10.9790610125 1.7470038662 18.2208604005
2967 1 33.5479 3.54211 19.4617 12 10.8904319363 1.7473496038 19.9376310233
2968 1 31.733 5.42833 19.3561 12 11.2356213098 1.7476283738 17.4673487436
2969 1 35.3225 3.48792 17.8073 12 11.1617242693 1.7610137793 20.7076020656
2970 1 37.0196 5.38705 17.6055 12 11.402348656 1.7734382399 19.9373873196
2971 1 37.0647 3.44559 19.4323 12 11.2679419022 1.7823411461 21.7782203927
2972 1 35.3989 5.26355 19.5473 12 11.1337645449 1.7385017755 19.3741321725
2973 1 38.7668 3.41418 17.6081 12 11.2859998448 1.7748697986 22.5364878095
2974 1 40.5512 5.26241 17.5701 12 10.81909434 1.7734382399 22.1347733866
2975 1 40.4979 3.55467 19.3044 12 11.2628884482 1.7560986083 23.6196326621
2976 1 38.831 5.39488 19.4105 12 11.4012915879 1.7734382399 21.1938676146
2977 1 -0.0427677 7.03079 17.6958 12 11.0605995614 1.7420275056 22.1338456217
2978 1 1.67346 8.85492 17.5497 12 11.3818074124 1.7897681741 22.2725095138
2979 1 1.87214 7.03183 19.4745 12 11.183328772 1.7897681741 23.7723584143
2980 1 0.0239133 8.82107 19.4114 12 11.4895988627 1.7897681741 21.2312240572
2981 1 3.48543 7.13493 17.6734 12 11.1835462941 1.7869676537 23.2921212545
2982 1 5.36128 8.8075 17.6748 12 11.2233290684 1.7824366369 20.7803000418
2983 1 5.34306 7.13942 19.4124 12 10.9975375982 1.7816485417 21.9611244236
2984 1 3.60027 8.84109 19.4016 12 11.1332142717 1.7897681741 22.20661487
2985 1 7.09693 7.07174 17.6853 12 11.0147807418 1.7612446786 20.6982827213
2986 1 8.83286 8.92041 17.6911 12 11.2701157775 1.7656710614 18.1623738079
2987 1 8.86466 7.13503 19.4526 12 11.2245110881 1.765275156 19.5503950328
2988 1 7.22241 8.9101 19.474 12 10.989087709 1.7824366369 19.3930804957
2989 1 10.5766 7.13139 17.764 12 11.5458857889 1.7973460837 18.4267335271
2990 1 12.4424 8.90177 17.6993 12 11.0142968727 1.7807875582 15.9067916966
2991 1 12.4267 7.0729 19.4765 12 11.2821649476 1.7807875582 17.547098639
2992 1 10.7508 8.89952 19.5301 12 11.369024703 1.7657423925 17.0094294512
2993 1 14.172 7.00598 17.7263 12 11.3323235094 1.7807814877 16.6961855656
2994 1 15.8739 8.8523 17.7012 12 11.1927909812 1.774568247 14.3047037156
2995 1 15.8005 7.14041 19.5676 12 11.3843925147 1.7624034452 15.9585504032
2996 1 14.0399 8.96082 19.4297 12 10.8853223877 1.7324225201 15.1145402851
2997 1 17.5752 7.06012 17.6663 12 11.2010400601 1.7547310272 15.2810526151
2998 1 19.3624 8.73617 17.5932 12 11.2138222738 1.7672298642 13.1423878695
2999 1 19.4105 7.04644 19.5824 12 11.2934411121 1.7672298642 14.8356482975
3000 1 17.6927 8.874 19.5559 12 11.4284914102 1.7668849199 13.6094809214
3001 1 21.1808 7.06087 17.7184 12 11.1623730573 1.7802638322 14.4574825659
3002 1 22.9593 8.85792 17.7497 12 11.2134939601 1.7705064721 12.5527051663
3003 1 22.9129 7.00887 19.5304 12 11.1793221555 1.7787183889 14.4795819465
3004 1 21.2171 8.90067 19.5272 12 11.2706002785 1.7672298642 12.6921326943
3005 1 24.7495 7.06615 17.8528 12 11.4826137556 1.7705064721 14.2774863106
3006 1 26.5434 8.83369 17.6405 12 10.9493195825 1.7697846571 12.6219223811
3007 1 26.6436 7.16643 19.4829 12 11.2667561768 1.7368100451 14.4533925073
3008 1 24.6985 8.85892 19.5304 12 11.056131186 1.7705064721 12.6611642071
3009 1 28.2049 7.06368 17.5834 12 11.157454486 1.7520851772 14.6678269681
3010 1 30.0389 8.78806 17.7214 12 11.2761108368 1.7705742432 13.5944658423
3011 1 30.0405 7.21864 19.5395 12 11.1300322078 1.7517079231 15.2192587422
3012 1 28.2443 8.94263 19.3517 12 10.9545723768 1.7519651045 13.0223093495
3013 1 31.8246 7.04634 17.5878 12 11.0427174988 1.7705742432 15.9144744091
3014 1 33.5765 8.9115 17.6651 12 10.6885303477 1.7705742432 15.1485787555
3015 1 33.5635 7.07194 19.4513 12 10.988703781 1.7537513249 16.8703811369
3016 1 31.8879 8.86144 19.4641 12 11.1395686277 1.7704760897 14.5027793171
3017 1 35.2883 7.14559 17.6572 12 10.8243132524 1.7401191698 17.5415455702
3018 1 37.0331 8.86338 17.7026 12 10.9758905721 1.7583598881 17.1508465742
3019 1 36.9853 7.133 19.4599 12 11.1577383285 1.760815778 18.7456841124
3020 1 35.228 8.85075 19.325 12 10.8164964952 1.7583598881 16.3338569949
3021 1 38.8423 7.07969 17.644 12 10.9967194052 1.7667031915 19.6593897177
3022 1 40.6875 8.80841 17.6755 12 11.3110077198 1.7571642691 19.6856366998
3023 1 40.6424 7.02507 19.3438 12 11.091086421 1.7563671453 21.1125446187
3024 1 38.7656 8.86966 19.3434 12 11.2405235391 1.7571007109 18.5246762892
3025 1 42.3852 10.6597 17.6819 12 11.0134094338 1.7747712932 19.8408717109
3026 1 1.76417 12.4206 17.6458 12 10.617901146 1.7447930821 20.4458312067
3027 1 1.7127 10.6289 19.3815 12 11.2535961302 1.7897182571 21.5264479637
3028 1 0.0938564 12.5015 19.4166 12 11.1267294917 1.7747712932 19.2093429611
3029 1 3.47598 10.6631 17.6941 12 11.1864677903 1.7690191291 21.2096026363
3030 1 5.33678 12.4577 17.544 12 10.9879742485 1.746112529 18.6832569506
3031 1 5.28027 10.7025 19.3464 12 11.1487526914 1.7824366369 19.7563186656
3032 1 3.58334 12.457 19.2387 12 10.9997276196 1.7433873395 20.2620000461
3033 1 7.01872 10.5948 17.6425 12 11.0583517076 1.7747950047 18.3662812315
3034 1 8.79489 12.3065 17.6064 12 10.9577529679 1.7611249455 15.9117055975
3035 1 8.84421 10.7051 19.485 12 11.1910044826 1.7657423925 16.9963497409
3036 1 7.12489 12.3725 19.4367 12 11.3095540935 1.7590592849 17.3065112614
3037 1 10.5883 10.6913 17.542 12 10.9329424137 1.7636692295 15.6705672842
3038 1 12.4197 12.3826 17.6788 12 10.8932167191 1.7473575066 13.1834962969
3039 1 12.3557 10.6861 19.3156 12 10.6797503388 1.7598261023 14.6028394553
3040 1 10.6223 12.3953 19.3823 12 11.1365268011 1.7599860329 14.5470858736
3041 1 14.0399 10.5845 17.5371 12 10.8145581659 1.7745881062 13.6247360099
3042 1 15.8866 12.4083 17.6966 12 11.0117771622 1.7747897288 11.1086056959
3043 1 15.7945 10.5944 19.4187 12 11.2321436648 1.783711238 12.8658356598
3044 1 14.0965 12.4059 19.5093 12 11.0435474302 1.7416083638 12.2219151786
3045 1 17.6344 10.6193 17.7001 12 11.1085630786 1.7747897288 11.9698338031
3046 1 19.359 12.3568 17.7182 12 11.0427708596 1.760205043 9.6972340243
3047 1 19.4209 10.5636 19.4323 12 10.8107075143 1.7672298642 11.433945432
3048 1 17.529 12.3463 19.4745 12 10.799966133 1.7418290236 10.5389939946
3049 1 21.067 10.554 17.7499 12 10.9093543799 1.7601267966 11.0115935957
3050 1 22.8761 12.3436 17.604 12 11.4700443689 1.7685765946 9.0716220234
3051 1 22.9997 10.6316 19.4673 12 11.2509290713 1.7539134792 10.8655327091
3052 1 21.1177 12.3044 19.4148 12 10.9186351429 1.7600022834 9.3438462361
3053 1 24.8152 10.5929 17.5757 12 11.3439409574 1.7705064721 10.7429648048
3054 1 26.4914 12.4253 17.7038 12 10.9826801998 1.7628986139 9.0726909757
3055 1 26.4463 10.5828 19.4694 12 11.0454852594 1.7398724964 11.0925784885
3056 1 24.7433 12.3671 19.5026 12 11.1787988636 1.7685765946 9.2078735124
3057 1 28.1822 10.6381 17.6212 12 10.7373957871 1.7580540576 11.2158995881
3058 1 30.0186 12.2982 17.6757 12 10.8977182827 1.7670053892 10.4314618244
3059 1 30.0476 10.6182 19.4631 12 11.303527931 1.768742423 12.1227559001
3060 1 28.2722 12.394 19.4473 12 10.9970120072 1.7666958112 9.8273279051
3061 1 31.8085 10.6334 17.6732 12 11.0818572335 1.770254916 12.7672532158
3062 1 33.6114 12.4369 17.4768 12 11.0690882012 1.7622322321 12.2349653242
3063 1 33.582 10.6589 19.4218 12 11.1483417095 1.768742423 13.958715823
3064 1 31.8118 12.4434 19.3881 12 11.072720447 1.768742423 11.5062430712
3065 1 35.2653 10.56 17.6281 12 10.7753490809 1.7622322321 14.729895603
3066 1 37.1168 12.2929 17.6539 12 10.9458524269 1.7622322321 14.7264283998
3067 1 36.9194 10.6791 19.4565 12 10.9917700052 1.7583598881 16.0219305352
3068 1 35.2679 12.3999 19.4586 12 11.0101828792 1.7622322321 13.7107635024
3069 1 38.8652 10.6806 17.7575 12 10.9785160131 1.7295459717 17.1000695144
3070 1 40.5932 12.3867 17.7269 12 10.794007811 1.7339836589 17.4015107751
3071 1 40.5778 10.6596 19.4452 12 11.2672674297 1.7747712932 18.6645807776
3072 1 38.8424 12.3331 19.5386 12 10.7067977154 1.7199888808 16.3393195319
3073 1 42.3308 14.1102 17.5977 12 11.006751959 1.7772827233 18.0188127562
3074 1 1.7253 15.8618 17.6381 12 11.25213093 1.7772827233 19.0250983571
3075 1 1.84044 14.1079 19.3966 12 10.7632166517 1.7433873395 20.0120432466
3076 1 0.0683859 15.8822 19.4457 12 11.2292815109 1.7772827233 17.7315139637
3077 1 3.49925 14.2713 17.5563 12 10.8525790029 1.7427660078 19.4852052435
3078 1 5.36105 15.9104 17.5948 12 10.9186819212 1.761743483 17.1389726137
3079 1 5.34522 14.1665 19.5108 12 11.4432896838 1.761743483 17.9432754393
3080 1 3.531 15.8351 19.5601 12 11.2250261382 1.761743483 18.9704660513
3081 1 7.01645 14.2101 17.6272 12 10.9838581471 1.76017703 16.352730915
3082 1 8.86267 16.0131 17.701 12 11.092107192 1.7587563938 13.8835977151
3083 1 8.81758 14.2204 19.4032 12 11.3458740429 1.7611249455 14.8877609209
3084 1 7.04511 16.0474 19.4574 12 11.1359341126 1.7616010106 15.6210514344
3085 1 10.6269 14.1564 17.7021 12 11.0066073311 1.7611249455 13.3334746298
3086 1 12.3035 15.8602 17.5366 12 11.1273550294 1.7624723581 10.9805742958
3087 1 12.4057 14.1676 19.4896 12 10.8294751808 1.7552349933 12.0710781296
3088 1 10.5748 15.8003 19.4608 12 10.982979114 1.7552349933 12.5914222995
3089 1 14.1633 14.1221 17.8149 12 11.0659347722 1.7742601859 10.7235103378
3090 1 15.9111 15.8972 17.7349 12 11.0078067282 1.7712238253 8.2350563349
3091 1 15.9085 14.1219 19.4488 12 10.95997914 1.7712238253 9.7929145644
3092 1 14.0961 15.9219 19.4321 12 11.0770760742 1.7712238253 9.6666656321
3093 1 17.6426 14.1772 17.6995 12 10.8740859321 1.7456796899 8.7293761804
3094 1 19.4294 15.9665 17.5791 12 10.9120140792 1.7505103646 6.3567857749
3095 1 19.3573 14.1502 19.4007 12 10.9035649595 1.7449599232 8.1138899566
3096 1 17.7196 15.9574 19.4117 12 11.4633062864 1.7700141829 7.3141961658
3097 1 21.1402 14.1521 17.687 12 10.8695349422 1.760205043 7.4612173769
3098 1 22.891 15.8085 17.7524 12 10.796527854 1.7388873093 5.6147221313
3099 1 22.9893 14.0927 19.436 12 10.9072207549 1.7396182145 7.4231946804
3100 1 21.0653 15.8342 19.3923 12 10.9025781235 1.7358131523 5.940774323
3101 1 24.782 14.1071 17.6762 12 10.9868714605 1.7685765946 7.2360497169
3102 1 26.4678 15.8692 17.6499 12 10.8320122229 1.7649164858 5.7190970654
3103 1 26.4984 14.0519 19.6048 12 11.1129180768 1.7634681299 7.8289194951
3104 1 24.7226 15.7686 19.4757 12 10.9285379156 1.7649164858 5.9114591427
3105 1 28.2172 14.1842 17.7417 12 10.7891158164 1.7412085217 7.929032863
3106 1 29.9194 15.8953 17.7423 12 10.9334001216 1.7641985983 7.3725793554
3107 1 29.8943 14.1453 19.4665 12 10.981324374 1.7670053892 9.0699286538
3108 1 28.2329 15.801 19.6425 12 11.0535850275 1.7649164858 6.9213320884
3109 1 31.8408 14.1297 17.7086 12 11.0624739491 1.7648437742 9.8885500869
3110 1 33.6185 15.8183 17.7202 12 11.2696695216 1.7939904346 9.842090448
3111 1 33.5102 13.9933 19.4463 12 10.8966752676 1.7939904346 11.4403327478
3112 1 31.7047 15.8499 19.5069 12 11.4226766261 1.7939904346 8.9787560346
3113 1 35.416 14.0992 17.7671 12 10.987976894 1.761768841 12.2959110841
3114 1 37.2358 15.7801 17.6916 12 11.2420340924 1.7746605155 12.7861241351
3115 1 37.1105 14.0427 19.5114 12 11.0315361107 1.7746605155 13.9900818681
3116 1 35.301 15.8045 19.4805 12 11.2109270508 1.7934133161 11.5545216301
3117 1 38.7838 14.0264 17.7277 12 10.8182583293 1.7199888808 15.0049628153
3118 1 40.5937 15.8004 17.6334 12 11.2790033967 1.7770544347 15.7458647937
3119 1 40.6346 14.0678 19.4611 12 10.9732465326 1.7487475705 16.847180284
3120 1 39.0133 15.7586 19.5318 12 11.1456178542 1.7746605155 14.6759098194
3121 1 42.3383 17.6614 17.6258 12 11.1439520329 1.7772827233 16.7632240807
3122 1 1.73639 19.4009 17.5914 12 11.0334418547 1.7709739713 18.1819615418
3123 1 1.83626 17.7131 19.4068 12 11.2689140389 1.7709739713 18.8149627532
3124 1 42.4179 19.423 19.4226 12 11.2254557143 1.7735907364 16.6317162467
3125 1 3.56169 17.5345 17.6498 12 11.2968071476 1.7709739713 18.3604998645
3126 1 5.35466 19.4632 17.7418 12 11.0759096046 1.7743946305 16.208396081
3127 1 5.29359 17.6811 19.3078 12 10.9539994385 1.761743483 16.7230360093
3128 1 3.50425 19.4107 19.2597 12 10.9931613844 1.7549964096 18.109341876
3129 1 7.03903 17.7526 17.6626 12 11.1243924078 1.7537483645 14.9515225568
3130 1 8.80165 19.5431 17.6607 12 11.4099161005 1.7532200042 12.8028386315
3131 1 8.87412 17.6542 19.4593 12 11.0868364112 1.754721655 13.3504569905
3132 1 7.04851 19.4639 19.492 12 11.3792907533 1.7727311048 14.6454939504
3133 1 10.5347 17.7516 17.6673 12 11.2561904559 1.7667631059 11.6499053144
3134 1 12.2529 19.3789 17.6513 12 10.9846235065 1.7715720861 9.4904060028
3135 1 12.2744 17.6581 19.4357 12 11.1304734106 1.7624723581 10.2389232866
3136 1 10.6677 19.4499 19.4753 12 10.9768568259 1.7312709545 11.1391923376
3137 1 14.0663 17.6176 17.6941 12 11.2001574565 1.7663601068 8.5425154922
3138 1 15.7841 19.4059 17.6445 12 11.0437369323 1.7715720861 6.1760144588
3139 1 15.9094 17.6973 19.3996 12 11.0636610199 1.7711254679 7.1832782392
3140 1 13.9941 19.4873 19.4601 12 11.074520678 1.7715720861 7.9892858479
3141 1 17.5902 17.7144 17.5578 12 10.8831155347 1.7530524677 5.7645228883
3142 1 19.4057 19.4573 17.6178 12 10.9425572975 1.7502556237 3.2671909893
3143 1 19.4923 17.7244 19.4397 12 10.9646637367 1.7502556237 4.9682296759
3144 1 17.6579 19.3233 19.3421 12 10.9694180548 1.7371305106 4.8817502715
3145 1 21.1971 17.6566 17.5316 12 10.8318339057 1.7484742831 4.089518409
3146 1 22.8797 19.3336 17.6325 12 11.1659376836 1.7570048578 2.0917348577
3147 1 22.8555 17.5572 19.4552 12 11.1278571653 1.754824997 4.0107241479
3148 1 21.1014 19.3801 19.4338 12 10.9399585257 1.7570048578 2.8109180698
3149 1 24.6624 17.6121 17.6989 12 11.0894180417 1.7388769366 3.7440782556
3150 1 26.57 19.4497 17.7061 12 11.1615070655 1.7661304294 2.5993519233
3151 1 26.4552 17.6287 19.4024 12 11.254845557 1.7649164858 4.5783704336
3152 1 24.6795 19.5299 19.3465 12 11.2308343374 1.7539053863 2.5222166318
3153 1 28.1971 17.648 17.7939 12 10.8850935064 1.7711492157 4.9873689715
3154 1 29.9885 19.3934 17.6762 12 10.9701095603 1.7567112247 4.9049065045
3155 1 29.8774 17.5999 19.5127 12 11.1571672221 1.7696428943 6.5625706403
3156 1 28.3041 19.4117 19.5372 12 10.8267225398 1.7573542164 4.3391894923
3157 1 31.8347 17.6571 17.7551 12 11.3361944155 1.7696428943 7.3690670732
3158 1 33.5878 19.4008 17.7975 12 10.7108358454 1.753280542 8.0093877956
3159 1 33.6588 17.6279 19.3451 12 11.1619996249 1.7920465909 9.197587901
3160 1 31.8108 19.4323 19.4511 12 11.0436144187 1.7690214376 6.7577020656
3161 1 35.4754 17.5584 17.6574 12 11.3466055083 1.753280542 10.4209170947
3162 1 37.0797 19.4619 17.6126 12 11.0961562589 1.760097301 11.2559653775
3163 1 37.0525 17.5762 19.506 12 11.2865128795 1.7746605155 12.1533399325
3164 1 35.412 19.3443 19.4558 12 10.8529028463 1.7531943421 9.973938418
3165 1 38.8195 17.7584 17.7308 12 11.491573517 1.7686700536 13.4108205354
3166 1 40.6133 19.4185 17.5878 12 11.1509988113 1.7641250288 14.6906672325
3167 1 40.6656 17.5941 19.3733 12 11.2172457083 1.7679647962 15.4312151885
3168 1 38.7868 19.4826 19.4757 12 11.1416366457 1.7634206436 13.1145111888
3169 1 -0.0230847 21.1666 17.7178 12 11.1931058196 1.7744773481 16.2387426553
3170 1 1.81883 22.9442 17.7724 12 11.10982679 1.7638748416 18.0121943014
3171 1 1.85819 21.1044 19.3711 12 11.0099355217 1.7490980274 18.2187229195
3172 1 -0.0139717 22.834 19.5182 12 10.9186063391 1.7587439603 16.2879122913
3173 1 3.56263 21.2414 17.6191 12 10.8858460591 1.7743946305 17.8076893945
3174 1 5.26526 23.0086 17.7284 12 11.3191817974 1.7743946305 16.0833008591
3175 1 5.34256 21.2558 19.4971 12 11.293335322 1.7742175249 16.1260540873
3176 1 3.5617 23.0225 19.5149 12 10.9709517275 1.7717904025 17.8898258091
3177 1 7.10887 21.3095 17.6628 12 11.0678456636 1.7743946305 14.2625088143
3178 1 8.76514 23.0008 17.5953 12 10.9269540113 1.7727868784 12.5815396325
3179 1 8.86817 21.3234 19.4837 12 11.2326132427 1.7550414157 12.6273855209
3180 1 7.1615 22.9635 19.5707 12 11.0387846791 1.7742175249 14.3220973424
3181 1 10.5171 21.2066 17.6569 12 10.9909937277 1.7727868784 10.8686991677
3182 1 12.3893 23.027 17.6374 12 11.1118708513 1.7726499956 8.9588286238
3183 1 12.2691 21.225 19.3989 12 11.0712447819 1.7450571399 9.2727298318
3184 1 10.5445 23.0243 19.4504 12 11.1206785109 1.7727868784 10.9615025571
3185 1 14.1403 21.2967 17.7657 12 11.0122928967 1.7715720861 7.2526125204
3186 1 15.8671 23.0261 17.6155 12 10.7180989469 1.7674645801 5.481226939
3187 1 16.0082 21.1693 19.3838 12 11.052252592 1.749029259 5.6657769996
3188 1 14.1563 22.9771 19.384 12 10.9343035074 1.761352526 7.4086218552
3189 1 17.7023 21.2926 17.6435 12 10.7860394746 1.7728970262 3.7331635543
3190 1 19.5739 22.921 17.6428 12 10.5807827375 1.7553931708 1.7755199125
3191 1 19.3702 21.1819 19.337 12 10.9640440899 1.746599405 2.7008168639
3192 1 17.6336 22.9493 19.2664 12 10.6726881821 1.7450716012 4.0672348785
3193 1 21.1675 21.1748 17.6879 11 11.714485324 2.3362975882 0.8991139513
3194 1 40.5745 40.6129 38.8861 12 11.4435242552 1.7662536771 28.5199874516
3195 1 22.8987 21.2589 19.3789 11 12.0432435066 2.4023748568 0.8538420186
3196 1 21.2112 23.069 19.4241 11 11.6670906911 2.3569705891 0.8880631445
3197 1 24.7188 21.1553 17.535 10 13.2999049447 2.7669212049 0.258969365
3198 1 26.4859 22.9051 17.7019 10 13.4566373383 2.7852427679 0.2572380331
3199 1 26.4984 21.1677 19.4142 12 11.011402494 1.7563647676 2.1992811773
3200 1 24.6483 22.9593 19.4097 10 14.137583171 2.8466933449 0.299537439
3201 1 28.3277 21.257 17.6875 12 10.9958018002 1.7587778481 2.540959905
3202 1 30.0679 22.9383 17.6125 12 10.9445267165 1.7598273761 3.8334467014
3203 1 30.0544 21.1211 19.4301 12 10.9944368666 1.759612318 4.5191599192
3204 1 28.272 23.0225 19.4198 12 11.1334334899 1.7553686688 2.6082823683
3205 1 31.8173 21.0989 17.7084 12 11.1629186182 1.7601999182 5.8015970081
3206 1 33.5452 22.9885 17.634 12 11.0669931408 1.7652273445 7.3084156951
3207 1 33.6302 21.0982 19.384 12 11.1903480776 1.8035773075 7.7789470768
3208 1 31.7561 22.8883 19.4074 12 11.1587863027 1.7652273445 5.7738295413
3209 1 35.3263 21.0779 17.6589 12 11.096626734 1.7519350379 9.2234074452
3210 1 37.1661 22.8903 17.8303 12 11.2125005564 1.7626753828 10.9347174038
3211 1 37.0549 21.1619 19.525 12 10.8820596175 1.744926505 11.1003123163
3212 1 35.3667 22.8859 19.4739 12 10.9652121212 1.7648762069 9.3021571347
3213 1 38.9084 21.1994 17.6587 12 11.0987193021 1.7542604142 12.7524517106
3214 1 40.7168 22.9409 17.6584 12 11.1103873836 1.7634851426 14.4772991086
3215 1 40.6836 21.1144 19.4178 12 10.889702719 1.7634008594 14.654803329
3216 1 38.916 22.8827 19.4521 12 11.0323926339 1.7538819563 12.8037658625
3217 1 0.0778352 24.68 17.6922 12 10.7857239459 1.7638748416 16.2770122217
3218 1 1.63938 26.3439 17.6988 12 10.7003396107 1.7256652288 17.9346121025
3219 1 1.73262 24.7064 19.4996 12 10.752818766 1.7396785211 18.1063848593
3220 1 42.3257 26.4565 19.4737 12 11.0487531288 1.7683437255 16.4810262524
3221 1 3.41706 24.8215 17.7444 12 11.1372788748 1.7456819514 17.9372946025
3222 1 5.39542 26.4777 17.6297 12 11.2950284848 1.7576243834 16.0828407359
3223 1 5.39612 24.8033 19.4667 12 11.1461099176 1.7742175249 16.0936701165
3224 1 3.59518 26.4919 19.4993 12 11.2390206006 1.7396785211 17.9978787774
3225 1 7.09519 24.6117 17.6355 12 11.1669372189 1.7589699555 14.2546452281
3226 1 8.80898 26.4704 17.6507 12 11.2993062515 1.7856045777 12.7041917556
3227 1 8.90225 24.8126 19.513 12 11.0224863845 1.7486107657 12.6356578153
3228 1 7.03305 26.4391 19.5306 12 11.0809610444 1.7486107657 14.6155514891
3229 1 10.6451 24.7455 17.5739 12 11.3871390646 1.7856045777 10.7075780198
3230 1 12.3806 26.5138 17.5628 12 11.391281423 1.7855864945 9.204989551
3231 1 12.3414 24.7059 19.4556 12 11.239337462 1.766068173 9.2509384761
3232 1 10.6143 26.4479 19.4141 12 11.2645336541 1.7856045777 11.1114665023
3233 1 14.1503 24.8203 17.6294 12 10.9653482085 1.7474252778 7.2111689926
3234 1 15.9755 26.4743 17.6139 12 11.0565971812 1.7890169763 5.7496066926
3235 1 15.7531 24.713 19.4842 12 10.9037399814 1.748046003 5.991880947
3236 1 14.111 26.519 19.3757 12 11.2237374735 1.7630176629 7.7958257471
3237 1 17.6168 24.6149 17.6274 12 10.7872073899 1.7560518546 3.7435530359
3238 1 19.4834 26.3661 17.6537 12 11.1966572897 1.7752064435 2.62776586
3239 1 19.3808 24.615 19.3362 12 10.940489539 1.7538259188 2.69008872
3240 1 17.5981 26.4936 19.4154 12 11.0931887903 1.7560518546 4.747012833
3241 1 21.2392 24.6477 17.5854 10 14.475099467 2.8466933449 0.3119680362
3242 1 22.9685 26.521 17.6246 10 13.8005762968 2.8262319428 0.3350558072
3243 1 22.9791 24.7687 19.5012 10 12.8885134208 2.7287607377 0.3921729979
3244 1 21.186 26.4257 19.3727 12 11.3274259298 1.7552668691 2.3138878102
3245 1 38.82 38.8762 39.0109 12 11.3410798876 1.7478333886 26.5488724981
3246 1 26.4483 26.4702 17.4943 11 11.8479644202 2.4150831266 0.9430651219
3247 1 26.4323 24.7616 19.3525 11 12.0238741163 2.4765735171 0.917706297
3248 1 24.647 26.5121 19.3084 11 11.8965443403 2.4806886709 0.483037948
3249 1 28.3154 24.706 17.6124 12 11.0725737581 1.7887689473 2.2701334802
3250 1 30.0446 26.554 17.6562 12 11.2224997736 1.7885131138 4.3686481587
3251 1 30.0648 24.7574 19.297 12 10.8608191796 1.763486783 4.3001748635
3252 1 28.2445 26.3979 19.3935 12 11.0184913602 1.7887531299 2.9721706655
3253 1 31.7685 24.6193 17.7386 12 10.7192962126 1.7414167052 5.6351854814
3254 1 33.6137 26.5202 17.6934 12 10.7497384465 1.7392401768 7.7467596215
3255 1 33.4719 24.8145 19.37 12 10.7897152851 1.7582961871 7.629779843
3256 1 31.7215 26.5492 19.3254 12 10.9251077164 1.7497179216 6.2370586115
3257 1 35.2483 24.5358 17.6957 12 11.0838234556 1.7613191094 9.0490530437
3258 1 37.2396 26.4291 17.6953 12 11.0112295607 1.7527449102 11.2191353006
3259 1 37.3067 24.7029 19.4177 12 10.8120928056 1.7325302888 11.3476548676
3260 1 35.4132 26.3414 19.3657 12 11.1120641828 1.759890938 9.7366021325
3261 1 38.9693 24.7319 17.6628 12 10.4784994871 1.7464300598 12.7518091328
3262 1 40.6687 26.4113 17.6207 12 10.6351760689 1.739325641 14.571906783
3263 1 40.7035 24.6477 19.3551 12 10.9919519724 1.7538819563 14.6640639853
3264 1 39.0126 26.3175 19.3566 12 10.8459899262 1.7592760778 13.221474869
3265 1 0.00664668 28.1663 17.7008 12 11.1234883141 1.7711898661 16.6274951595
3266 1 1.80204 29.9855 17.6718 12 10.9757152117 1.7668571378 18.8235903038
3267 1 1.76381 28.2123 19.3665 12 11.0009951171 1.7683437255 18.5621673789
3268 1 0.0251843 29.988 19.4067 12 10.9071695066 1.7683437255 17.3591823244
3269 1 3.50447 28.1825 17.6815 12 11.2872663923 1.7833173569 18.233206707
3270 1 5.31165 30.1137 17.6714 12 11.2555299771 1.7580702237 17.0122495417
3271 1 5.34255 28.3307 19.3951 12 11.2042654661 1.7437124388 16.5964195901
3272 1 3.53125 29.9434 19.3621 12 10.9905370845 1.7577030014 18.7541711241
3273 1 7.05913 28.3013 17.6842 12 10.8280739116 1.7449435275 14.8037288934
3274 1 8.82982 29.9792 17.6931 12 10.7273908438 1.75650786 13.6920350413
3275 1 8.78086 28.2088 19.3776 12 10.9234453384 1.7527722793 13.2743531931
3276 1 7.18048 29.9964 19.4551 12 10.769779976 1.7725509616 15.3618081663
3277 1 10.5671 28.3147 17.6552 12 11.3003883112 1.7856045777 11.4588877934
3278 1 12.3723 30.0173 17.6068 12 11.237435685 1.7757005893 10.5060075021
3279 1 12.4161 28.4489 19.4578 12 11.3426790259 1.7695058706 10.0134539978
3280 1 10.5526 30.0649 19.4819 12 10.6859802088 1.7552111726 12.35721753
3281 1 14.1483 28.3031 17.5922 12 11.2449277316 1.7886119367 8.1591350369
3282 1 15.9331 30.0886 17.6082 12 11.1582981155 1.7893756652 7.5077384474
3283 1 15.826 28.2293 19.4625 12 11.2377994062 1.7893756652 7.0216353343
3284 1 14.139 30.0846 19.513 12 11.1900931309 1.7757005893 9.396686069
3285 1 17.7338 28.1523 17.6896 12 11.2082053846 1.7893756652 5.0184340588
3286 1 19.4744 29.9307 17.605 12 11.1725703627 1.7790584266 4.9093134376
3287 1 19.3365 28.228 19.376 12 11.1689444236 1.7748346419 4.5295498356
3288 1 17.5272 29.9348 19.5088 12 11.0578767118 1.7790584266 6.8793169175
3289 1 21.2807 28.1867 17.6494 12 11.0232372538 1.7752064435 2.5613489742
3290 1 22.9053 29.9737 17.6357 12 10.9243720632 1.7511302702 3.6155579892
3291 1 23.0202 28.2992 19.4369 12 10.9996829679 1.7504776373 2.510559383
3292 1 21.1328 29.9487 19.4191 12 10.9459824095 1.7678466994 4.547231415
3293 1 24.8221 28.3609 17.522 12 10.916148089 1.7511892189 2.0381097556
3294 1 26.4995 29.9873 17.5712 12 10.8651383944 1.7534886666 3.8370161925
3295 1 26.5438 28.1153 19.3609 12 11.2156915976 1.7817904699 2.5425492622
3296 1 24.8456 30.0035 19.3761 12 11.2290385646 1.7643383906 3.8320573542
3297 1 28.217 28.2815 17.5952 12 11.2603691382 1.7887689473 3.3733887651
3298 1 30.0838 29.9118 17.8322 12 11.0939878702 1.7663906963 5.8461123504
3299 1 29.9194 28.2573 19.5365 12 10.93568279 1.7507500279 5.1723081367
3300 1 28.2297 30.0078 19.4518 12 10.7268418939 1.7540495265 4.9336978281
3301 1 31.9088 28.3124 17.6756 12 10.8107733091 1.7648213798 6.6953803775
3302 1 33.6189 29.9971 17.6704 12 10.8075172307 1.7546345446 8.9271908179
3303 1 33.5827 28.2229 19.4145 12 10.8597369279 1.7557470235 8.4716594517
3304 1 31.8575 30.0723 19.3886 12 10.8771537431 1.7513962088 7.5878780153
3305 1 35.3856 28.1414 17.6135 12 11.0356716383 1.7760950947 9.8853112301
3306 1 37.1063 29.9267 17.6604 12 11.0599126788 1.775883752 12.1151166787
3307 1 37.2027 28.2464 19.5004 12 11.1955730266 1.759890938 11.9212623572
3308 1 35.3515 29.9912 19.4011 12 11.0110817124 1.7757931261 10.6604116704
3309 1 38.9876 28.2267 17.7079 12 10.97903548 1.7527449102 13.3227462132
3310 1 40.7155 30.1481 17.6705 12 11.0547712216 1.7668571378 15.5609635784
3311 1 40.6121 28.2827 19.3762 12 11.093911431 1.7679570461 15.1452296223
3312 1 38.874 30.0005 19.4321 12 10.8387918814 1.7443386813 13.9776566297
3313 1 0.184551 31.7704 17.5498 12 10.674320512 1.7625099205 17.9046583742
3314 1 1.72776 33.4287 17.6531 12 11.003468066 1.7771514924 19.9635493953
3315 1 1.69709 31.6752 19.521 12 10.8965407349 1.7771514924 19.4557501406
3316 1 0.00733286 33.5486 19.2912 12 10.8856475247 1.7682714336 18.4981909128
3317 1 3.41283 31.8504 17.6593 12 11.4249097639 1.7721452656 19.4060895664
3318 1 5.37929 33.4321 17.5537 12 11.3367889009 1.7489190095 18.2583764074
3319 1 5.29609 31.7449 19.5177 12 11.1079181726 1.7725509616 17.76754231
3320 1 3.69026 33.4312 19.4552 12 11.3155252062 1.7939622069 19.9256487895
3321 1 7.19657 31.8015 17.7492 12 10.9435573842 1.771148557 15.9338653068
3322 1 8.82105 33.5341 17.7309 12 10.9939548088 1.7470788353 15.2787271204
3323 1 8.8554 31.7513 19.5143 12 10.5892705149 1.771882059 14.6345122355
3324 1 7.12645 33.5316 19.4435 12 10.8700274937 1.7725509616 16.984095258
3325 1 10.5806 31.6881 17.7594 12 11.1578172742 1.7670337024 12.8722786885
3326 1 12.3053 33.4554 17.6728 12 11.1777903586 1.7470788353 12.3240792192
3327 1 12.3284 31.7467 19.3628 12 10.8385316721 1.7431217518 11.7203412462
3328 1 10.5483 33.6114 19.5071 12 10.8214991984 1.7470788353 14.206954527
3329 1 14.1774 31.8465 17.6596 12 11.1207861916 1.7757005893 9.9015213683
3330 1 15.944 33.6577 17.6942 12 11.0121670273 1.7623160949 9.8556257843
3331 1 15.9536 31.7832 19.2981 12 11.0923243444 1.7905455309 9.0324191176
3332 1 14.0943 33.5198 19.4201 12 11.1256992645 1.7623160949 11.4514433536
3333 1 17.7518 31.7493 17.6385 12 11.2364579662 1.7777691669 7.2962080726
3334 1 19.4412 33.6062 17.6715 12 11.0751387121 1.7705246533 8.0631926614
3335 1 19.3096 31.6611 19.4142 12 11.1384892967 1.7678466994 6.869433262
3336 1 17.7024 33.482 19.4055 12 10.9033555516 1.7617342716 9.1784781611
3337 1 21.2097 31.7182 17.6437 12 11.1654273798 1.7678466994 5.6961041151
3338 1 23.0816 33.5208 17.6403 12 10.9670707981 1.7501448139 7.1363195005
3339 1 22.8949 31.7624 19.3933 12 11.1359422672 1.7649052534 5.6466993912
3340 1 21.2005 33.5793 19.3233 12 11.0332913008 1.7667587946 7.6855335435
3341 1 24.829 31.7294 17.6848 12 11.0003067407 1.7511302702 5.4031808648
3342 1 26.5487 33.4476 17.6253 12 10.8500544669 1.7581373281 7.2391150021
3343 1 26.653 31.8072 19.4384 12 10.7991877859 1.7505835955 5.8682692601
3344 1 24.7579 33.4642 19.3581 12 10.9524731843 1.7452966529 7.2627659472
3345 1 28.3536 31.7794 17.6039 12 10.8568511987 1.7540495265 6.1918307105
3346 1 30.0422 33.4375 17.6112 12 10.7912675927 1.7824969172 8.4731573054
3347 1 30.0008 31.6774 19.4132 12 10.9091971291 1.7730657095 7.2271583391
3348 1 28.3088 33.4952 19.3663 12 10.8738999538 1.7730657095 7.9129182641
3349 1 31.85 31.7579 17.6335 12 10.8686695495 1.7811776819 8.3831276179
3350 1 33.6008 33.5095 17.6699 12 10.9794456954 1.7824723514 10.8541461385
3351 1 33.5415 31.8097 19.4506 12 10.9262332491 1.764734348 9.910255073
3352 1 31.8515 33.532 19.3879 12 11.01652781 1.7824969172 9.7811179319
3353 1 35.3734 31.7845 17.6201 12 11.0210617851 1.7594020106 11.3018679541
3354 1 37.1185 33.5125 17.6735 12 10.8999150866 1.7612316634 13.6829065563
3355 1 37.0232 31.665 19.4144 12 10.8325941559 1.7446194867 12.8307772238
3356 1 35.3896 33.528 19.4528 12 11.0046510669 1.7612231249 12.3813054027
3357 1 38.855 31.7299 17.6577 12 11.097682258 1.7437844804 14.4180047143
3358 1 40.7048 33.5641 17.6396 12 10.9221708341 1.7318302331 16.8573499227
3359 1 40.7454 31.761 19.3657 12 11.0702743963 1.7443386813 16.2832791145
3360 1 38.9231 33.5418 19.3593 12 11.1263886089 1.7426572425 15.347796984
3361 1 42.4254 35.2933 17.6498 12 10.7079190791 1.7343547767 19.1732888982
3362 1 1.85273 37.1427 17.723 12 10.5757844528 1.7385991175 21.6964109688
3363 1 1.82079 35.263 19.3072 12 11.0609470343 1.7759024708 20.8519088599
3364 1 0.108419 37.0084 19.3743 12 11.0098397199 1.7762543209 20.2018958217
3365 1 3.63719 35.3167 17.7314 12 11.1993442655 1.7489190095 20.6614559257
3366 1 5.30338 37.1334 17.7299 12 10.9019262522 1.766486951 20.1176507505
3367 1 5.45326 35.2726 19.4589 12 11.0342003864 1.7335611688 19.2814365182
3368 1 3.64229 37.0335 19.4474 12 10.8624514075 1.7557251804 21.7021132983
3369 1 7.07598 35.3416 17.7237 12 11.0516406662 1.7663240573 17.6762770731
3370 1 8.83498 37.0745 17.6874 12 11.0080187023 1.766486951 17.2429803049
3371 1 8.92961 35.3584 19.4785 12 10.8285857011 1.7580868031 16.4588773864
3372 1 7.12126 37.1714 19.4958 12 10.8842482477 1.766486951 18.9285746655
3373 1 10.5057 35.3446 17.6524 12 10.7914178519 1.7470788353 14.870823393
3374 1 12.3154 37.0841 17.6758 12 10.7867693312 1.7364593759 14.7472060024
3375 1 12.3387 35.2986 19.327 12 11.2734786919 1.7542099458 13.8098596758
3376 1 10.6319 37.0898 19.3987 12 10.9291456805 1.7586548096 16.2219371613
3377 1 14.1108 35.2953 17.6217 12 11.1646524555 1.742626962 12.2372123197
3378 1 15.9391 36.9899 17.6415 12 10.6624815747 1.7458155448 12.5598729885
3379 1 15.8038 35.3818 19.5496 12 11.0097514867 1.7596439825 11.7556477461
3380 1 14.2218 37.1953 19.33 12 11.0846513391 1.7509208517 13.9902509847
3381 1 17.6088 35.2617 17.7313 12 10.8483101827 1.7457902432 10.3026088897
3382 1 19.4182 37.1072 17.6544 12 11.4641726649 1.8065694691 11.3445040049
3383 1 19.43 35.2617 19.4194 12 10.9319875555 1.7552609236 9.8641045805
3384 1 17.5513 37.1257 19.5074 12 11.1701112668 1.7458155448 12.3226543036
3385 1 21.2617 35.3377 17.6538 12 10.913890867 1.759119973 9.1817913701
3386 1 23.0429 37.0876 17.6184 12 11.1229717962 1.7587384487 10.7020891768
3387 1 22.9987 35.2422 19.4043 12 10.9789918403 1.7554649705 9.0194301738
3388 1 21.1997 37.0024 19.3565 12 11.0839324328 1.778708867 10.959219506
3389 1 24.8112 35.3152 17.6325 12 11.081348436 1.7581373281 8.983333542
3390 1 26.5687 37.094 17.5865 12 11.2129347009 1.8065972084 10.8620596826
3391 1 26.4886 35.2067 19.3579 12 11.2200221145 1.8068152075 9.117551983
3392 1 24.687 37.0759 19.3864 12 11.1622644491 1.8068152075 10.8504723471
3393 1 28.3129 35.2594 17.6791 12 10.8989703046 1.7581373281 9.4046185778
3394 1 29.9501 37.0591 17.649 12 11.0618738419 1.7705577682 11.6567850145
3395 1 30.0808 35.2577 19.3388 12 11.1069207947 1.7863493762 10.2048687269
3396 1 28.297 36.9883 19.4731 12 11.3043132809 1.8068152075 11.2019881409
3397 1 31.783 35.3588 17.6929 12 10.9566225199 1.7824969172 11.0364658421
3398 1 33.4687 37.1197 17.6165 12 11.0010183343 1.7533737757 13.4495980662
3399 1 33.5332 35.2791 19.4004 12 10.8129295242 1.7370073269 12.1768894186
3400 1 31.8615 37.1538 19.4231 12 10.9564344209 1.7675707206 12.709290243
3401 1 35.3414 35.3609 17.6879 12 10.8836112307 1.7612316634 13.3872601598
3402 1 37.1046 37.1269 17.7051 12 10.9557460222 1.7733115877 15.880974838
3403 1 37.0834 35.2796 19.3424 12 10.9362587062 1.7394211125 14.7558649887
3404 1 35.231 36.9964 19.4044 12 10.9231914664 1.7379840517 14.5701475021
3405 1 38.823 35.3592 17.7696 12 11.0393888738 1.7744678146 16.1195500479
3406 1 40.6826 37.1074 17.7618 12 11.07428759 1.7744678146 18.6448372047
3407 1 40.6656 35.3667 19.4311 12 10.7809233673 1.7437443515 17.7602766746
3408 1 38.946 37.1244 19.5211 12 11.0294168528 1.7742721449 17.3654546148
3409 1 -0.0130471 38.7877 17.7732 12 10.7175601529 1.7643005228 21.0368980646
3410 1 1.7273 40.6179 17.7175 12 11.1672780838 1.7583750754 23.5282298483
3411 1 1.83406 38.8712 19.4378 12 10.9604880293 1.745443944 22.6614132058
3412 1 -0.010132 40.6281 19.408 12 10.8694987498 1.7872690404 22.2471219642
3413 1 3.60719 38.9082 17.701 12 10.8692111808 1.7524269099 22.5009201534
3414 1 5.3639 40.6326 17.6608 12 11.2762503835 1.7557922425 22.1615931772
3415 1 5.33724 38.8427 19.5043 12 10.8093287413 1.7571327662 21.3147443898
3416 1 3.61037 40.7057 19.4612 12 11.0298569754 1.7460174643 23.7763249156
3417 1 7.11324 38.8949 17.7421 12 11.0910657829 1.766486951 19.7221375126
3418 1 8.78985 40.6281 17.605 12 11.0174016351 1.7474761812 19.6994173325
3419 1 8.82662 38.9379 19.402 12 10.8073379792 1.7586548096 18.7449400259
3420 1 7.08442 40.7369 19.5524 12 11.1671964961 1.7581473013 21.2306313463
3421 1 10.535 38.8459 17.6249 12 10.9250131381 1.7480661789 17.222439811
3422 1 12.3811 40.5422 17.677 12 11.1187015655 1.7762712216 17.4184985461
3423 1 12.3004 38.8396 19.3706 12 11.0703098046 1.7766421026 16.3925298998
3424 1 10.6723 40.6177 19.4451 12 10.9671161644 1.7766421026 18.756858572
3425 1 14.1772 38.801 17.6518 12 10.6420464339 1.753391644 14.9945607101
3426 1 15.7772 40.6395 17.6359 12 10.7449037171 1.7303326369 15.8674412431
3427 1 15.8775 38.9624 19.2804 12 10.5915195594 1.7472122194 14.6182230024
3428 1 14.2215 40.7123 19.422 12 11.0669760981 1.7766421026 16.9140288792
3429 1 17.6654 38.8528 17.6009 12 10.9786606563 1.8059319032 13.5287093271
3430 1 19.403 40.7157 17.7458 12 11.0072195454 1.8065694691 14.8326914778
3431 1 19.4757 38.7799 19.5309 12 11.2816815052 1.8065694691 13.1197014139
3432 1 17.6628 40.5412 19.3658 12 10.922952815 1.7463926599 15.3415635607
3433 1 21.2848 38.8476 17.5996 12 11.2736737582 1.8065694691 12.6303861969
3434 1 22.968 40.5882 17.6919 12 11.2880024427 1.7587384487 14.202920178
3435 1 22.9246 38.7886 19.5603 12 11.0205114511 1.7601763965 12.5426583091
3436 1 21.2079 40.545 19.3329 12 10.9729842639 1.7544691136 14.4125160805
3437 1 24.8208 38.7902 17.7169 12 11.2087755298 1.7601763965 12.4546513256
3438 1 26.4868 40.6753 17.6061 12 11.1995007625 1.7580570336 14.4241228081
3439 1 26.4388 38.8252 19.4935 12 11.3448783087 1.8067293892 12.6973391125
3440 1 24.7554 40.6421 19.4152 12 11.0929305498 1.7601763965 14.4000291533
3441 1 28.1524 38.8695 17.7605 12 11.2338171749 1.7711825049 12.8607369483
3442 1 29.9352 40.6089 17.6126 12 11.2064885108 1.7705027695 14.9948139936
3443 1 29.9726 38.8581 19.4355 12 11.1124579769 1.7705577682 13.4556728856
3444 1 28.2072 40.652 19.4172 12 11.2415946704 1.7785838448 14.7188251205
3445 1 31.7341 38.8873 17.584 12 11.0551245871 1.7705577682 14.0601840899
3446 1 33.634 40.5883 17.6793 12 11.4743372135 1.7977767718 16.4540851022
3447 1 33.5738 38.9172 19.4142 12 10.8651918423 1.7756033371 15.0881924193
3448 1 31.7612 40.5172 19.452 12 11.0765533877 1.7753956154 15.6455180949
3449 1 35.4507 38.8132 17.661 12 11.1960883987 1.7738952117 15.99891781
3450 1 37.0649 40.6 17.6516 12 11.0479188364 1.7458467685 18.4026889406
3451 1 37.0671 38.7446 19.5046 12 10.9614018284 1.7393972106 17.0953340086
3452 1 35.3362 40.6328 19.3838 12 11.0474956615 1.7756033371 17.4757272457
3453 1 38.8361 38.9021 17.6639 12 11.262708927 1.7744678146 18.3585232431
3454 1 40.7165 40.5013 17.6836 12 11.0959852765 1.7601549191 20.823904701
3455 1 40.677 38.9067 19.4989 12 10.9452909634 1.7449571005 19.8201637644
3456 1 38.7804 40.5213 19.4974 12 11.0674107447 1.7286031542 19.5505792914
3457 1 0.030853 42.326 21.3037 12 11.0369289947 1.7872690404 23.6208034885
3458 1 1.75952 1.83811 21.1874 12 10.8307845678 1.7530495237 26.1704022802
3459 1 1.66804 0.108997 22.8663 12 11.1119482434 1.7905991645 25.2342844483
3460 1 42.3608 1.80967 23.0094 12 11.3182777788 1.7678024026 25.1949513594
3461 1 3.49771 0.0252567 21.1741 12 11.0215151112 1.7577219912 25.2834744918
3462 1 5.30649 1.85814 21.1891 12 10.9035570352 1.7577219912 25.2674392399
3463 1 5.16264 -0.00999173 23.0397 12 11.0106294057 1.7624047024 24.5571854108
3464 1 3.44822 1.79402 23.0021 12 10.9040322446 1.7507262976 26.9290088831
3465 1 7.00352 0.011036 21.2104 12 11.3309755214 1.7577219912 22.8314022016
3466 1 8.78335 1.70756 21.2327 12 11.0226315327 1.7518478342 23.0007357614
3467 1 8.87465 42.345 22.837 12 11.5248336837 1.764574384 22.0430478314
3468 1 6.92565 1.75924 22.9612 12 10.9892818684 1.7841204224 24.6153007259
3469 1 10.7072 0.0194544 21.1862 12 11.3632411893 1.7630078891 20.5768099271
3470 1 12.3711 1.88046 21.0502 12 11.1046429343 1.7819607625 21.2235540675
3471 1 12.4743 42.4066 23.0273 12 11.2556560234 1.7370651257 20.0970538346
3472 1 10.6838 1.6592 22.9468 12 11.2181864624 1.772359297 22.3790416175
3473 1 14.1289 -0.00219906 21.1837 12 11.4965847112 1.7823075414 18.8222767163
3474 1 15.9492 1.81953 21.1709 12 10.9700385136 1.7823075414 19.6556711554
3475 1 15.9194 -0.01467 22.9418 12 11.0358942584 1.7563138254 18.4397296107
3476 1 14.0815 1.77246 23.0305 12 10.9954775903 1.7823075414 20.7914423505
3477 1 17.6367 -0.046216 21.2024 12 10.9365839151 1.757795038 17.3529437294
3478 1 19.3759 1.71405 21.2097 12 11.1498398508 1.7648297344 18.5359078339
3479 1 19.2812 42.3959 22.9534 12 11.1059631029 1.7891554675 17.3354047035
3480 1 17.542 1.76721 23.0292 12 10.592216154 1.7648297344 19.4835194531
3481 1 21.1688 0.0181813 21.2226 12 10.9818166374 1.7544691136 16.5872295056
3482 1 23.0305 1.78679 21.2534 12 10.9250793363 1.7433144199 18.1774796621
3483 1 23.0037 0.0224425 22.9049 12 10.9556145605 1.7653636894 16.8210253264
3484 1 21.1744 1.69105 22.9938 12 11.2082242366 1.7630683518 18.6335064714
3485 1 24.6886 42.3136 21.0996 12 10.7838681279 1.7516536596 16.2576805845
3486 1 26.5597 1.67644 21.2263 12 10.9879595182 1.7570730751 18.1422743418
3487 1 26.4964 42.3147 22.9956 12 10.9363677041 1.7670938277 16.7008913515
3488 1 24.84 1.73159 22.9286 12 11.0334097451 1.7516536596 18.4006372123
3489 1 28.1848 0.001649 21.3099 12 11.0443219964 1.7785838448 16.7403167899
3490 1 30.0441 1.79664 21.3302 12 11.0382213071 1.75022703 18.8600978182
3491 1 30.0492 42.3834 22.918 12 11.3581383194 1.7833002724 17.4673939292
3492 1 28.2179 1.78266 22.9879 12 11.2153859974 1.7645990352 18.7748538498
3493 1 31.6979 42.2366 21.2493 12 11.2919322827 1.7649038948 17.475189081
3494 1 33.506 1.80528 21.2313 12 11.0868513073 1.75022703 19.9688286468
3495 1 33.6246 42.2975 22.9098 12 11.4131428367 1.7649038948 18.6931773292
3496 1 31.8329 1.73277 23.0278 12 10.9650921297 1.7637448743 19.6925783107
3497 1 35.3106 -0.00526906 21.2154 12 10.8811237771 1.7603804118 19.2111359561
3498 1 37.0902 1.63419 21.1874 12 10.7850267358 1.7817943382 21.5074396049
3499 1 37.0271 42.3205 22.9755 12 10.6611532059 1.7351167224 20.4383029583
3500 1 35.405 1.7966 22.8369 12 11.1377632189 1.7826309549 21.1267777786
3501 1 38.84 42.3696 21.2425 12 10.7372987009 1.7351167224 21.1928305408
3502 1 40.6581 1.80632 21.1181 12 11.4237226067 1.764584341 23.7419162519
3503 1 40.6094 42.2716 22.8633 12 11.0445719858 1.764584341 22.5922358837
3504 1 38.85 1.65208 22.9003 12 11.3315706126 1.7750697735 22.8460668779
3505 1 42.3058 3.59349 21.0481 12 11.0405270533 1.7562864162 25.0273604359
3506 1 1.74098 5.24327 21.2248 12 11.0505075332 1.7580167332 25.1658590396
3507 1 1.70643 3.55072 22.9557 12 11.0941420948 1.7363939418 26.7146631666
3508 1 42.4733 5.3503 22.9026 12 10.9404561672 1.753520291 24.3454318285
3509 1 3.53619 3.50879 21.1633 12 10.9079768046 1.7450095822 25.9620325272
3510 1 5.17747 5.34943 21.1656 12 11.049941171 1.7636124766 23.521941112
3511 1 5.23529 3.5192 22.9917 12 10.905367924 1.7568919413 25.1373481697
3512 1 3.59011 5.24453 22.9185 12 10.8216302895 1.756452083 25.0156209266
3513 1 6.97574 3.53932 21.268 12 10.9262806433 1.7614809416 23.725698222
3514 1 8.88232 5.20737 21.1836 12 10.969185031 1.7644666021 21.2619137825
3515 1 8.86601 3.38686 22.8834 12 10.8668887636 1.7723372717 23.0619201519
3516 1 7.1109 5.30025 22.9517 12 11.3131313333 1.7636124766 22.6183425267
3517 1 10.52 3.45122 21.2006 12 10.8205932512 1.7730140308 21.8260866216
3518 1 12.2915 5.14485 21.2701 12 11.0261267243 1.752579904 19.5276692213
3519 1 12.4169 3.5108 22.9587 12 10.7968059109 1.7730140308 21.1902912623
3520 1 10.4222 5.24791 22.9882 12 10.885224006 1.7730140308 20.7459274965
3521 1 14.1179 3.56815 21.3097 12 10.8277659921 1.7822385287 20.0677001536
3522 1 15.8995 5.2011 21.1977 12 11.1061140229 1.7624034452 17.8514466125
3523 1 15.8961 3.4433 23.0155 12 10.7077997513 1.7574530549 19.7989159398
3524 1 14.0409 5.45391 23.0047 12 10.6729861831 1.7582069236 18.7741941063
3525 1 17.5905 3.50059 21.1777 12 10.7787656677 1.7610567275 18.87731174
3526 1 19.425 5.1961 21.231 12 10.9571762902 1.7610567275 16.8217181719
3527 1 19.222 3.50924 22.9692 12 11.1792899485 1.7648297344 18.828703527
3528 1 17.5589 5.23448 23.0233 12 11.0399050253 1.7666861135 17.6248646282
3529 1 21.2105 3.41269 21.2115 12 11.2795882111 1.7816170998 18.3104028653
3530 1 22.9081 5.23956 21.247 12 10.9824886456 1.7787183889 16.4452104292
3531 1 23.0129 3.50062 23.0616 12 11.050458268 1.7444437459 18.5228887577
3532 1 21.2441 5.32186 22.9251 12 11.1658615119 1.7580730449 16.7950572212
3533 1 24.7314 3.58041 21.279 12 10.8461100293 1.772477265 18.1566537661
3534 1 26.4665 5.27757 21.1063 12 11.0687030372 1.7522602983 16.5891686244
3535 1 26.3788 3.63679 22.9651 12 10.9186038242 1.7596028068 18.641276198
3536 1 24.6647 5.30747 22.9093 12 11.0367687431 1.7608044825 16.8406216865
3537 1 28.1468 3.49992 21.1794 12 11.2252106728 1.7553704345 18.5572021157
3538 1 29.9772 5.2977 21.188 12 11.0771765622 1.7642931616 17.2943522646
3539 1 30.0381 3.45216 22.9926 12 11.2707821474 1.7642931616 19.4866601118
3540 1 28.2383 5.28703 22.9145 12 11.2904667153 1.773382817 17.3505634756
3541 1 31.753 3.52012 21.211 12 10.9955153119 1.7476283738 19.5171084043
3542 1 33.4608 5.31836 21.0858 12 11.2337640714 1.8062131719 18.5937517954
3543 1 33.5868 3.50173 23.0145 12 10.9343367835 1.80568859 20.6847659949
3544 1 31.7792 5.34247 22.8883 12 11.0540447662 1.8055904422 18.3231158212
3545 1 35.2415 3.60719 21.2171 12 10.986363062 1.7823777145 20.9387823557
3546 1 37.0876 5.37907 21.3001 12 11.120071253 1.7823777145 20.5261221753
3547 1 37.1373 3.53179 22.9866 12 11.1545806146 1.7823777145 22.3907958468
3548 1 35.4088 5.31188 22.9915 12 11.0110291533 1.8062131719 20.0399560456
3549 1 38.8006 3.49376 21.1159 12 11.4091834088 1.7823777145 22.9820166993
3550 1 40.5718 5.38528 21.1771 12 11.0467328177 1.7562864162 22.6292588002
3551 1 40.6794 3.55455 22.8751 12 11.3301978345 1.7750697735 24.4660674445
3552 1 38.8908 5.29017 22.9931 12 10.8950740719 1.7723165092 22.0951750138
3553 1 42.3846 7.03061 21.1595 12 11.382412605 1.7556412517 22.6890702066
3554 1 1.85017 8.78478 21.1711 12 11.2095773586 1.788418682 23.020234471
3555 1 1.77046 7.01359 22.9217 12 10.9470077227 1.7538317875 24.4647906409
3556 1 42.3812 8.89105 22.9113 12 11.2842941366 1.7598005599 21.9483091845
3557 1 3.51714 7.05325 21.2139 12 10.6356572741 1.7382142386 23.5789644386
3558 1 5.24258 8.79885 21.2178 12 11.0700325636 1.7824366369 21.1663956307
3559 1 5.28739 7.02486 22.9693 12 10.8138308584 1.7568919413 22.6302147977
3560 1 3.5772 8.79702 22.8715 12 10.8410432714 1.7501170579 22.7762407864
3561 1 7.06616 7.19796 21.1811 12 11.3560259088 1.7636124766 20.9147435336
3562 1 8.85025 8.88946 21.3156 12 10.9432726275 1.7657423925 18.5229947941
3563 1 8.88824 7.07414 22.9477 12 10.7578125564 1.7552058169 20.191698163
3564 1 7.03513 8.89707 23.0554 12 10.8879897931 1.7400804584 20.1760804753
3565 1 10.5662 6.97921 21.225 12 11.1600904661 1.7549576717 18.8825277728
3566 1 12.3429 8.89422 21.2709 12 10.901851802 1.7547743334 16.3566128057
3567 1 12.3302 7.02199 22.9877 12 10.9682873884 1.7547514643 18.3191346696
3568 1 10.6021 8.82779 22.9391 12 10.7211743786 1.7723182859 17.8404006162
3569 1 14.0645 7.02504 21.2403 12 11.0427835628 1.7547743334 17.0590928912
3570 1 15.7932 8.81805 21.2604 12 11.1696387888 1.7831865481 14.6962071327
3571 1 15.8457 7.0826 22.9556 12 11.310473411 1.7691444594 16.5617331633
3572 1 14.0936 8.84564 23.0658 12 10.854904726 1.7482644742 15.9619340236
3573 1 17.7052 7.01832 21.2432 12 11.1421837364 1.7691444594 15.5426834687
3574 1 19.4134 8.89966 21.3564 12 10.9699868932 1.7629470012 13.3047588538
3575 1 19.4177 7.001 22.9364 12 10.9786734075 1.7680358295 15.483343237
3576 1 17.6598 8.87358 22.9827 12 11.2151596305 1.7691444594 14.2970226923
3577 1 21.1573 7.0876 21.3133 12 10.9711028445 1.7765946234 14.7269807017
3578 1 22.98 8.82372 21.2273 12 11.0366410608 1.7778753618 12.921287182
3579 1 22.9469 7.13579 23.0793 12 11.1672930873 1.7787183889 15.0299648798
3580 1 21.1492 8.82172 23.0433 12 11.1055285354 1.7595191407 13.518104169
3581 1 24.7903 7.13233 21.2572 12 11.2248214817 1.7787183889 14.6858922605
3582 1 26.5475 8.87822 21.2546 12 11.1222089362 1.7544584247 13.1906043788
3583 1 26.4638 7.09677 22.9408 12 11.2997200543 1.7608044825 15.3906119731
3584 1 24.6486 8.91295 23.1099 12 10.9938912863 1.7604561846 13.4877789809
3585 1 28.3315 7.10728 21.3077 12 11.0042430147 1.7508078081 15.1993044891
3586 1 30.0263 8.80784 21.2447 12 11.1177546778 1.7510154712 14.1354893407
3587 1 30.0373 6.9777 23.0291 12 10.7969623925 1.7642931616 16.3249106322
3588 1 28.2675 8.85717 23.0875 12 11.1182425977 1.7545828919 14.1919758244
3589 1 31.7748 7.08515 21.263 12 10.8606234527 1.759360506 16.3507688747
3590 1 33.5561 8.81965 21.2217 12 10.8140226419 1.759402477 15.7660323777
3591 1 33.6201 7.12855 23.0615 12 11.0348144457 1.8062131719 17.6864752034
3592 1 31.8273 8.76701 23.0166 12 10.9725772264 1.7512528583 15.4947169964
3593 1 35.2959 7.12115 21.297 12 11.1407562928 1.760815778 18.1105344733
3594 1 37.0995 8.89797 21.2133 12 11.2900135234 1.7720886561 17.8721115987
3595 1 37.0919 7.11854 23.0477 12 11.0391432138 1.7712504266 19.649771791
3596 1 35.3293 8.884 22.9653 12 10.8369445846 1.7724922662 17.2608129175
3597 1 38.8436 7.05328 21.2053 12 11.1741965418 1.7613625885 20.3193354938
3598 1 40.5577 8.86154 21.1771 12 11.5667156826 1.7598005599 20.19095222
3599 1 40.6099 7.0151 22.9349 12 11.0166395618 1.7613625885 21.9680834838
3600 1 38.8702 8.86982 23.0184 12 11.1103971916 1.7724922662 19.5570957788
3601 1 0.0272946 10.6477 21.224 12 11.5647097401 1.7747712932 20.5373510064
3602 1 1.87493 12.3882 21.1894 12 10.841682058 1.7485708278 21.141016746
3603 1 1.88237 10.6 22.8605 12 11.2033164106 1.7521296054 22.4276063982
3604 1 42.3504 12.4397 22.9355 12 11.0382021934 1.7521296054 19.8736517612
3605 1 3.55446 10.6932 21.0796 12 11.100856064 1.7439205216 21.3909878158
3606 1 5.40317 12.2654 21.2501 12 10.958343187 1.7547717203 19.053356934
3607 1 5.25108 10.5933 23.0172 12 10.9944308232 1.7384725183 20.4715325253
3608 1 3.62044 12.427 22.9145 12 11.0045972709 1.7629646478 20.8424275776
3609 1 7.01408 10.5511 21.1747 12 11.0747568339 1.750308492 18.7166103558
3610 1 8.8937 12.3859 21.3334 12 11.3205608691 1.7595684818 16.1903736869
3611 1 8.84694 10.5768 22.964 12 10.9556255141 1.7747850009 17.7778495278
3612 1 7.01515 12.3643 23.0095 12 11.2093842846 1.7564743068 18.104232733
3613 1 10.669 10.6357 21.1735 12 10.9724674391 1.7747850009 16.0287890228
3614 1 12.3455 12.3351 21.2834 12 10.974193964 1.7507696939 13.7359744369
3615 1 12.3905 10.5975 22.9986 12 11.0279663694 1.7747850009 15.4881543228
3616 1 10.5336 12.4497 23.0858 12 11.0168525566 1.7747850009 15.4410601998
3617 1 14.0479 10.588 21.214 12 10.9977502105 1.7849429229 14.0545733227
3618 1 15.921 12.4581 21.2368 12 11.0901084572 1.7849429229 11.5759370593
3619 1 15.7808 10.5514 23.0689 12 11.1510531609 1.7849429229 13.7304063782
3620 1 14.1427 12.3844 22.9868 12 11.0478198794 1.7416083638 13.1751975786
3621 1 17.6116 10.6096 21.2242 12 11.3415890616 1.7849429229 12.3135371712
3622 1 19.3685 12.3566 21.082 12 11.079576358 1.7672744962 10.0485131587
3623 1 19.4103 10.6723 23.1066 12 11.1384574521 1.7672744962 12.1923227036
3624 1 17.5177 12.3651 23.1329 12 11.2142337743 1.7672744962 11.4701692324
3625 1 21.1388 10.6466 21.2058 12 11.0250650628 1.7595191407 11.2580293848
3626 1 22.9045 12.4398 21.2086 12 11.0775701259 1.7650362102 9.4099177749
3627 1 22.8334 10.6909 22.9661 12 11.2245463252 1.7539134792 11.6477043746
3628 1 21.0423 12.3891 22.9771 12 11.2595907279 1.7949126026 10.2510016547
3629 1 24.6765 10.5078 21.2868 12 11.0058299788 1.7650362102 11.4278455828
3630 1 26.5193 12.2825 21.2085 12 10.9921884946 1.764069229 10.0155162781
3631 1 26.4521 10.6013 23.0693 12 10.9500489565 1.7546797703 12.2606008851
3632 1 24.7129 12.3015 23.0272 12 11.0453138935 1.7681128367 10.3868109495
3633 1 28.2855 10.6351 21.1965 12 11.0522881441 1.747061423 11.9120263883
3634 1 30.1426 12.3386 21.2245 12 10.7170658658 1.7668773915 11.1762231461
3635 1 30.1583 10.6014 22.9103 12 11.0173760209 1.7761639052 13.2487581576
3636 1 28.3885 12.2599 22.9284 12 10.7357633294 1.71565342 11.2747633872
3637 1 31.9244 10.5795 21.2603 12 11.0774056712 1.768742423 13.493631388
3638 1 33.562 12.4416 21.2918 12 10.9733539642 1.7583931968 13.0971272026
3639 1 33.6424 10.582 22.9566 12 10.5552609076 1.7307332413 15.0275834974
3640 1 31.7304 12.3972 22.9965 12 10.913399391 1.7750283158 12.6673800527
3641 1 35.3231 10.6 21.3017 12 10.9791606245 1.7583931968 15.5386244808
3642 1 37.0859 12.2985 21.3425 12 10.788768759 1.7610146897 15.5362830278
3643 1 37.2263 10.711 23.1065 12 10.877963079 1.7724922662 17.2250786725
3644 1 35.3197 12.3262 23.0061 12 10.6308005456 1.7568821839 14.8570122721
3645 1 38.7834 10.5527 21.1561 12 10.778266146 1.7441551774 17.8258559467
3646 1 40.5913 12.3476 21.2383 12 10.9604160947 1.748829317 18.1049180971
3647 1 40.5513 10.6753 22.9346 12 11.0212701067 1.7570963704 19.4927502063
3648 1 38.9045 12.4087 22.943 12 10.7521563372 1.7364826424 17.2173077034
3649 1 0.127258 14.0911 21.2281 12 10.7982294711 1.7436160318 18.847984491
3650 1 1.73949 15.8811 21.2264 12 10.9637938522 1.7609523003 19.5569711743
3651 1 1.79475 14.0769 22.9659 12 11.0595052998 1.7609523003 20.6866625384
3652 1 0.0111675 15.8276 22.9699 12 11.0139784036 1.7619606567 18.4214968725
3653 1 3.55436 14.0787 21.1891 12 11.033014169 1.7547717203 19.8162310208
3654 1 5.27828 15.988 21.2632 12 11.1051147819 1.7610766531 17.5472424173
3655 1 5.2849 14.1351 23.0095 12 11.1587841741 1.7547717203 18.6839419704
3656 1 3.55676 15.9856 23.0225 12 11.3264942204 1.7664573102 19.5386694856
3657 1 7.06573 14.1582 21.2227 12 11.2279838747 1.760489924 16.7033990358
3658 1 8.82493 15.8938 21.2298 12 11.1772096911 1.7602584696 14.4014604329
3659 1 8.80733 14.1739 23.0123 12 11.001525221 1.755643451 15.7395268875
3660 1 7.01992 15.8584 22.9997 12 10.7870552905 1.7601240418 16.4874102226
3661 1 10.6282 14.1066 21.1641 12 11.0979562024 1.7593074938 13.796082796
3662 1 12.424 15.8615 21.1899 12 11.0855042176 1.7688744094 11.4157139226
3663 1 12.401 14.0103 23.0472 12 11.0386581607 1.767745701 13.171166899
3664 1 10.6445 15.889 22.9629 12 11.229988967 1.767745701 13.4284115817
3665 1 14.1211 14.1928 21.2817 12 11.0282038355 1.7688396782 11.2731266756
3666 1 15.9572 15.9329 21.2739 12 11.5734587813 1.7712238253 8.9123469013
3667 1 15.9448 14.2205 22.9726 12 10.9375417983 1.7588315856 10.8572499247
3668 1 14.1618 15.9855 22.9867 12 11.1121263705 1.7686375803 10.7910193102
3669 1 17.6946 14.0547 21.2662 12 11.2372809802 1.76341879 9.3843611669
3670 1 19.4608 16.0208 21.2906 12 11.5312359945 1.7775867268 6.9428163917
3671 1 19.3543 14.1672 23.0444 12 11.2536336297 1.7957297684 9.2358162171
3672 1 17.6616 15.9168 23.1443 12 11.2318194156 1.7775867268 8.843182944
3673 1 21.0468 14.1188 21.139 12 11.4321272363 1.7957297684 7.9803272618
3674 1 22.9159 15.8444 21.1186 12 11.0543341313 1.7467273837 6.1861172785
3675 1 22.9358 14.1018 23.0323 12 11.257545611 1.7957297684 8.6300332771
3676 1 21.2159 15.9909 23.1057 12 11.5263449577 1.7957297684 7.3026732449
3677 1 24.5807 14.0853 21.246 12 10.8641783593 1.7681128367 8.0487268897
3678 1 26.4305 15.8477 21.3494 12 10.9956722401 1.7616819281 7.0091786235
3679 1 26.503 13.9868 22.9656 12 11.0745986137 1.7681128367 9.3770455877
3680 1 24.6783 15.879 23.0262 12 11.0345753352 1.7671422952 7.4187430508
3681 1 28.3744 14.0116 21.3934 12 10.6752763143 1.7390871686 9.1256114682
3682 1 30.0904 15.9303 21.2776 12 10.8643862265 1.7418286309 8.5283690885
3683 1 30.0478 14.028 23.0147 12 10.7693818208 1.7462757944 10.6657398652
3684 1 28.2222 15.8177 22.869 12 10.9708558731 1.7642586422 8.5533501685
3685 1 31.8303 14.1299 21.2037 12 10.8867162698 1.7474587093 10.7867988017
3686 1 33.5957 15.9292 21.2954 12 11.1739874985 1.7939904346 10.7044134192
3687 1 33.5821 14.2463 23.0288 12 10.9714186544 1.7513540288 12.4805646899
3688 1 31.8269 15.8753 22.9259 12 10.9715275471 1.7671041727 10.3256044164
3689 1 35.3484 14.1112 21.3216 12 11.0654309608 1.7701697565 13.118266666
3690 1 37.1347 15.8862 21.2491 12 11.0249680105 1.7743728644 13.3992077174
3691 1 37.0935 14.0479 23.0417 12 10.8535601039 1.7610076104 14.9444405788
3692 1 35.4151 15.8644 23.0632 12 10.8649142664 1.7701151495 12.6995747085
3693 1 38.8659 14.1519 21.2292 12 10.7405769817 1.7610146897 15.7240462944
3694 1 40.8598 15.8191 21.2175 12 10.9772496423 1.7459206543 16.5952230381
3695 1 40.5977 14.158 22.9623 12 10.9206318717 1.756495554 17.5789658968
3696 1 38.8516 15.8538 22.9481 12 11.0663448503 1.7857777253 15.3355996904
3697 1 0.0459893 17.6327 21.138 12 11.0783469889 1.7717456289 17.3972520079
3698 1 1.81342 19.4683 21.2139 12 11.1895066124 1.7735907364 18.6554581092
3699 1 1.78879 17.6631 22.8882 12 11.05450235 1.7675098627 19.4155575018
3700 1 -0.0323041 19.3786 22.9633 12 11.1180148662 1.7735907364 17.3412441589
3701 1 3.53717 17.7118 21.2473 12 11.0544104213 1.7675098627 18.6751019179
3702 1 5.25836 19.2949 21.2351 12 11.4285868329 1.7727311048 16.7030294001
3703 1 5.33909 17.6987 23.0467 12 10.6810643381 1.7671766227 17.4303744812
3704 1 3.63314 19.54 23.053 12 11.0888008512 1.7675098627 18.6729466982
3705 1 7.06558 17.6775 21.2775 12 11.0745832553 1.7720156483 15.3628997373
3706 1 8.8555 19.398 21.1027 12 11.292646138 1.7713566592 13.2168842443
3707 1 8.85327 17.7129 23.0077 12 11.1133147352 1.7640571527 14.2512100671
3708 1 7.12702 19.4973 23.0321 12 11.2558603261 1.7727311048 15.3973725873
3709 1 10.6455 17.6869 21.2532 12 11.1670689413 1.7561686547 12.0955862717
3710 1 12.4702 19.5479 21.2148 12 10.748433946 1.756951501 9.8695744547
3711 1 12.3875 17.7499 22.9666 12 10.9566142175 1.7614662891 11.2471594952
3712 1 10.6459 19.5325 22.8543 12 10.9817725853 1.7640571527 12.137830035
3713 1 14.1093 17.7254 21.1404 12 11.0521956248 1.7688744094 9.1117119415
3714 1 15.8212 19.3746 21.1386 12 11.0127656626 1.749029259 7.0360053515
3715 1 15.8947 17.7839 22.9981 12 11.0003715793 1.7711599114 8.7136086675
3716 1 14.1547 19.5255 22.9286 12 10.8983187782 1.7669608988 9.2343627574
3717 1 17.7042 17.7548 21.2557 12 11.2613757124 1.7710136977 6.6634650608
3718 1 19.3367 19.4447 21.195 12 11.1051475554 1.7509201282 4.6958193992
3719 1 19.4238 17.8234 23.1491 12 11.5557694511 1.7775867268 6.7690858448
3720 1 17.556 19.523 23.0401 12 11.2159023217 1.7680442231 6.8104413733
3721 1 21.1757 17.685 21.2118 12 11.2026628286 1.753597767 4.901551005
3722 1 23.0581 19.4404 21.1251 12 11.1204118456 1.7570048578 3.3061604829
3723 1 22.9651 17.6252 22.8515 12 11.1983035068 1.74553288 5.7858070311
3724 1 21.216 19.4684 23.1131 12 11.6349645797 1.753597767 5.1839298175
3725 1 24.6593 17.5476 21.1005 12 11.0999290631 1.7619518893 5.0279559497
3726 1 26.4782 19.382 21.1487 12 11.0580127056 1.7619518893 4.3773240239
3727 1 26.3518 17.6867 22.9322 12 11.1102132497 1.7618465314 6.6048993973
3728 1 24.6203 19.457 22.9719 12 11.1204083252 1.7745304902 4.9852183249
3729 1 28.1767 17.6278 21.2798 12 10.8009507697 1.7619518893 6.3909469203
3730 1 29.9536 19.4358 21.2134 12 11.022858857 1.7598253692 6.1204355168
3731 1 30.016 17.6749 22.9722 12 11.0887664595 1.7765693426 8.2584792815
3732 1 28.1963 19.3949 22.9547 12 11.0568920914 1.7661001428 6.3232350196
3733 1 31.8739 17.6902 21.2679 12 11.2751012679 1.7696428943 8.4117128708
3734 1 33.5772 19.4248 21.163 12 11.2209412495 1.8026748265 8.7937814627
3735 1 33.6644 17.7413 22.9259 12 11.1782508226 1.7771603041 10.3964783378
3736 1 31.7402 19.4299 22.9916 12 11.1227750421 1.7771603041 8.3365957195
3737 1 35.3489 17.6662 21.2656 12 10.9251192617 1.7699989832 11.0595899593
3738 1 37.1075 19.4054 21.1992 12 11.0995809722 1.7619552929 11.91958494
3739 1 37.1107 17.6003 23.0147 12 11.0883987003 1.7599665296 13.1763157571
3740 1 35.4121 19.5172 22.9331 12 11.086511517 1.7744610748 11.057913457
3741 1 38.9626 17.5793 21.2299 12 11.1754447404 1.7623306438 14.2113266677
3742 1 40.6263 19.2948 21.1089 12 11.0006653948 1.7725649419 15.2049796216
3743 1 40.5919 17.6435 22.9769 12 11.1010778184 1.7900548571 16.1452239309
3744 1 38.9664 19.4019 22.9266 12 11.3380420549 1.7619552929 14.174607077
3745 1 -0.0420461 21.2532 21.2892 12 11.1652499584 1.7735907364 16.622220206
3746 1 1.7626 22.9152 21.1362 12 10.8777614887 1.7518127155 18.284895773
3747 1 1.83301 21.1954 22.9035 12 11.1287223529 1.7533879101 18.8323015215
3748 1 0.0121854 22.9453 23.115 12 11.3781068016 1.7719852105 17.0830872223
3749 1 3.56231 21.1494 21.1439 12 11.0479273667 1.7483117229 18.1364508973
3750 1 5.27746 22.9366 21.267 12 10.8060217598 1.7742175249 16.4766046569
3751 1 5.31991 21.3345 23.0936 12 11.0073302086 1.7694397992 16.9201454016
3752 1 3.49543 22.9389 22.9446 12 11.0044158416 1.7518127155 18.6203397662
3753 1 7.02089 21.2988 21.3775 12 11.193984774 1.7727311048 14.8068587585
3754 1 8.8877 23.0574 21.2492 12 10.7994726568 1.7443733818 12.979544067
3755 1 8.82702 21.2838 22.9673 12 11.0731577704 1.7636873123 13.5974056409
3756 1 7.10053 22.9882 23.0515 12 10.8133963173 1.7237500408 15.2376538215
3757 1 10.6529 21.242 21.2906 12 11.0485239155 1.7503785419 11.3053376347
3758 1 12.3056 23.0643 21.2128 12 11.1644374932 1.7669420417 9.7319874574
3759 1 12.4786 21.3207 23.0048 12 11.0137340828 1.7640352349 10.3410504956
3760 1 10.6153 23.02 23.0994 12 10.8640278724 1.7477418269 12.0295403145
3761 1 14.1223 21.3314 21.1482 12 10.890622775 1.7605048315 8.0302128874
3762 1 15.8158 22.914 21.1592 12 11.0409837843 1.7846856766 6.4963743053
3763 1 15.7535 21.2343 22.9457 12 11.0480581218 1.7846856766 7.5248648983
3764 1 14.0657 23.0796 22.9956 12 10.8655441335 1.7840805491 8.8631186531
3765 1 17.5698 21.1504 21.1791 12 11.1314728271 1.746599405 5.1267061621
3766 1 19.3606 22.9785 21.096 12 11.1646620791 1.7743825547 3.3144779018
3767 1 19.4286 21.2635 22.8238 12 11.1946537913 1.746599405 4.774349107
3768 1 17.6416 22.855 22.9428 12 11.062156282 1.7846856766 5.805870462
3769 1 21.1755 21.1436 21.0408 12 11.3279015464 1.7748335479 2.6669625286
3770 1 23.0053 23.0007 21.1539 12 10.9727805675 1.7853413285 1.9468703708
3771 1 22.9322 21.177 22.8081 12 11.3403329869 1.7934214405 3.9716135623
3772 1 21.1375 22.9174 22.964 12 11.1208362752 1.7853413285 3.8967110679
3773 1 24.7411 21.1608 21.1564 12 10.8953585166 1.7524425746 2.5608999525
3774 1 26.4504 23.0475 21.1229 12 11.1515706557 1.7519566942 2.6657626735
3775 1 26.4618 21.1375 22.913 12 11.032944777 1.7524425746 4.5758273888
3776 1 24.7073 22.9583 22.9249 12 11.2108811952 1.7853413285 3.720049599
3777 1 28.1365 21.2564 21.1899 12 11.032097268 1.7598253692 4.1956761969
3778 1 30.0301 22.9485 21.1947 12 11.1710898194 1.7766304566 5.0712520768
3779 1 29.9564 21.1615 22.9971 12 11.1273057172 1.777678277 6.647487596
3780 1 28.2076 22.8981 22.9345 12 11.1785737678 1.7899519158 5.1367888659
3781 1 31.7253 21.1402 21.2526 12 11.2133356038 1.8035773075 6.7377640386
3782 1 33.5834 23.0603 21.1471 12 11.1642788122 1.8035773075 8.106971701
3783 1 33.5679 21.2875 22.9801 12 11.2588432689 1.8035773075 9.1473968359
3784 1 31.7582 22.9273 22.8909 12 11.1630218382 1.7795231701 7.463811821
3785 1 35.3888 21.233 21.2666 12 11.0221624742 1.8020378746 9.9449550614
3786 1 37.1124 23.0677 21.2025 12 10.977904859 1.744926505 11.4236184835
3787 1 37.081 21.2976 22.9857 12 11.4376380183 1.7863164785 12.1502104662
3788 1 35.2762 23.0699 22.953 12 10.9124184216 1.7579332646 10.4280808825
3789 1 38.9938 21.1827 21.1587 12 11.0678862824 1.744926505 13.3182385572
3790 1 40.6896 22.8848 21.32 12 11.0213064219 1.7640500731 14.8980809306
3791 1 40.6419 21.0871 22.9877 12 10.9223783224 1.7640788768 15.4377755184
3792 1 38.9191 22.8146 23.0666 12 11.0480657334 1.7640788768 13.7623246255
3793 1 0.0734944 24.6091 21.2251 12 11.2968877803 1.7719852105 16.7404593472
3794 1 1.78175 26.5089 21.1084 12 11.1009979279 1.7552902912 18.6348890347
3795 1 1.766 24.7721 23.0317 12 11.1761301327 1.7764047213 18.831506183
3796 1 42.3831 26.4804 23.0751 12 11.1454062729 1.7719852105 17.2786356718
3797 1 3.53055 24.6209 21.3119 12 10.8941212531 1.7517445925 18.2465552255
3798 1 5.32987 26.4352 21.3167 12 11.1632245041 1.7517445925 16.6201800514
3799 1 5.25999 24.7636 23.0136 12 10.961176909 1.7500511189 17.0477830436
3800 1 3.39555 26.4384 22.9412 12 10.8632923484 1.7607125349 18.9068397307
3801 1 7.06385 24.6971 21.2454 12 10.9795133198 1.7515020596 14.8019518077
3802 1 8.82828 26.511 21.2268 12 10.9307602828 1.7423520572 13.2669263616
3803 1 8.88102 24.7242 23.0381 12 10.8742633554 1.7299767952 13.690890708
3804 1 7.07482 26.6197 23.005 12 11.0419868479 1.7423520572 15.5046007265
3805 1 10.5799 24.8205 21.2904 12 10.7879013564 1.7668199452 11.4682265937
3806 1 12.3547 26.5944 21.1506 12 11.3513899728 1.7734098277 9.9964921169
3807 1 12.2971 24.8009 23.0141 12 10.9996993792 1.7691430785 10.5999798665
3808 1 10.5171 26.5618 23.0174 12 11.0105900753 1.7691430785 12.4049443185
3809 1 14.1223 24.859 21.284 12 11.09917942 1.7669420417 8.2180472249
3810 1 15.8234 26.4675 21.2565 12 10.8531111607 1.748046003 7.0619159442
3811 1 15.8248 24.7967 23.0454 12 10.67936023 1.7846856766 7.5858944273
3812 1 14.045 26.613 23.0753 12 10.7924842853 1.7691430785 9.5015024995
3813 1 17.5404 24.6288 21.0697 12 11.0473226366 1.7450716012 5.1083835265
3814 1 19.2245 26.4269 21.1471 12 11.0350524032 1.7620425128 4.5960805874
3815 1 19.4227 24.6956 22.8832 12 10.9242593039 1.7519808574 4.8988417374
3816 1 17.5959 26.2826 22.8798 12 10.6132116704 1.7556997359 6.6886571797
3817 1 21.261 24.7128 21.2 12 11.0014829897 1.7737473492 2.607015074
3818 1 23.0344 26.498 21.1681 12 10.6823785482 1.7457790284 2.4687930111
3819 1 22.9184 24.7503 22.9156 12 11.1156795938 1.7853336841 3.6675415937
3820 1 21.1292 26.4371 22.8886 12 10.9751079725 1.7903075014 4.5581758302
3821 1 24.8022 24.8346 21.1666 12 10.7619819006 1.7507728925 2.1367272822
3822 1 26.5419 26.3475 21.2115 12 11.048234155 1.7817904699 2.7696909819
3823 1 26.4141 24.6624 23.1293 12 11.1591319659 1.7902073339 4.383019239
3824 1 24.741 26.4578 22.9195 12 10.9146523888 1.7615105979 3.9149307165
3825 1 28.2607 24.7132 21.1503 12 11.1900709447 1.7902073339 3.4785005793
3826 1 30.0118 26.464 21.205 12 10.8807155244 1.763486783 5.1888494655
3827 1 30.1477 24.7067 22.9117 12 10.9869974659 1.7865384034 6.0589985446
3828 1 28.2664 26.5383 22.9165 12 11.2430996086 1.7902073339 5.1231639287
3829 1 31.8026 24.7291 21.1482 12 10.8604592966 1.763486783 6.5150032044
3830 1 33.5854 26.4359 21.1804 12 10.7366325505 1.7470294732 8.3725710194
3831 1 33.5561 24.7052 22.9227 12 10.7247927664 1.7158039184 8.8626418183
3832 1 31.8281 26.3819 22.9008 12 10.6107673012 1.7547435536 7.5273698166
3833 1 35.3129 24.6582 21.0439 12 10.687001808 1.7194730114 9.7766936265
3834 1 37.0975 26.4299 21.1495 12 11.1299447782 1.7592760778 11.7242073273
3835 1 37.0961 24.6249 22.9748 12 11.2741205286 1.7719366412 12.0977754184
3836 1 35.321 26.4213 22.7814 12 10.944093658 1.7559810416 10.5178070647
3837 1 38.9531 24.6543 21.3008 12 11.1508494639 1.7592760778 13.332013363
3838 1 40.7293 26.3684 21.2459 12 11.4027283945 1.757737265 15.2587747213
3839 1 40.591 24.6497 23.0863 12 11.1498097544 1.7719852105 15.4089322023
3840 1 38.8189 26.4488 22.9585 12 10.9702628929 1.7561717814 13.8386599592
3841 1 42.3886 28.3133 21.252 12 11.1290240676 1.7683437255 17.1866277292
3842 1 1.74547 29.9531 21.1582 12 10.6757642504 1.740185172 19.2723940929
3843 1 1.86416 28.1745 22.7977 12 10.8834107874 1.7566993901 19.290161524
3844 1 0.103768 30.0578 22.9707 12 10.8103728173 1.7744737385 18.0934236343
3845 1 3.62523 28.2184 21.1711 12 11.0902536944 1.7554721363 18.5178059775
3846 1 5.35465 30.1185 21.2043 12 10.9679201563 1.7433498462 17.4022724929
3847 1 5.35403 28.4159 22.9655 12 11.0019094938 1.7566993901 17.4094345577
3848 1 3.52669 30.0614 22.9279 12 11.0019421186 1.7557729981 19.500042587
3849 1 7.08482 28.3429 21.1822 12 11.0651143915 1.7416039872 15.2743885124
3850 1 8.81065 30.0259 21.3081 12 10.6731230948 1.7317290413 14.2835036971
3851 1 8.87621 28.3209 22.9995 12 10.7916680003 1.7423381159 14.2294605895
3852 1 7.09883 30.0464 23.1193 12 10.6505000608 1.7350515612 16.3618194663
3853 1 10.5081 28.2688 21.155 12 11.2538352285 1.7734098277 12.1080669968
3854 1 12.2579 30.13 21.1956 12 11.0147714394 1.7734098277 11.3918426265
3855 1 12.3209 28.3367 23.0719 12 11.4228985154 1.7734098277 11.3745704217
3856 1 10.5561 30.1634 22.9895 12 10.9670871866 1.7535002277 13.4534448061
3857 1 14.0864 28.3092 21.2677 12 11.1560204775 1.7730982201 9.1120113862
3858 1 15.9043 30.0503 21.1837 12 10.9657128153 1.7905455309 8.6960748101
3859 1 15.8308 28.292 22.943 12 11.0534985879 1.7556655433 8.7423487175
3860 1 14.0573 30.1918 22.9841 12 11.2186992711 1.7557224334 10.861122709
3861 1 17.5561 28.1955 21.3283 12 10.9051608742 1.7652441599 6.6383213012
3862 1 19.4369 30.0174 21.1211 12 11.2902281189 1.7656404316 6.3578327955
3863 1 19.3295 28.0283 22.8911 12 11.2078054663 1.7694432854 6.3109602309
3864 1 17.6456 30.0188 22.967 12 11.4447687177 1.759715938 8.4941561891
3865 1 21.1489 28.1273 21.1348 12 11.2958278068 1.7656404316 4.2799629271
3866 1 22.8739 30.094 21.0876 12 11.1945238726 1.766650709 4.8171806683
3867 1 22.9051 28.2378 22.9125 12 11.1594193113 1.761228296 4.7887040583
3868 1 21.1063 30.0073 22.8276 12 11.4042901439 1.7582605348 6.5205323895
3869 1 24.6447 28.2228 21.129 12 11.2025113343 1.7817904699 2.956823067
3870 1 26.4386 29.9056 21.1373 12 11.1451686526 1.7817904699 4.5905915185
3871 1 26.443 28.2343 22.9656 12 11.1616056981 1.7815219719 4.7599990576
3872 1 24.6797 29.9722 23.0373 12 11.1114855529 1.7666534885 5.5422841277
3873 1 28.2094 28.2177 21.1771 12 10.8037878 1.7815377358 4.5219326816
3874 1 29.9868 30.0132 21.1742 12 10.9225198829 1.7513962088 6.7507066779
3875 1 30.0804 28.2584 22.817 12 10.8506013896 1.7304300467 6.7949144595
3876 1 28.2232 29.9325 23.0119 12 11.1588237688 1.7692463711 6.4680089626
3877 1 31.7708 28.2172 21.1527 12 10.9441155855 1.7513962088 7.3014712028
3878 1 33.5772 29.8695 21.1506 12 11.2203871272 1.7812618238 9.4813549792
3879 1 33.5456 28.0717 22.9223 12 10.8750304973 1.7679680095 9.4240326069
3880 1 31.7842 30.0012 22.8832 12 11.1750762639 1.795363078 8.8462123346
3881 1 35.2733 28.1894 21.12 12 11.0499761435 1.782207605 10.3851427429
3882 1 37.1736 30.0158 21.1356 12 10.8855632914 1.782207605 12.7152311128
3883 1 37.0658 28.1507 22.9536 12 11.0233008498 1.7555559794 12.5307251104
3884 1 35.3058 29.863 23.0688 12 11.2724585006 1.782207605 11.6350513676
3885 1 38.9158 28.1583 21.1279 12 11.1282273752 1.7592760778 13.8018371358
3886 1 40.7344 29.9762 21.2101 12 10.8169920184 1.7443386813 16.0286181136
3887 1 40.6547 28.2333 22.9813 12 10.8056881795 1.7475803292 15.8765254916
3888 1 38.9057 29.9648 22.716 12 10.8066431785 1.7473999267 14.679342931
3889 1 -0.0400137 31.8136 21.2324 12 10.8911531931 1.7373290846 18.1189089049
3890 1 1.74048 33.5937 21.1822 12 11.4392138005 1.7939622069 20.3498194999
3891 1 1.83122 31.7254 22.8728 12 10.9116211307 1.771113045 20.179432486
3892 1 0.0764191 33.5577 22.9266 12 11.0442457304 1.7724350734 19.2190738191
3893 1 3.39938 31.6888 21.1545 12 10.9334096864 1.7939622069 19.7261768284
3894 1 5.43058 33.4772 21.2269 12 10.9096167344 1.7884144884 18.7091273158
3895 1 5.27091 31.8515 22.9263 12 10.9539829167 1.7573590588 18.5594395237
3896 1 3.67782 33.6308 23.0225 12 11.3646882294 1.7939622069 20.7084250001
3897 1 7.13138 31.7492 21.3182 12 10.6892247359 1.7725509616 16.4696205728
3898 1 8.79561 33.5683 21.1859 12 10.6495580079 1.7164429628 15.9850170415
3899 1 8.72188 31.8243 23.0687 12 10.8296682726 1.7440215453 15.7040973037
3900 1 6.99769 33.5361 23.0113 12 10.8098015795 1.753047473 17.907808569
3901 1 10.5282 31.7786 21.2058 12 10.749236194 1.7386780527 13.6297396894
3902 1 12.2003 33.5982 21.1481 12 11.0310472395 1.7528883248 13.4305940985
3903 1 12.2939 31.9327 23.0246 12 10.6842857915 1.7511617363 13.0499819546
3904 1 10.5007 33.5694 22.9829 12 10.8320086533 1.7518472336 15.2552597135
3905 1 14.0013 31.8957 21.2025 12 11.3685276574 1.7905455309 11.1395923697
3906 1 15.8823 33.6172 21.2104 12 11.237822692 1.7905455309 10.9773845219
3907 1 15.9083 31.7722 22.9553 12 11.1252124055 1.7868622461 10.5556655272
3908 1 14.1204 33.5696 23.0765 12 11.0128444259 1.7604314988 12.851703871
3909 1 17.5935 31.8018 21.2077 12 10.9794470199 1.7893041719 8.6677463332
3910 1 19.439 33.507 21.1183 12 10.9842381655 1.7617342716 8.8243001567
3911 1 19.4215 31.9033 22.8975 12 11.2554080538 1.759715938 8.5464626963
3912 1 17.6711 33.6078 22.9478 12 11.1925394432 1.7615801421 10.5939088309
3913 1 21.1957 31.8721 21.1634 12 11.0288599358 1.7678466994 6.8386396899
3914 1 23.0012 33.4951 21.2085 12 11.2179880267 1.7556510936 7.8217149023
3915 1 22.978 31.7237 22.9479 12 11.0792867299 1.755128992 7.0473177743
3916 1 21.2478 33.6475 22.9438 12 10.7386954338 1.755128992 9.129261056
3917 1 24.7352 31.7462 21.2191 12 11.1815943964 1.766650709 5.9881836489
3918 1 26.4144 33.4925 21.1646 12 11.0344637209 1.7593966003 7.7871064017
3919 1 26.4282 31.7661 22.9337 12 11.1752840928 1.7693419768 7.019634493
3920 1 24.7499 33.5577 23.0354 12 10.9339947197 1.7385777256 8.406586965
3921 1 28.2322 31.7059 21.1327 12 11.0820350411 1.7693419768 6.8351710973
3922 1 30.0793 33.455 21.1877 12 11.3662599417 1.7863493762 9.1811823364
3923 1 29.9595 31.7006 23.0421 12 11.1033895873 1.7693419768 8.5617677076
3924 1 28.3102 33.5356 22.9536 12 11.1898307999 1.7693419768 9.0513534886
3925 1 31.8917 31.7612 21.2045 12 11.1111912707 1.770670809 9.1131463819
3926 1 33.6186 33.5123 21.1412 12 10.8958598545 1.7713503162 11.3979239372
3927 1 33.54 31.7957 22.9821 12 11.1302386259 1.7684256068 11.0717060683
3928 1 31.7501 33.5319 22.9338 12 11.1710362615 1.7753622051 10.8410695457
3929 1 35.4126 31.7354 21.1503 12 11.2804123511 1.782207605 11.8235901566
3930 1 37.1917 33.5827 21.124 12 11.177262006 1.7423356144 14.1986411414
3931 1 37.1115 31.7438 22.8709 12 10.9385645075 1.7463491532 13.8289681148
3932 1 35.2711 33.5511 22.8744 12 10.9202255493 1.7617021109 13.2263091528
3933 1 38.9145 31.7358 21.0956 12 10.815805394 1.740259646 14.8700111755
3934 1 40.7053 33.5358 21.0488 12 10.9419142013 1.7724350734 17.1731302374
3935 1 40.6106 31.7379 22.8285 12 10.8398693633 1.7723763779 16.8511977316
3936 1 38.9314 33.4362 22.8372 12 11.0256316464 1.7721135882 16.0568935206
3937 1 -0.0325069 35.3095 21.1362 12 11.2324120142 1.7762543209 19.4615992881
3938 1 1.81994 37.029 21.1906 12 11.2486229796 1.7762543209 21.8897534996
3939 1 1.87923 35.3539 22.9798 12 11.0266530505 1.7697341959 21.5373374473
3940 1 0.0205617 37.1217 22.9548 12 10.7884158181 1.7761167293 20.792073392
3941 1 3.5511 35.3054 21.0196 12 11.240900927 1.7929764565 21.1710473706
3942 1 5.37301 37.1291 21.1852 12 10.8519774398 1.7554914309 20.6841450948
3943 1 5.38007 35.3866 22.8594 12 11.0870904143 1.7553374732 20.1277653833
3944 1 3.56841 37.093 22.9424 12 10.9736987554 1.7649404567 22.5267550381
3945 1 7.15997 35.2937 21.1748 12 10.7974194512 1.7325546357 18.2409232375
3946 1 8.92303 37.2417 21.2741 12 10.9766561546 1.7586548096 18.0550557495
3947 1 8.78021 35.2468 22.9455 12 10.9120082515 1.7189886059 17.4919305427
3948 1 7.06785 37.0834 22.8818 12 11.0247292317 1.7863971457 19.8291307381
3949 1 10.525 35.3596 21.2622 12 10.8975712605 1.7542099458 15.7458371765
3950 1 12.4136 37.1287 21.1335 12 11.3201542724 1.7701063137 15.5672002274
3951 1 12.3301 35.394 22.944 12 10.9512698031 1.7564013671 15.1464438873
3952 1 10.6675 37.1577 22.9304 12 10.7103243121 1.7497435767 17.3803577504
3953 1 14.0089 35.2282 21.2447 12 11.3568228022 1.7596123626 13.2845528025
3954 1 15.8851 37.0611 21.2325 12 10.8390127733 1.7465008449 13.5094612459
3955 1 15.9191 35.2885 22.99 12 11.0846040933 1.7604314988 12.762350295
3956 1 14.1392 37.176 22.9723 12 11.1902412396 1.7596123626 15.1530816863
3957 1 17.654 35.3225 21.1741 12 10.9516958058 1.7617342716 11.1663908147
3958 1 19.3686 37.0918 21.1164 12 11.0087716243 1.7794015888 11.9281985448
3959 1 19.4928 35.3478 22.9256 12 11.2258311639 1.7568300222 11.0728030423
3960 1 17.7237 37.1169 22.8616 12 10.8251905929 1.7568300222 13.1793190808
3961 1 21.2048 35.2791 21.0835 12 10.9993797288 1.7792585166 9.7540757183
3962 1 22.9226 37.0036 21.2124 12 10.911635093 1.7794015888 11.1509088977
3963 1 22.7937 35.3164 23.011 12 10.8366470271 1.7556510936 10.1760622256
3964 1 21.1434 37.1175 23.0038 12 10.9485354426 1.7794015888 12.1481848028
3965 1 24.7275 35.3067 21.1346 12 11.1632732238 1.7556510936 9.3668261169
3966 1 26.5099 36.964 21.2833 12 11.2303384973 1.8068152075 11.1463938176
3967 1 26.4609 35.2334 22.9192 12 10.8844493139 1.7589632492 9.9981348539
3968 1 24.5563 36.9844 22.9513 12 11.0200338756 1.7514578549 11.5021367818
3969 1 28.2568 35.2201 21.1694 12 11.2960462651 1.7863493762 9.9036990957
3970 1 30.12 37.0369 21.1767 12 11.0876970341 1.7861649331 12.2038789873
3971 1 30.0093 35.2901 22.9385 12 11.0589257115 1.7859988648 11.1999953505
3972 1 28.2481 37.0824 22.9617 12 10.8455742698 1.7589632492 12.0934648038
3973 1 31.8267 35.3229 21.1512 12 11.0250810181 1.7863493762 11.5561883906
3974 1 33.5634 37.0186 21.1619 12 10.7304738713 1.7355066224 13.8613053593
3975 1 33.5592 35.3313 22.9307 12 11.1023451929 1.7753622051 13.191009927
3976 1 31.7651 37.0827 22.8968 12 10.8485244714 1.7753594283 13.4892288913
3977 1 35.2884 35.3397 21.1978 12 10.8153447385 1.7375183895 13.7825160266
3978 1 37.1217 36.9784 21.1741 12 10.9068899044 1.7394211125 16.1679960123
3979 1 37.0868 35.2443 22.8706 12 10.9705301201 1.7960067004 15.5289125468
3980 1 35.4787 36.9851 23.0148 12 10.955558711 1.7436451476 15.5627347757
3981 1 38.9886 35.3232 21.1796 12 10.9147479953 1.7426572425 16.6030699858
3982 1 40.6935 37.1082 21.2416 12 10.9147874859 1.7761338755 18.9854515912
3983 1 40.6399 35.2887 22.9118 12 10.8911323587 1.7724350734 18.366654459
3984 1 38.8159 37.0718 22.8759 12 10.9730557448 1.7612565883 17.8982050119
3985 1 0.0665126 38.8592 21.2058 12 11.0528410012 1.7762543209 21.4303184907
3986 1 1.78727 40.5638 21.176 12 10.9861636734 1.756434624 23.7967199926
3987 1 1.7918 38.7445 22.9861 12 10.9503805748 1.7636564231 23.100510213
3988 1 -0.0222887 40.6437 22.9821 12 10.9422628655 1.756434624 22.8009256388
3989 1 3.54244 38.9752 21.118 12 11.2056090652 1.7649404567 23.1503349541
3990 1 5.33863 40.6816 21.215 12 11.239930806 1.7672310379 22.807234688
3991 1 5.35622 38.7864 23.0094 12 11.1144047284 1.7853616823 22.1517034545
3992 1 3.4688 40.7217 22.9842 12 11.3254986264 1.7672310379 24.7009496133
3993 1 7.12034 38.8878 21.1035 12 10.7727844298 1.7863971457 20.3418055763
3994 1 8.89945 40.5293 21.1776 12 11.0838818972 1.7630078891 20.2214369793
3995 1 8.93807 38.9016 22.9231 12 10.9468880901 1.7863971457 19.6514417825
3996 1 6.99044 40.6389 23.0573 12 11.41353913 1.7863971457 22.140790211
3997 1 10.6783 38.9115 21.2032 12 10.6844291833 1.7685179258 17.9380508544
3998 1 12.4098 40.6613 21.248 12 11.4360471924 1.7806685063 18.2505474729
3999 1 12.3492 38.9552 22.9276 12 11.0661137083 1.7692807935 17.5089308522
4000 1 10.6373 40.6288 23.0846 12 10.8112966553 1.7630078891 19.8106691372
4001 1 14.2602 38.8202 21.1269 12 11.3637702521 1.7806685063 15.7546956017
4002 1 15.9548 40.6872 21.1164 12 10.8529677398 1.7806685063 16.4704995202
4003 1 15.9324 38.8646 22.9428 12 10.8257178989 1.7396423623 15.4467889053
4004 1 14.2562 40.6141 23.093 12 11.396227762 1.7806685063 17.7404607174
4005 1 17.4959 38.8913 21.2165 12 10.7683862609 1.7222328677 14.2584892448
4006 1 19.387 40.559 21.1583 12 11.1753274686 1.7890904158 15.1208967997
4007 1 19.3974 38.8248 22.919 12 10.9131063167 1.7891759116 14.0592319855
4008 1 17.6504 40.6399 22.9863 12 10.8719693111 1.7891759116 16.2422977846
4009 1 21.2663 38.8478 21.2436 12 10.9920700937 1.7794015888 13.1206038611
4010 1 22.8862 40.6494 21.1475 12 10.834649052 1.7544691136 14.6688245542
4011 1 22.926 38.8567 23.0575 12 10.745966161 1.7385204769 13.437647745
4012 1 21.2264 40.676 22.907 12 11.0032648189 1.7891759116 15.349323589
4013 1 24.6172 38.8013 21.2383 12 11.1454775133 1.759837319 12.8124643102
4014 1 26.4554 40.6177 21.1939 12 11.0161940008 1.7783614373 14.6881595225
4015 1 26.4481 38.7899 22.8458 12 11.1095182411 1.76710204 13.2788631829
4016 1 24.6122 40.6396 22.8542 12 10.994369383 1.76710204 14.9596263768
4017 1 28.276 38.7819 21.258 12 11.0752033031 1.7776582238 13.2475522736
4018 1 30.021 40.5414 21.1499 12 11.0932651048 1.7833002724 15.3462263836
4019 1 30.0238 38.7971 22.9601 12 10.922419339 1.7825894001 14.208932505
4020 1 28.217 40.5351 22.9693 12 11.2646147319 1.7833002724 15.2722517954
4021 1 31.8844 38.7833 21.1153 12 10.6677037268 1.7546777683 14.4414199292
4022 1 33.5152 40.5224 21.2738 12 11.0702387493 1.7756033371 16.7223446618
4023 1 33.5875 38.7123 22.9619 12 10.9991741339 1.7551312377 15.7295277441
4024 1 31.778 40.4609 23.0021 12 11.2422484042 1.7832236246 16.3648971658
4025 1 35.2978 38.8004 21.1274 12 10.9809057513 1.7424589133 16.2573367124
4026 1 36.9125 40.6077 21.2044 12 10.7066344164 1.7351167224 18.6436213361
4027 1 37.067 38.813 22.8505 12 10.9888005288 1.7921863327 17.8090116102
4028 1 35.3342 40.5231 22.9787 12 10.8235074286 1.7551312377 18.0881997057
4029 1 38.8739 38.9087 21.2169 12 10.8052403194 1.7416219376 18.7218400633
4030 1 40.7306 40.617 21.1667 12 10.6379329726 1.7377117219 21.1970477603
4031 1 40.6885 38.8388 22.8556 12 11.0291782173 1.7511892729 20.365541156
4032 1 38.7109 40.6393 22.8583 12 10.9195897517 1.7505733367 20.1759093512
4033 1 42.357 42.3758 24.71 12 11.3474603078 1.7905991645 24.3322649168
4034 1 1.7107 1.76969 24.7497 12 11.1185430549 1.7897351164 26.7969320996
4035 1 1.74758 42.2958 26.4874 12 11.3121466617 1.7892939921 26.1206576432
4036 1 0.03163 1.73323 26.5961 12 11.300570683 1.7712532651 26.1990712473
4037 1 3.50144 0.020428 24.7264 12 11.0172270658 1.7905991645 26.2806159735
4038 1 5.17598 1.69225 24.6839 12 11.0311928397 1.7835795963 26.222933447
4039 1 5.18379 42.3541 26.5329 12 10.9637524967 1.7536103957 25.7368491106
4040 1 3.44441 1.69724 26.5318 12 11.1576196305 1.7439331823 28.0344655085
4041 1 7.01798 -0.0307805 24.7045 12 11.4331619937 1.7841204224 23.8750580804
4042 1 8.76627 1.68548 24.7291 12 11.4507580483 1.7837294332 24.0180224608
4043 1 8.70481 42.3947 26.5133 12 11.1308581962 1.7596058456 23.4375575114
4044 1 6.87237 1.82493 26.5245 12 11.285929145 1.7841204224 25.8787098808
4045 1 10.6034 42.3733 24.817 12 10.9842847879 1.7638066973 21.6675354425
4046 1 12.3452 1.7803 24.7465 12 10.658616173 1.7423213345 22.1158849259
4047 1 12.2166 42.4167 26.4775 12 10.8122633731 1.760657903 21.4139646101
4048 1 10.6086 1.74764 26.5063 12 10.9054561362 1.7603556891 23.6049406338
4049 1 14.1287 0.0340849 24.8292 12 10.9003499865 1.7339523562 19.871239898
4050 1 15.8714 1.78715 24.7127 12 10.6809081709 1.7585045069 20.5766075338
4051 1 15.8169 -0.0160786 26.5032 12 10.9548946283 1.7589571029 19.7851528516
4052 1 14.0684 1.74362 26.4869 12 10.7890551031 1.7585483162 21.9137125931
4053 1 17.5777 0.050467 24.6944 12 10.8027432225 1.7744818959 18.4791015035
4054 1 19.4058 1.73528 24.7348 12 10.9574063002 1.7648297344 19.5237616001
4055 1 19.3217 0.0252191 26.4214 12 11.0667062468 1.7605256639 18.6903271397
4056 1 17.6049 1.81014 26.5138 12 11.1542711053 1.7586006441 20.7268392066
4057 1 21.1225 42.3534 24.6651 12 11.0140526309 1.765930366 17.5121951268
4058 1 22.9074 1.79196 24.7539 12 11.1655155068 1.765930366 19.0288244042
4059 1 22.9721 0.0141484 26.4883 12 10.9268552645 1.765930366 17.997143799
4060 1 21.131 1.7257 26.516 12 11.083434294 1.7535465908 19.8255705323
4061 1 24.6498 0.0411752 24.6875 12 11.1804512647 1.765930366 17.2526036617
4062 1 26.4397 1.68885 24.8214 12 10.8958537099 1.7645990352 18.9260594623
4063 1 26.53 42.3947 26.5046 12 10.8269376144 1.7501393407 17.9458239647
4064 1 24.7032 1.73316 26.5345 12 10.7335546634 1.7778492727 19.4952705452
4065 1 28.1391 42.3063 24.6733 12 11.1125794434 1.7645990352 17.4109605478
4066 1 29.9762 1.64075 24.7528 12 11.1119340535 1.7645986233 19.4859010372
4067 1 29.9407 42.3509 26.4177 12 10.8953789278 1.7564190834 18.5119261637
4068 1 28.2067 1.77282 26.5057 12 10.7721280431 1.7645990352 19.8134933915
4069 1 31.8048 42.4145 24.7599 12 11.1556574842 1.7649038948 18.5867160069
4070 1 33.5696 1.68408 24.6663 12 11.0118846679 1.7826309549 20.7407475452
4071 1 33.6567 42.3942 26.4191 12 10.9805035489 1.7516421372 19.9008098491
4072 1 31.7579 1.60666 26.4727 12 10.9480595322 1.7460372699 20.5631978396
4073 1 35.2786 42.3081 24.7024 12 11.152757174 1.7813620626 20.0257097578
4074 1 37.1291 1.66998 24.6974 12 11.6216047311 1.7826309549 22.3937073077
4075 1 37.1988 42.2778 26.5018 12 11.2285590619 1.7615137225 21.6477292148
4076 1 35.3522 1.78309 26.5086 12 11.2669880247 1.7821085094 22.1938420749
4077 1 38.8942 42.285 24.5786 12 11.0361107514 1.7521827149 21.9674617661
4078 1 40.6085 1.73584 24.7361 12 11.5506912815 1.7696323354 24.4418112013
4079 1 40.5768 42.357 26.4899 12 11.1098888925 1.7704237159 23.7211384367
4080 1 38.8585 1.75765 26.4868 12 11.1632387041 1.7615137225 23.9997214968
4081 1 42.38 3.55884 24.7351 12 11.1709789755 1.7695826935 26.0666069313
4082 1 1.62488 5.3974 24.7027 12 11.1293894461 1.7448924084 25.890309175
4083 1 1.75217 3.57067 26.4821 12 11.1746176178 1.7555268734 27.7466492419
4084 1 42.3606 5.23834 26.5457 12 10.9227018564 1.7675900655 25.4433338727
4085 1 3.37922 3.55241 24.7539 12 11.1995335232 1.7448924084 26.7500984168
4086 1 5.25017 5.3271 24.6993 12 10.8648244151 1.7639019469 24.2578874796
4087 1 5.21959 3.62229 26.3969 12 11.0738504517 1.7439331823 26.0000052415
4088 1 3.57283 5.39905 26.5735 12 11.0694618943 1.7448924084 25.9325520087
4089 1 7.07912 3.5293 24.626 12 11.0970051908 1.7841204224 24.3998119041
4090 1 8.81527 5.17336 24.7792 12 10.8634596925 1.7625223722 22.195770084
4091 1 8.72944 3.42465 26.5037 12 10.9747801484 1.7449525022 24.1696075575
4092 1 7.03672 5.20395 26.4899 12 10.878216263 1.7639019469 23.7994209846
4093 1 10.539 3.41941 24.7374 12 11.09148087 1.7730140308 22.6532739114
4094 1 12.2186 5.205 24.7218 12 11.1328766483 1.7556922661 20.3469573233
4095 1 12.3737 3.41892 26.492 12 10.9889210058 1.7556922661 22.2953183041
4096 1 10.4675 5.28968 26.5204 12 11.2064968822 1.7556922661 21.826905199
4097 1 14.0696 3.56496 24.6577 12 10.6782041757 1.7423714838 20.8219238155
4098 1 15.5952 5.29248 24.695 12 10.7306743291 1.7584986 18.7335818463
4099 1 15.8468 3.50021 26.4923 12 10.8834937264 1.7586006441 20.8321134025
4100 1 14.0266 5.28376 26.4735 12 10.9545206934 1.7547023952 20.0334438147
4101 1 17.5931 3.55014 24.7833 12 10.6471807154 1.7450826165 19.6650117298
4102 1 19.3113 5.26756 24.7638 12 10.6497150843 1.7580730449 17.6934921815
4103 1 19.3713 3.51847 26.4418 12 11.0838147468 1.7534029132 19.9024660805
4104 1 17.4631 5.25384 26.4569 12 10.9373212766 1.7464933225 18.8076979602
4105 1 21.057 3.5547 24.6777 12 11.2210346733 1.7517555633 19.0089771391
4106 1 22.9627 5.24789 24.8137 12 11.1283199673 1.7353782518 17.3886380308
4107 1 22.8477 3.50964 26.5596 12 11.2140283013 1.7817933317 19.6654346264
4108 1 21.08 5.32204 26.393 12 10.8808633399 1.784063324 18.0326031751
4109 1 24.7285 3.38861 24.7593 12 10.93454892 1.7817933317 19.2144699547
4110 1 26.3999 5.18718 24.6996 12 11.0861153547 1.773382817 17.7631247916
4111 1 26.4303 3.53631 26.5446 12 10.8517195972 1.7808162714 19.9722766101
4112 1 24.6899 5.34939 26.4406 12 10.911318624 1.7817933317 18.051112997
4113 1 28.1483 3.45473 24.8328 12 11.1225408711 1.773382817 19.6953394797
4114 1 30.0191 5.21649 24.7225 12 11.133479968 1.77563497 18.5030820634
4115 1 30.0461 3.4752 26.3926 12 11.0049617674 1.7737785728 20.724332369
4116 1 28.2471 5.25969 26.4569 12 11.077666282 1.7748935974 18.8003578843
4117 1 31.8589 3.44018 24.6837 12 11.018454851 1.7424373452 20.6086896396
4118 1 33.6189 5.24578 24.6903 12 10.9635913745 1.8062131719 19.7826212484
4119 1 33.5005 3.44257 26.4213 12 11.09000059 1.7460742687 21.8917251242
4120 1 31.8258 5.253 26.4802 12 11.3199825292 1.77563497 19.8130051506
4121 1 35.3035 3.53544 24.6616 12 11.0520652553 1.7826309549 21.9401077669
4122 1 37.1495 5.30852 24.7396 12 10.8704598522 1.7711011634 21.55662679
4123 1 37.1513 3.49668 26.5253 12 11.0267996045 1.7725011493 23.5788160246
4124 1 35.3143 5.12238 26.4809 12 10.8462403458 1.7503689559 21.3975314697
4125 1 38.8812 3.55403 24.6566 12 11.068143396 1.7750697735 23.8425452576
4126 1 40.5926 5.28532 24.7035 12 11.0807096274 1.7675900655 23.686104969
4127 1 40.6112 3.52353 26.445 12 11.0306070017 1.7675143259 25.511634296
4128 1 38.8281 5.27249 26.4874 12 11.0549708947 1.7675900655 23.2216803943
4129 1 42.3382 7.19004 24.658 12 11.1908520679 1.7538317875 23.497019203
4130 1 1.77446 8.85637 24.6152 12 11.3054377624 1.7571109649 23.787356391
4131 1 1.72828 7.02486 26.4105 12 11.3193942713 1.7571109649 25.4287352318
4132 1 -0.0398667 8.92058 26.5186 12 11.013403489 1.7558265988 23.0621811545
4133 1 3.51308 7.02234 24.6516 12 10.9404127061 1.7501170579 24.3476407843
4134 1 5.26926 8.80032 24.7259 12 10.666009479 1.7501170579 21.997511724
4135 1 5.39759 7.03374 26.3836 12 10.8890250871 1.7367930261 23.5745637863
4136 1 3.67393 8.75695 26.4045 12 11.0545544562 1.7571109649 23.7739418388
4137 1 7.10967 7.04546 24.5979 12 10.9313369503 1.7639019469 21.8174252836
4138 1 8.87526 8.73791 24.7179 12 10.6978191378 1.7349809701 19.5567481585
4139 1 8.77175 6.96869 26.435 12 10.9881565897 1.7615014319 21.5021963551
4140 1 7.07952 8.85317 26.466 12 10.76901074 1.7307236855 21.3287802423
4141 1 10.5474 7.06826 24.6583 12 10.7375169787 1.7306977493 19.7498040172
4142 1 12.297 8.82428 24.7643 12 10.790770842 1.7609386761 17.5177550115
4143 1 12.2228 7.0229 26.4269 12 10.9000085798 1.7539737382 19.5495048699
4144 1 10.5022 8.84769 26.4748 12 10.7547239846 1.7473189844 19.2156519686
4145 1 14.0294 7.12206 24.7715 12 10.6064530409 1.7236574569 17.9173709602
4146 1 16.018 8.81847 24.8803 12 10.8765769531 1.7629006944 15.6786939635
4147 1 15.8741 6.97861 26.3632 12 10.8305812404 1.7483575956 17.8532372262
4148 1 14.0992 8.68775 26.4326 12 10.9600001454 1.7550741327 17.3466978384
4149 1 17.6628 6.99854 24.7731 12 10.9664575804 1.7691444594 16.5608541553
4150 1 19.3458 8.82566 24.7753 12 11.1241567268 1.7465007712 14.5059078218
4151 1 19.3512 6.97801 26.4748 12 10.9274973769 1.760057754 16.8707567442
4152 1 17.6265 8.81036 26.5671 12 10.8346828988 1.7483575956 15.8486559265
4153 1 21.097 6.96223 24.7044 12 11.0959244042 1.7508080206 15.8475162354
4154 1 22.8836 8.96586 24.711 12 11.1066570485 1.7470990424 13.9411436733
4155 1 22.9203 6.98408 26.5337 12 11.0631931508 1.7506568923 16.5435794244
4156 1 21.2097 8.8176 26.5237 12 11.253948978 1.7511724454 15.0415250215
4157 1 24.7017 7.11168 24.7889 12 11.2470806723 1.7608044825 15.7729716129
4158 1 26.4984 8.86182 24.7887 12 10.8924244181 1.7643172028 14.5426705358
4159 1 26.4865 7.01044 26.5242 12 11.2831076353 1.7643172028 16.9273085849
4160 1 24.6392 8.90481 26.525 12 11.1617520846 1.7643172028 15.0033468349
4161 1 28.1799 7.00498 24.7342 12 11.1612993319 1.7731231875 16.5001358419
4162 1 30.0515 8.71565 24.7231 12 11.1407294706 1.7761639052 15.562074467
4163 1 30.0426 7.06919 26.4317 12 11.2999157819 1.77563497 17.7410157167
4164 1 28.2148 8.86316 26.4471 12 11.1417353789 1.7682175607 15.8026780853
4165 1 31.8382 6.88419 24.7093 12 11.0784444425 1.7656850987 17.7040619768
4166 1 33.654 8.83021 24.7607 12 11.0200657551 1.763335682 17.0456578315
4167 1 33.6503 7.00197 26.5845 12 11.5532957894 1.7656850987 19.2408260875
4168 1 31.8392 8.81736 26.5005 12 11.4817229047 1.7780124948 17.0647061425
4169 1 35.4154 7.0515 24.7849 12 10.9753016452 1.7638361403 19.3076788067
4170 1 37.1374 8.8769 24.8064 12 11.0951088331 1.7724922662 19.0426024073
4171 1 36.9951 6.89976 26.5162 12 10.9704204871 1.7489792018 21.027565743
4172 1 35.3489 8.84893 26.5503 12 11.1145479686 1.7632488624 18.7850394016
4173 1 38.9421 7.138 24.7544 12 11.1231503901 1.7611723727 21.3541194298
4174 1 40.688 8.92583 24.719 12 11.015205177 1.7595550761 21.2415869428
4175 1 40.7017 7.05884 26.4652 12 11.0098554547 1.7675900655 23.117529245
4176 1 38.8441 8.82267 26.4736 12 10.9017579335 1.7568986989 20.7773228966
4177 1 0.0701602 10.6018 24.6081 12 11.1303544285 1.7224030038 21.4850923434
4178 1 1.78924 12.3503 24.7744 12 11.1322053111 1.7629646478 21.9797632507
4179 1 1.70027 10.5072 26.5272 12 11.0715711252 1.7843731471 23.4449888129
4180 1 0.0494614 12.3043 26.5005 12 11.0656825578 1.7435856431 21.2539085797
4181 1 3.49266 10.6186 24.7298 12 11.0537552258 1.7614388062 22.3439837786
4182 1 5.2968 12.3328 24.8758 12 11.0445232877 1.7629646478 20.0943072892
4183 1 5.38769 10.4874 26.467 12 10.7293894092 1.7452454891 21.5759771537
4184 1 3.53347 12.2421 26.4871 12 11.0594099696 1.7587766739 22.1563560675
4185 1 7.05287 10.531 24.7456 12 10.8308430538 1.7554561734 19.6726066338
4186 1 8.84316 12.3151 24.7482 12 11.1366828999 1.7564743068 17.3502910878
4187 1 8.84458 10.602 26.5214 12 10.7997477611 1.7473937897 19.115958969
4188 1 7.00646 12.3096 26.5151 12 11.0395253255 1.7702760943 19.4519265299
4189 1 10.5186 10.5365 24.7287 12 10.9842418368 1.7744991908 17.3076955911
4190 1 12.4471 12.3631 24.8141 12 11.2798177849 1.7680021528 14.9621041015
4191 1 12.3575 10.5917 26.5151 12 11.2721864741 1.7610355477 17.0138833536
4192 1 10.6137 12.3508 26.495 12 11.1659307769 1.7812916619 16.9336826544
4193 1 14.1628 10.4855 24.7485 12 10.915753455 1.7624279152 15.2719442754
4194 1 15.8312 12.3427 24.8325 12 11.2252227055 1.7629260855 13.0811216936
4195 1 15.8289 10.586 26.5855 12 11.0412176178 1.7629260855 15.2137488032
4196 1 14.102 12.402 26.6018 12 11.0291074108 1.7541702057 14.9155479175
4197 1 17.6911 10.5851 24.8135 12 10.7685601976 1.7629260855 13.5511751518
4198 1 19.31 12.376 24.8707 12 10.6282235109 1.7521726258 11.6097995793
4199 1 19.4532 10.5859 26.485 12 10.6055382799 1.7317210977 13.8794641812
4200 1 17.6947 12.3376 26.5607 12 10.8274672161 1.756795513 13.176049591
4201 1 21.1482 10.6651 24.8715 12 11.082862803 1.7470990424 12.6269196904
4202 1 23.0917 12.4474 24.7602 12 10.9800588248 1.7470990424 10.9637136167
4203 1 23.0252 10.7214 26.4738 12 11.0207253669 1.7869042522 13.3628587268
4204 1 21.114 12.3371 26.6365 12 11.0317511384 1.7597971679 12.3205308275
4205 1 24.7699 10.6443 24.8113 12 10.7365189956 1.7533170337 12.6674662594
4206 1 26.6396 12.3724 24.7412 12 11.0242133443 1.7542174587 11.6577113908
4207 1 26.5702 10.6055 26.5736 12 10.7759929279 1.7624172184 14.0360373731
4208 1 24.7922 12.3784 26.4683 12 10.9117194909 1.7487673912 12.2334092664
4209 1 28.2774 10.5393 24.7677 12 10.8135347751 1.7761639052 13.5852815824
4210 1 29.9429 12.358 24.877 12 11.0758710224 1.7760912107 12.8350039091
4211 1 30.0305 10.6009 26.4882 12 11.1578461053 1.7989282988 15.0794418275
4212 1 28.2447 12.3939 26.5169 12 10.6091949066 1.7327330966 13.2201553915
4213 1 31.826 10.5477 24.6758 12 11.3171968576 1.7785877173 14.8435684798
4214 1 33.5357 12.3112 24.6264 12 11.2703229882 1.779775279 14.5055596361
4215 1 33.5822 10.5245 26.549 12 11.3666160584 1.779775279 16.7251827305
4216 1 31.7251 12.3921 26.5425 12 11.2334946311 1.779775279 14.6033292131
4217 1 35.2868 10.5822 24.7179 12 10.8251658134 1.7437173222 16.7223158559
4218 1 37.064 12.3618 24.7598 12 10.721908397 1.7415523984 16.6227150485
4219 1 37.0302 10.6504 26.5426 12 10.8780804615 1.7408870078 18.5078694454
4220 1 35.3279 12.4157 26.4823 12 11.0194235919 1.7784139068 16.3614477649
4221 1 38.8887 10.6256 24.8675 12 10.9611442802 1.7364826424 18.9762560551
4222 1 40.7838 12.3368 24.7445 12 11.229111199 1.7598011409 19.2636829637
4223 1 40.6348 10.5666 26.5695 12 10.9905219058 1.7568986989 20.8792894814
4224 1 38.8855 12.4343 26.4709 12 11.0389562162 1.7453285204 18.5614320432
4225 1 0.0682851 14.0625 24.7811 12 11.1016886475 1.757796547 19.78025619
4226 1 1.68574 15.8932 24.7419 12 11.2960713456 1.7690672773 20.4254951193
4227 1 1.84384 14.1445 26.5218 12 11.021399344 1.7690672773 21.869750155
4228 1 -0.0367857 16.0389 26.5068 12 11.318910308 1.7690672773 19.6044638646
4229 1 3.51169 14.183 24.8341 12 11.2751478994 1.7629646478 20.7615540665
4230 1 5.39006 15.9989 24.8277 12 10.8364193844 1.7406688451 18.4954152703
4231 1 5.26762 14.1264 26.6151 12 11.1320257839 1.7574407628 20.0212249021
4232 1 3.58851 15.8948 26.4709 12 11.0032995499 1.7737013444 20.739643856
4233 1 6.97852 14.1658 24.7017 12 11.1623425177 1.7574407628 17.8264468167
4234 1 8.8686 15.9415 24.6958 12 11.0913610817 1.7612200162 15.5560315477
4235 1 8.77226 14.1033 26.4736 12 11.307149854 1.7612200162 17.2707032529
4236 1 7.15085 15.9395 26.5339 12 10.9884233441 1.7612200162 17.7997113437
4237 1 10.6416 14.1863 24.7233 12 11.1672871853 1.7680021528 15.0295504572
4238 1 12.4419 15.912 24.8022 12 11.0363076179 1.767745701 12.9388122451
4239 1 12.3989 14.1303 26.6563 12 10.8606240776 1.7680021528 14.9321280984
4240 1 10.6676 15.8684 26.5395 12 10.9708756029 1.7612200162 15.1750047415
4241 1 14.1622 14.1955 24.749 12 11.173669708 1.7680021528 12.770204841
4242 1 15.9091 15.973 24.7369 12 10.8884704907 1.7631720221 10.7241429934
4243 1 15.9106 14.0621 26.667 12 11.0373368151 1.7631720221 12.9676516043
4244 1 14.1553 15.7702 26.5808 12 10.8437423997 1.7396179813 12.946210706
4245 1 17.6751 14.1258 24.8011 12 10.8384162693 1.7631720221 10.917534805
4246 1 19.4609 15.8225 24.8308 12 11.0861220303 1.7775867268 9.0854478077
4247 1 19.4218 14.1538 26.6401 12 10.9138772435 1.7600775948 11.4237766591
4248 1 17.5458 15.8437 26.4819 12 11.0303685692 1.7797723464 11.03887137
4249 1 21.14 14.0256 24.8035 12 11.3073315867 1.7924228551 9.8676276141
4250 1 22.9253 15.8535 24.8333 12 10.8855001175 1.7410085007 8.4422674281
4251 1 22.9381 14.1368 26.5668 12 10.8846251649 1.7600775948 10.8790142466
4252 1 21.2715 15.9568 26.6022 12 10.8175037574 1.7600775948 9.890615462
4253 1 24.7048 14.1912 24.7707 12 10.9453245473 1.7681128367 9.7765151429
4254 1 26.4968 15.8702 24.7255 12 11.2010823306 1.7574786149 9.0584221346
4255 1 26.5339 14.1578 26.5198 12 10.9750040019 1.7542174587 11.4359865116
4256 1 24.7599 15.8762 26.5414 12 10.8782368019 1.7504677321 9.9533712661
4257 1 28.2551 14.1829 24.6262 12 10.8917358254 1.7642586422 10.7834536
4258 1 30.1826 15.89 24.6534 12 11.1872930065 1.7778388168 10.4894441226
4259 1 29.9038 14.2058 26.484 12 10.8318668263 1.7470401483 12.5477891017
4260 1 28.3211 15.9623 26.3971 12 11.024318038 1.7641421968 10.6826450428
4261 1 31.8828 14.1306 24.8335 12 11.1952589087 1.7737769581 12.5431198507
4262 1 33.5786 16.0087 24.8074 12 11.2053654255 1.7513540288 12.2677136278
4263 1 33.5601 14.0602 26.6355 12 11.2195306796 1.779775279 14.4837224798
4264 1 31.7818 15.8781 26.4995 12 11.1037174568 1.7515689261 12.4374644943
4265 1 35.3608 14.1575 24.7906 12 11.1677165496 1.7458251364 14.4340787697
4266 1 37.0864 15.9507 24.7907 12 11.025889667 1.7857777253 14.6608923562
4267 1 37.1464 14.1816 26.4744 12 10.9133309238 1.7415523984 16.4404517897
4268 1 35.234 15.9888 26.5795 12 11.0034337777 1.7521209576 14.3531795122
4269 1 38.8777 14.0693 24.7624 12 11.1811846252 1.7857777253 16.9145889758
4270 1 40.6544 15.843 24.723 12 11.3824694921 1.7920952894 17.4847149395
4271 1 40.768 14.1577 26.5978 12 10.9483845904 1.7598011409 19.107171655
4272 1 39.1053 15.9031 26.5344 12 11.078767036 1.785645092 17.0625231897
4273 1 0.0398683 17.7181 24.6476 12 11.1973301371 1.7920952894 18.376650319
4274 1 1.86254 19.3198 24.7076 12 11.1750924438 1.7622229689 19.678638723
4275 1 1.78827 17.675 26.6086 12 11.1606729488 1.7690672773 20.7102808856
4276 1 0.0340998 19.4224 26.5041 12 11.115848144 1.7614129225 18.7628583284
4277 1 3.62596 17.654 24.7753 12 11.0542496677 1.7675098627 19.5798722745
4278 1 5.36737 19.4109 24.7467 12 11.2312264849 1.7694397992 17.6579864252
4279 1 5.27802 17.6716 26.616 12 10.8591307837 1.7476002986 18.8865907335
4280 1 3.50217 19.4212 26.6147 12 11.2480381522 1.7622229689 20.1134854967
4281 1 7.11691 17.6011 24.7232 12 10.9731081445 1.762340571 16.4787079527
4282 1 8.9195 19.4553 24.7136 12 11.3728842641 1.7632524581 14.4974571785
4283 1 9.04499 17.6542 26.4651 12 11.0754000714 1.7606204747 15.7241702183
4284 1 7.08456 19.3484 26.5495 12 11.3121945589 1.801738371 16.9905419387
4285 1 10.7366 17.6829 24.6018 12 11.0653045545 1.7556410519 13.3865379238
4286 1 12.2645 19.5379 24.7482 12 11.0293962852 1.7669608988 11.7205586904
4287 1 12.3839 17.6046 26.5446 12 11.0620958367 1.7396179813 13.2506860393
4288 1 10.6642 19.5077 26.5008 12 10.9647444475 1.7779367494 13.9572708673
4289 1 14.0499 17.6955 24.7045 12 11.1274703028 1.7669608988 10.9774184137
4290 1 15.8833 19.4234 24.7332 12 11.0103990325 1.7653565625 8.9939855225
4291 1 15.7157 17.6073 26.4947 12 10.8775187496 1.7598143026 11.0213670927
4292 1 14.0905 19.493 26.5607 12 10.8504104404 1.765767656 11.3765902272
4293 1 17.5911 17.7027 24.9058 12 11.0226997562 1.7711599114 8.9122239919
4294 1 19.3864 19.4926 24.8294 12 11.3225113057 1.7480007624 7.1048847296
4295 1 19.4509 17.5343 26.5625 12 11.0516676399 1.7644900299 9.4637116163
4296 1 17.6008 19.4508 26.5151 12 10.9934919512 1.7502993225 9.241151863
4297 1 21.2469 17.6411 24.9067 12 10.9809604881 1.7437842762 7.5946002978
4298 1 22.8974 19.3702 24.8841 12 11.3353383792 1.7934214405 6.6273220436
4299 1 23.0966 17.6012 26.5808 12 10.8075529556 1.7506243391 8.9274907373
4300 1 21.1319 19.3763 26.5961 12 11.2459284444 1.7673506289 8.2504839385
4301 1 24.5942 17.6679 24.6998 12 11.1247315353 1.774830871 7.4088918876
4302 1 26.4518 19.4716 24.6852 12 11.0889709056 1.774830871 6.7367490219
4303 1 26.5521 17.6534 26.4341 12 11.1918877458 1.7574786149 9.1296014001
4304 1 24.7612 19.4052 26.5308 12 10.8861861778 1.774830871 8.0619205876
4305 1 28.2604 17.6963 24.6478 12 11.4153690183 1.7778388168 8.4223613297
4306 1 30.083 19.4477 24.8253 12 10.9913108513 1.7776602868 8.6401411734
4307 1 30.0517 17.6749 26.5717 12 11.1468569988 1.7778388168 10.6331968801
4308 1 28.2776 19.466 26.5154 12 11.1441183364 1.7663825546 8.9383341739
4309 1 31.8095 17.673 24.7982 12 11.1674335471 1.7778388168 10.3697271192
4310 1 33.6079 19.3972 24.7589 12 11.3852170325 1.7771603041 10.7455641136
4311 1 33.5994 17.7207 26.6706 12 10.7962035156 1.7515689261 12.6547000975
4312 1 31.8091 19.3783 26.562 12 10.8958160644 1.7515689261 10.942459558
4313 1 35.3387 17.6106 24.8603 12 10.9266866811 1.7370816441 12.685521576
4314 1 37.0443 19.3865 24.7003 12 11.3136629146 1.7863164785 13.3140322931
4315 1 37.2142 17.6057 26.5255 12 11.1098409671 1.7579359416 15.0044531609
4316 1 35.4572 19.4192 26.5533 12 11.1071102818 1.7798197626 13.2068452612
4317 1 38.87 17.6764 24.7736 12 11.2114090611 1.7919841175 15.3571012953
4318 1 40.6848 19.4221 24.7359 12 10.922220137 1.7920952894 16.4175044328
4319 1 40.6492 17.7868 26.6062 12 11.3247365509 1.7920952894 17.6630026917
4320 1 38.8503 19.5038 26.5119 12 10.9818354227 1.7438419225 15.7250843554
4321 1 0.108972 21.0789 24.7401 12 11.2559936528 1.7617022629 17.8364403079
4322 1 1.77177 22.9646 24.9012 12 11.2879498229 1.7764047213 19.3486636045
4323 1 1.7994 21.2341 26.5773 12 10.9159249444 1.7617022629 20.1171821624
4324 1 42.3685 22.9565 26.6012 12 11.2411599425 1.7617022629 18.403301774
4325 1 3.42674 21.2409 24.8498 12 11.1907564227 1.7694397992 19.3039119174
4326 1 5.21081 22.9624 24.8204 12 11.1766614143 1.7687824122 17.6500918681
4327 1 5.25547 21.1188 26.6185 12 11.5703841303 1.8008000499 18.4072567803
4328 1 3.44241 23.0214 26.6883 12 11.0269327175 1.7653385678 20.0381545829
4329 1 7.02157 21.2656 24.7973 12 11.0881042976 1.801738371 15.9972930663
4330 1 8.84696 22.9306 24.8213 12 10.8257508883 1.7499082349 14.3542677661
4331 1 8.90083 21.226 26.4949 12 11.1272584384 1.801738371 15.1471962667
4332 1 7.08892 22.9662 26.4753 12 11.2322048157 1.8008104065 16.6566481009
4333 1 10.64 21.2263 24.7358 12 10.904071692 1.7640388006 12.7848163882
4334 1 12.3942 23.1201 24.8237 12 10.9470404431 1.7640388006 11.1980441117
4335 1 12.3262 21.2051 26.5546 12 10.682734523 1.7640388006 12.3269469869
4336 1 10.5868 22.9507 26.6613 12 10.9449895628 1.7513971652 13.6994979106
4337 1 14.1567 21.2196 24.8227 12 11.1568298568 1.7669608988 9.8521398236
4338 1 15.8969 23.062 24.7301 12 11.055977076 1.7845125777 8.2984048595
4339 1 15.8919 21.255 26.4642 12 11.0308970233 1.76478791 9.6823685603
4340 1 13.9641 22.9767 26.6129 12 10.7154663675 1.7564349915 10.9933707009
4341 1 17.6851 21.353 24.7595 12 11.1448763138 1.76478791 7.252305928
4342 1 19.4003 23.0588 24.6769 12 10.8183460027 1.7578547338 6.1114468398
4343 1 19.3692 21.1909 26.5637 12 11.114012776 1.7578547338 8.0373481821
4344 1 17.6245 23.0006 26.539 12 11.0814854878 1.7603816869 8.5954171934
4345 1 21.1469 21.2968 24.7338 12 11.3791571158 1.7934214405 5.8448663518
4346 1 22.9919 22.9977 24.7206 12 10.9963307568 1.7904871302 5.5110222917
4347 1 22.9797 21.2202 26.5471 12 11.1097575728 1.7884641212 7.5204189838
4348 1 21.2597 22.9598 26.4173 12 10.9762913154 1.7578547338 7.2833201103
4349 1 24.7165 21.2138 24.7214 12 11.2198688748 1.7934214405 5.7292226954
4350 1 26.5319 22.883 24.7285 12 11.1236328354 1.7676944337 5.9232562736
4351 1 26.4552 21.1119 26.4525 12 11.0234732933 1.7818128764 7.7202472455
4352 1 24.7337 22.9268 26.5462 12 11.0759244364 1.7681295207 7.3297761334
4353 1 28.2917 21.2235 24.7914 12 10.9848448293 1.7663825546 7.0178170266
4354 1 29.9041 22.9858 24.778 12 11.1579444503 1.7795231701 7.5443420896
4355 1 30.1766 21.1455 26.4678 12 10.9650494496 1.751334442 9.4400327108
4356 1 28.2466 23.0178 26.4773 12 11.0458840359 1.7681295207 8.1815149578
4357 1 31.8436 21.1654 24.666 12 11.1878924011 1.7795231701 9.0580178392
4358 1 33.6032 23.0271 24.7764 12 10.8725865173 1.7712166016 10.0503276072
4359 1 33.5518 21.1525 26.4951 12 11.2902617122 1.7833557674 11.5032250732
4360 1 31.7828 22.9587 26.4864 12 11.2633750319 1.7788759711 9.9875890122
4361 1 35.2797 21.2432 24.7181 12 11.2770692571 1.7863164785 11.5364007822
4362 1 37.1285 22.9534 24.8742 12 11.3835143983 1.7863164785 12.9939170428
4363 1 37.1098 21.1671 26.5551 12 11.1112433253 1.7862970982 14.0995657091
4364 1 35.2063 23.0568 26.522 12 11.1916363166 1.7833557674 12.3730724011
4365 1 38.8761 21.1511 24.8788 12 11.074288322 1.7861898616 14.618811856
4366 1 40.6816 22.7963 24.8637 12 11.2221460614 1.7640788768 16.1120814936
4367 1 40.7138 21.0981 26.5545 12 10.8529361182 1.7617022629 17.0431640162
4368 1 39.0093 22.9278 26.6725 12 11.109246355 1.7561522064 15.5385267664
4369 1 42.385 24.7814 24.8066 12 11.3212602474 1.7764047213 17.6905400777
4370 1 1.76986 26.5899 24.7342 12 10.882925102 1.7742227237 19.4912960628
4371 1 1.74234 24.8821 26.5779 12 11.3295108087 1.7764047213 20.0247026791
4372 1 0.0215622 26.6426 26.3909 12 11.1195311658 1.7569026441 18.4681167952
4373 1 3.51906 24.7405 24.7439 12 11.1921698009 1.7762518408 19.2829318954
4374 1 5.3393 26.5209 24.6667 12 10.9031175761 1.7607125349 17.7220348121
4375 1 5.34694 24.6741 26.507 12 11.1503588139 1.7641395133 18.3315446071
4376 1 3.66749 26.4797 26.4964 12 10.9553622058 1.7603321483 20.0055030367
4377 1 7.0824 24.791 24.6728 12 10.9948425812 1.7489952736 16.0030937632
4378 1 8.85242 26.5466 24.762 12 10.8331245053 1.7470115475 14.6695221755
4379 1 8.72023 24.8369 26.5195 12 11.1856206656 1.7470115475 15.3547395001
4380 1 7.02775 26.5806 26.3904 12 11.1323912715 1.7638943391 17.0287266851
4381 1 10.5134 24.7125 24.8217 12 11.0818503212 1.7513971652 12.9808349817
4382 1 12.3366 26.4948 24.7916 12 11.0754125537 1.7645936467 11.7614426173
4383 1 12.3945 24.7312 26.5982 12 11.0039179762 1.7615960465 12.3280709698
4384 1 10.6109 26.6082 26.5299 12 11.2016312378 1.7615960465 14.1100775419
4385 1 14.1366 24.7269 24.734 12 10.7067919323 1.7564349915 9.855426524
4386 1 15.8999 26.5466 24.6432 12 10.9320727767 1.7556997359 9.0199202825
4387 1 15.7596 24.7219 26.5686 12 11.3400971991 1.7605962805 9.8877327465
4388 1 14.1211 26.5238 26.4341 12 11.131601526 1.7615960465 11.3606488728
4389 1 17.6456 24.7166 24.5938 12 10.9026079361 1.7603816869 7.2280695541
4390 1 19.4002 26.4284 24.7034 12 11.2039963502 1.7903075014 6.8922685995
4391 1 19.4013 24.6918 26.5029 12 11.2593052404 1.7578547338 7.9970905791
4392 1 17.6264 26.5021 26.4004 12 11.5501165608 1.7605962805 9.1866613949
4393 1 21.1705 24.621 24.7532 12 11.0004641719 1.7903075014 5.7935623648
4394 1 22.9764 26.5121 24.743 12 11.1340571085 1.7903075014 5.7284896892
4395 1 22.8901 24.6571 26.4875 12 11.1628469733 1.7517965576 7.2305267634
4396 1 21.1331 26.5607 26.472 12 11.1495060313 1.7900437459 7.7388636261
4397 1 24.6532 24.7432 24.7342 12 11.0749924029 1.7676944337 5.5762562239
4398 1 26.4424 26.4952 24.7284 12 11.1602312294 1.7821392874 5.9745267794
4399 1 26.4539 24.764 26.4738 12 11.3787790662 1.7649414957 7.6562751284
4400 1 24.7615 26.5801 26.5235 12 10.9203726561 1.7402396863 7.4932912917
4401 1 28.3724 24.7166 24.7196 12 11.1106721331 1.7902073339 6.5128541932
4402 1 29.9977 26.4045 24.6329 12 11.1267603192 1.7821392874 7.4206322746
4403 1 30.0057 24.7886 26.5363 12 10.8566448304 1.7653541067 8.8674385608
4404 1 28.2905 26.5245 26.5399 12 11.1815300872 1.7821392874 8.2949798032
4405 1 31.8651 24.705 24.7564 12 11.0972546266 1.7795231701 8.5748792362
4406 1 33.5306 26.4501 24.7257 12 10.9638595722 1.7569335886 9.9476465144
4407 1 33.5188 24.7767 26.6374 12 10.894530827 1.742950612 11.0729072087
4408 1 31.6913 26.4414 26.4996 12 10.9946262833 1.7571560492 9.893915699
4409 1 35.242 24.7497 24.77 12 11.2166037205 1.7719366412 11.2486330407
4410 1 37.1233 26.4852 24.7385 12 11.1004562244 1.7719366412 12.9689146567
4411 1 37.0808 24.7393 26.5563 12 11.4099739019 1.7709422764 13.7670957249
4412 1 35.375 26.5264 26.5594 12 11.1611034696 1.7666114626 12.5139436239
4413 1 38.8645 24.6068 24.7625 12 11.3863231223 1.7686117678 14.435704114
4414 1 40.5088 26.5398 24.6515 12 11.0084379579 1.7510808748 15.9987955883
4415 1 40.6626 24.8074 26.5809 12 11.372761063 1.7660017162 16.8541314733
4416 1 38.8048 26.5892 26.5333 12 11.4159394033 1.769134558 15.3083203661
4417 1 0.0103736 28.2803 24.5834 12 10.9999510812 1.7748645831 18.0277775937
4418 1 1.71212 29.9941 24.7081 12 11.2826521926 1.7892302141 20.024497483
4419 1 1.78873 28.2421 26.5587 12 11.1699852056 1.7889284372 20.3524055498
4420 1 0.0183534 29.9455 26.5086 12 11.5012334869 1.7921164568 19.120579496
4421 1 3.55734 28.2598 24.7171 12 11.1229588 1.7607125349 19.6290748623
4422 1 5.29466 29.9681 24.7549 12 10.7784799133 1.7573590588 18.5214660856
4423 1 5.22177 28.1349 26.4709 12 10.7633833228 1.7608477471 18.8899186968
4424 1 3.60209 30.0835 26.4312 12 11.2409686705 1.7892302141 20.7163505477
4425 1 7.06683 28.3258 24.7295 12 10.5886751631 1.7444795578 16.5363536783
4426 1 8.85544 30.0709 24.8204 12 10.8622093499 1.7440996925 15.6056248908
4427 1 8.82208 28.3229 26.5818 12 11.045683126 1.7518058739 16.0197741605
4428 1 7.04427 29.9473 26.5216 12 10.8887298611 1.7501090317 17.8603272507
4429 1 10.5504 28.3251 24.7714 12 11.0119817891 1.7518058739 13.6644191797
4430 1 12.2868 30.2083 24.7538 12 11.0294806279 1.7530254844 13.0448209684
4431 1 12.3164 28.3512 26.5592 12 11.2448053441 1.7603922791 13.372316938
4432 1 10.6707 30.2008 26.5075 12 10.9244189747 1.7518058739 15.1991175485
4433 1 14.0949 28.2708 24.7665 12 11.1233818099 1.7603922791 11.0176837781
4434 1 15.7714 30.16 24.709 12 11.1299634369 1.7533905974 10.7180191459
4435 1 15.8685 28.2698 26.4994 12 11.0372890547 1.7602823148 10.9320171036
4436 1 14.1619 30.0526 26.5757 12 11.2521586143 1.7603922791 12.8402239037
4437 1 17.592 28.3386 24.7614 12 11.4398431386 1.7694432854 8.7237580842
4438 1 19.4835 29.9518 24.8327 12 11.4511558269 1.7694432854 8.5033584178
4439 1 19.4277 28.2719 26.5402 12 11.2714498047 1.7657178058 8.9630772574
4440 1 17.5727 30.0946 26.4567 12 11.2637388564 1.7629289671 10.6370395847
4441 1 21.1326 28.2095 24.536 12 11.0808170788 1.7898296196 6.6425223962
4442 1 22.8631 29.959 24.6908 12 11.1223880499 1.7459847242 7.107625964
4443 1 22.9218 28.0486 26.4605 12 10.9305016815 1.738525203 7.839217918
4444 1 21.2197 30.0147 26.4542 12 11.2416484709 1.7653087444 9.0637973122
4445 1 24.6899 28.2391 24.7392 12 10.9103962917 1.759100245 6.1059113564
4446 1 26.4306 30.0212 24.7515 12 11.0104386536 1.7664930824 7.1071776168
4447 1 26.572 28.2307 26.4368 12 11.1410142328 1.7402774129 7.9206959101
4448 1 24.6241 30.0411 26.4752 12 11.4189560341 1.7706972881 8.421149144
4449 1 28.3412 28.3018 24.7201 12 11.2111420276 1.7821392874 7.0546093628
4450 1 29.9705 30.061 24.7639 12 11.1076765102 1.7954940892 8.6576633273
4451 1 29.9891 28.2067 26.6357 12 11.366440996 1.7623117944 9.4502763671
4452 1 28.2145 30.12 26.4032 12 10.9519648784 1.7607561696 9.0554916664
4453 1 31.7026 28.2039 24.5475 12 11.4383202288 1.7955887065 8.9647059596
4454 1 33.5663 29.9994 24.699 12 11.0830621853 1.7955887065 11.0812944776
4455 1 33.4487 28.2227 26.3656 12 11.3720853446 1.7666114626 11.3474753959
4456 1 31.7835 30.0118 26.482 12 11.0618291433 1.7955887065 10.9254661949
4457 1 35.3275 28.0928 24.6353 12 10.9030626393 1.7666114626 11.711007225
4458 1 37.1373 30.0915 24.5071 12 10.9226233522 1.7224855103 13.8087938952
4459 1 36.9968 28.3303 26.3329 12 11.311680674 1.7752348762 14.0136961282
4460 1 35.2805 30.0427 26.3755 12 11.3462710752 1.7666114626 13.2734810827
4461 1 38.8251 28.2665 24.6176 12 10.8493841003 1.7473999267 14.747284431
4462 1 40.5676 30.0288 24.6125 12 11.3799466708 1.7921164568 16.7716500068
4463 1 40.5839 28.182 26.4677 12 11.5241566271 1.7921164568 17.0627438949
4464 1 38.7905 30.0266 26.3757 12 11.2205628512 1.7917181402 15.9811613472
4465 1 42.3813 31.8177 24.6604 12 11.2706859236 1.7748645831 18.9930458237
4466 1 1.81578 33.5274 24.71 12 11.0928430895 1.771113045 21.2710851837
4467 1 1.73252 31.8327 26.5134 12 11.1299089214 1.7892302141 21.1842613948
4468 1 42.3905 33.5355 26.5283 12 11.0495122172 1.7644014902 20.3315779031
4469 1 3.44995 31.8111 24.7121 12 11.0988216717 1.7684994707 20.7078953065
4470 1 5.31836 33.4736 24.7508 12 11.0019290332 1.7573590588 19.831418359
4471 1 5.35657 31.7793 26.4954 12 10.9667613311 1.7685907331 19.8286816917
4472 1 3.49627 33.6168 26.5001 12 11.0309068457 1.7687565144 22.0583258372
4473 1 7.00406 31.7165 24.8869 12 10.8651215345 1.7550276419 17.761135239
4474 1 8.84958 33.654 24.7901 12 11.1016542473 1.767826298 17.2173371949
4475 1 8.82367 31.8194 26.5488 12 10.9450936367 1.767826298 17.2015640137
4476 1 6.99965 33.6427 26.4997 12 11.1204306879 1.767826298 19.3453847067
4477 1 10.5712 31.961 24.6966 12 10.5860634157 1.7515924014 15.0549188835
4478 1 12.3468 33.6217 24.798 12 10.7525766488 1.7518472336 14.8387227448
4479 1 12.3888 31.8717 26.5238 12 10.8669145744 1.7681026202 14.7995489117
4480 1 10.5781 33.5723 26.478 12 10.8199673306 1.7654779197 16.8132866359
4481 1 14.0054 31.8766 24.7318 12 10.5710254729 1.7464910603 12.7683935933
4482 1 15.7382 33.5642 24.8081 12 11.1689039687 1.7604314988 12.6649889284
4483 1 15.7971 31.8902 26.4977 12 11.0748059462 1.7456933093 12.6364996678
4484 1 14.0798 33.7303 26.525 12 10.8226725947 1.7341215171 14.7356993362
4485 1 17.6779 31.7993 24.7338 12 11.3577693874 1.759715938 10.4815501997
4486 1 19.536 33.4839 24.7697 12 10.7941979627 1.7294045842 10.6669763735
4487 1 19.3692 31.8756 26.5252 12 11.0814788157 1.7914913103 10.8398410572
4488 1 17.6814 33.5755 26.4802 12 11.0064380183 1.7539862335 12.637081055
4489 1 21.1101 31.776 24.6651 12 11.1405467964 1.7666352166 8.7824051668
4490 1 22.8592 33.5775 24.6743 12 10.8578822068 1.7403664983 9.5247202956
4491 1 22.9534 31.8734 26.3874 12 11.0480001882 1.7709512966 9.5130930841
4492 1 21.1842 33.6138 26.5635 12 10.714465147 1.7666352166 11.2095813524
4493 1 24.6252 31.7741 24.7101 12 10.9112929749 1.7709000194 7.9972709291
4494 1 26.4056 33.4804 24.7117 12 10.9082492718 1.7515445027 9.4048384079
4495 1 26.4908 31.7904 26.5145 12 11.1526537784 1.7709512966 9.5302851308
4496 1 24.6566 33.6391 26.4876 12 10.999389756 1.7709512966 10.5713463145
4497 1 28.1612 31.8299 24.6931 12 10.9838810387 1.7682710004 8.6933287729
4498 1 30.0614 33.5187 24.7053 12 11.2446471624 1.7808524508 10.6750981501
4499 1 30.0281 31.7426 26.5685 12 11.0129078928 1.7798150326 10.7471578569
4500 1 28.2421 33.6144 26.5126 12 11.3838627689 1.7820661895 11.1133356873
4501 1 31.785 31.7881 24.7153 12 10.9542514617 1.7955887065 10.6191724016
4502 1 33.6213 33.5682 24.7116 12 11.0868711567 1.7617021109 12.8377827696
4503 1 33.4362 31.8018 26.4428 12 10.6170655297 1.7540886087 12.7060988987
4504 1 31.7964 33.4975 26.4682 12 11.1463679657 1.7820661895 12.5752650465
4505 1 35.2472 31.7822 24.6177 12 10.8981874187 1.7443649704 13.0995145294
4506 1 37.0608 33.4365 24.5858 12 11.3103109528 1.7964870981 15.2333788041
4507 1 37.0364 31.7491 26.3973 12 10.910056557 1.7391950779 15.2860944918
4508 1 35.2893 33.4066 26.6351 12 10.9964112655 1.7560725799 14.8437373128
4509 1 38.8415 31.7692 24.6923 12 10.9311363638 1.7542405515 15.9654622383
4510 1 40.7062 33.476 24.5924 12 11.0868776199 1.7724350734 18.173071026
4511 1 40.6427 31.7632 26.4117 12 11.148293192 1.7921164568 18.1328061801
4512 1 38.8452 33.5587 26.3814 12 11.2375602599 1.7531624649 17.4680602889
4513 1 0.0643446 35.3287 24.5656 12 11.094085342 1.7644014902 20.436326304
4514 1 1.81182 37.0898 24.7337 12 10.5803002042 1.7490267413 22.7460818064
4515 1 1.71913 35.3059 26.4433 12 10.7604608612 1.7389200097 22.4816942927
4516 1 -0.00578803 37.0249 26.4837 12 11.1461102739 1.7936273918 21.8814637606
4517 1 3.51178 35.3956 24.7274 12 10.921324305 1.7553374732 22.193264538
4518 1 5.30848 37.1021 24.6906 12 11.0198512025 1.7868607249 21.7129778949
4519 1 5.26088 35.3584 26.5355 12 10.9147210698 1.7529361752 21.5021541668
4520 1 3.45118 37.0511 26.4743 12 10.8287210191 1.7459966218 23.71816338
4521 1 7.00147 35.3322 24.7258 12 11.0246570822 1.7859614257 19.4637752401
4522 1 8.87534 37.015 24.6532 12 11.3187786364 1.7868607249 19.1488220005
4523 1 8.81682 35.3978 26.5039 12 11.0698385907 1.7673185934 18.9967100416
4524 1 7.11587 37.0505 26.5158 12 11.0315730398 1.7868607249 21.1084717311
4525 1 10.7032 35.4658 24.677 12 10.9813053042 1.7518472336 16.9660500323
4526 1 12.4463 37.1293 24.6718 12 10.709631944 1.7501260052 16.8397615258
4527 1 12.2742 35.392 26.5472 12 10.8520154411 1.7357824511 16.7993070427
4528 1 10.6752 37.1574 26.4945 12 10.7738312997 1.7463666438 18.8248237158
4529 1 14.0887 35.4339 24.7452 12 10.9831360298 1.7596123626 14.7582793669
4530 1 16.0087 37.0324 24.6615 12 11.1290863652 1.7535426379 14.6987869603
4531 1 15.854 35.5313 26.5224 12 11.0378465225 1.7552686058 14.7647149101
4532 1 14.1427 37.1575 26.5595 12 10.9790108231 1.7533381257 16.7259243167
4533 1 17.6734 35.2178 24.717 12 11.0970704093 1.7568300222 12.6367456377
4534 1 19.2905 37.0299 24.7683 12 10.9347267911 1.7367843863 13.3978359897
4535 1 19.3935 35.3279 26.4257 12 10.6067699102 1.7542619476 12.9681930533
4536 1 17.6518 37.1357 26.5242 12 10.7308336906 1.7633079259 15.0271428501
4537 1 21.1102 35.3242 24.7854 12 10.7032176146 1.7306945839 11.4343786219
4538 1 22.8741 37.1094 24.7356 12 10.7991860714 1.7385204769 12.4910360344
4539 1 22.9241 35.3775 26.4594 12 10.808602163 1.7508104075 11.9913740435
4540 1 21.1461 37.2616 26.4422 12 10.8616291764 1.7677839078 13.8413178116
4541 1 24.67 35.2834 24.7124 12 10.7591148097 1.7508104075 10.7461812911
4542 1 26.4427 36.981 24.6113 12 10.9434924167 1.7587090701 12.2772964587
4543 1 26.4545 35.2817 26.3919 12 11.110169897 1.7610093471 11.8395390709
4544 1 24.6049 37.1538 26.3331 12 11.0093619594 1.7610093471 13.1984599567
4545 1 28.2136 35.3287 24.6838 12 11.1398705177 1.7696341445 11.2930855414
4546 1 30.023 37.0517 24.6474 12 10.8936519869 1.7696341445 13.310477128
4547 1 30.0627 35.4317 26.5166 12 11.3981574034 1.7820661895 13.0254403122
4548 1 28.1817 37.1578 26.3716 12 10.9714358307 1.7615112573 13.6443878862
4549 1 31.813 35.2704 24.7411 12 11.0566184365 1.7753622051 12.8286342859
4550 1 33.5422 37.0504 24.7645 12 10.6648241487 1.7436451476 15.0845809004
4551 1 33.5562 35.357 26.5243 12 11.2255852671 1.7667372169 14.7410050461
4552 1 31.8542 37.0467 26.3717 12 10.6042180809 1.749873081 14.8992284617
4553 1 35.3548 35.2839 24.6923 12 11.2847681153 1.7964870981 15.0355679071
4554 1 37.155 37.0808 24.7193 12 11.0288621066 1.795910744 17.3640262092
4555 1 37.031 35.1807 26.4875 12 11.5153710627 1.7964870981 16.9230212154
4556 1 35.2778 37.0971 26.4894 12 11.0531716345 1.7593302128 16.875403794
4557 1 38.9446 35.269 24.6152 12 11.3648908581 1.7964870981 17.5824704208
4558 1 40.684 37.0189 24.5914 12 11.1709981405 1.7936635334 19.827122164
4559 1 40.6818 35.2497 26.3928 12 11.4244814769 1.7936635334 19.6528754156
4560 1 38.8199 36.9996 26.4411 12 11.2260498498 1.7936635334 19.1834375831
4561 1 -0.0156798 38.816 24.6905 12 11.0832868487 1.7687049794 22.1786565367
4562 1 1.7289 40.5739 24.7212 12 11.2491157316 1.7905991645 24.5261864162
4563 1 1.78597 38.8013 26.4506 12 11.1911504677 1.7971070727 24.1535551059
4564 1 42.288 40.6324 26.3938 12 11.1903261736 1.7712456442 23.7293277597
4565 1 3.50797 38.8695 24.6407 12 10.8087242905 1.7649404567 24.0745372258
4566 1 5.20487 40.5184 24.7796 12 11.0752136651 1.7666434519 23.9051898748
4567 1 5.26124 38.7088 26.5287 12 11.3339795272 1.7837750042 23.3796509271
4568 1 3.47063 40.5306 26.5435 12 11.1933342218 1.7563759054 25.7488718738
4569 1 7.07286 38.9257 24.7211 12 11.1924869883 1.7868607249 21.6013335338
4570 1 8.89595 40.6023 24.7389 12 10.9759867271 1.764574384 21.4631222435
4571 1 8.81591 38.8793 26.417 12 11.1766599204 1.7837750042 21.0611240794
4572 1 6.97421 40.6489 26.4738 12 11.0958600063 1.7837750042 23.4265196637
4573 1 10.6073 38.8369 24.7197 12 10.6958987947 1.7524986266 19.1693041481
4574 1 12.3025 40.6337 24.7641 12 10.933884349 1.7499051606 19.3798509055
4575 1 12.3303 38.806 26.4171 12 10.8558495456 1.7583998111 18.7693370114
4576 1 10.5062 40.624 26.5457 12 10.8854698317 1.7653324925 21.134719192
4577 1 14.1909 38.9285 24.8104 12 11.0564182682 1.7535426379 17.0952248094
4578 1 15.8787 40.7524 24.8448 12 10.8846094247 1.7744818959 17.7081293064
4579 1 15.8909 38.819 26.4509 12 11.0447697129 1.766499091 16.9438084844
4580 1 14.0567 40.6295 26.5389 12 10.8653160296 1.7472926886 19.1782090017
4581 1 17.6494 38.9234 24.6015 12 11.0674746188 1.7742218102 15.4110804822
4582 1 19.4231 40.6024 24.7525 12 11.0605431069 1.7891759116 16.3465724789
4583 1 19.4108 38.8412 26.4559 12 10.9285959266 1.766499091 15.6481943678
4584 1 17.6655 40.7137 26.5338 12 11.2065246014 1.7744818959 17.7689138014
4585 1 21.0976 38.9089 24.5567 12 10.8921379709 1.7379775126 14.3678601536
4586 1 22.8923 40.685 24.7255 12 11.1056488497 1.7657619399 15.7072057162
4587 1 22.8448 38.9551 26.5194 12 11.1264250166 1.7484937578 14.9512924401
4588 1 21.2092 40.7914 26.4768 12 10.945839552 1.7605256639 16.8007653021
4589 1 24.7489 38.8864 24.623 12 11.0085353533 1.7487385701 13.891090496
4590 1 26.339 40.566 24.7246 12 11.1613836789 1.76710204 15.5537716268
4591 1 26.3677 38.7951 26.4335 12 10.8931648686 1.7610093471 14.7223941595
4592 1 24.7094 40.583 26.519 12 11.0826908427 1.7478673332 16.2447013629
4593 1 28.2319 38.7616 24.7472 12 11.06796979 1.7487385701 14.2449512181
4594 1 30.0714 40.5211 24.7121 12 11.1868443739 1.7833002724 16.3040038101
4595 1 30.0727 38.7892 26.4937 12 10.9909783008 1.7398843967 15.5807021546
4596 1 28.2685 40.6156 26.3817 12 11.0838521047 1.7489243735 16.5747115265
4597 1 31.8891 38.725 24.7383 12 10.6496216163 1.7398843967 15.5012980048
4598 1 33.5918 40.499 24.7816 12 11.1388688045 1.7551312377 17.7599177706
4599 1 33.5271 38.776 26.4845 12 10.6904324592 1.7383221755 17.0460839172
4600 1 31.735 40.6393 26.4445 12 11.0300874681 1.7743145831 17.6726232983
4601 1 35.3408 38.7852 24.7203 12 10.9735173647 1.7921863327 17.3714766234
4602 1 37.0836 40.6633 24.7352 12 11.0264945244 1.7921863327 19.7549249499
4603 1 37.1124 38.6935 26.4605 12 11.0598373419 1.791179869 19.0652491045
4604 1 35.3965 40.5661 26.4694 12 10.9338426948 1.7461082206 19.3569229387
4605 1 38.9185 38.7902 24.6912 12 11.3387878344 1.7921863327 19.6255658557
4606 1 40.6084 40.5704 24.6764 12 10.956061245 1.7512756907 21.9284133974
4607 1 40.5693 38.8345 26.4313 12 11.0178695592 1.7936635334 21.462151588
4608 1 38.8651 40.5878 26.4744 12 11.0930493757 1.7521827149 21.4431675058
4609 1 42.3532 42.3964 28.2506 12 10.9924132875 1.7712532651 25.5860671635
4610 1 1.65996 1.77489 28.3265 12 10.9500704427 1.7577141136 27.9199721435
4611 1 1.64358 42.3235 30.0127 12 11.2534219084 1.7623281551 27.4350918819
4612 1 42.3366 1.77687 30.064 12 11.0296830791 1.7653995162 27.4677350845
4613 1 3.43564 0.0543816 28.2393 12 11.0045529 1.7623281551 27.6458157866
4614 1 5.18099 1.73442 28.3444 12 10.867561667 1.7249674549 27.5803413166
4615 1 5.24045 42.3013 29.9224 12 10.7641355101 1.7506113606 27.0443777831
4616 1 3.28057 1.74919 30.003 12 10.6187545947 1.7253046365 29.5223460545
4617 1 6.83748 42.4196 28.1866 12 10.7251012751 1.7468503476 25.3123477024
4618 1 8.78115 1.65984 28.2962 12 11.0703162509 1.759374314 25.2750805254
4619 1 8.76651 42.3462 30.0183 12 11.0545472347 1.7771424774 24.8985775472
4620 1 6.93903 1.69976 29.9682 12 11.2498559016 1.7542311275 27.1230918415
4621 1 10.5482 42.3789 28.2808 12 11.0107470796 1.7652630704 23.0714425845
4622 1 12.3397 1.70528 28.2259 12 10.8023277981 1.760657903 23.4012909448
4623 1 12.3793 0.0336099 30.0002 12 11.0294463016 1.7606524978 23.0362463578
4624 1 10.4349 1.67639 30.018 12 10.8900994851 1.7603556891 25.1640603617
4625 1 14.0859 0.0446623 28.2556 12 10.9560623799 1.7599122173 21.3661176572
4626 1 15.8796 1.85344 28.2857 12 11.0708888251 1.7686061748 22.1004828698
4627 1 15.8393 0.0199004 30.0128 12 11.127387162 1.7686061748 21.5746442844
4628 1 14.1074 1.84581 30.0249 12 10.9509747134 1.7686061748 23.6164197003
4629 1 17.6574 -0.00850627 28.312 12 11.3339661841 1.7589571029 20.0251083571
4630 1 19.3836 1.85755 28.3309 12 11.2747383762 1.7559718145 21.0793892498
4631 1 19.4044 42.3825 30.1725 12 11.2046196462 1.756418296 20.4090299811
4632 1 17.6681 1.77463 30.093 12 11.181467945 1.7683962854 22.3369667907
4633 1 21.1045 0.0696964 28.2355 12 11.0264609538 1.756418296 19.1134372572
4634 1 22.9463 1.72389 28.2144 12 10.9615336896 1.7507344153 20.2823449339
4635 1 22.906 42.4532 29.9898 12 11.1944025942 1.774159512 19.7272404147
4636 1 21.2235 1.78364 30.0605 12 10.9770438242 1.756418296 21.456686592
4637 1 24.8061 42.3433 28.1668 12 10.9493514842 1.774159512 18.579136773
4638 1 26.458 1.62227 28.2049 12 10.9367277906 1.7478476414 20.1690080858
4639 1 26.4461 42.2867 29.9955 12 11.105910966 1.774159512 19.5689038016
4640 1 24.7213 1.77488 30.0129 12 11.1589506979 1.774159512 21.1224052943
4641 1 28.2875 42.3028 28.2089 12 11.0552333693 1.7588368554 18.8874109469
4642 1 30.0047 1.7435 28.2235 12 10.9159338627 1.7450594581 20.8742969862
4643 1 30.0001 42.3142 29.8991 12 11.3180074866 1.7813421001 20.1485652017
4644 1 28.2039 1.71302 29.9553 12 11.0362401815 1.7588368554 21.3111248566
4645 1 31.7728 42.2914 28.0836 12 11.1875361154 1.7831632997 19.7597831585
4646 1 33.4957 1.68019 28.2603 12 11.080016236 1.7513151817 21.9679230548
4647 1 33.6492 42.34 29.9113 12 11.1864046348 1.7831632997 21.4067000191
4648 1 31.7989 1.69482 29.9301 12 10.8479954573 1.7831632997 22.1421273285
4649 1 35.3569 0.0705442 28.1603 12 10.9144216636 1.757751286 21.4808870108
4650 1 37.1386 1.65439 28.2937 12 10.7964414821 1.7613981643 23.6395369118
4651 1 37.0397 42.2775 30.0129 12 10.8423645014 1.7584346124 23.0192370582
4652 1 35.4082 1.76775 30.0176 12 10.8805699901 1.764407353 23.6280295623
4653 1 38.9112 42.389 28.3192 12 11.0061568884 1.7584346124 23.415461495
4654 1 40.6183 1.71358 28.1773 12 10.8821207998 1.7653995162 25.6192966889
4655 1 40.6214 42.3629 29.9692 12 10.9987774956 1.7653995162 25.1416506434
4656 1 38.812 1.6947 29.9631 12 10.9860818723 1.7675741107 25.2622712335
4657 1 42.2731 3.55684 28.2402 12 11.0474374698 1.7557078951 27.1819338119
4658 1 1.69743 5.29064 28.1715 12 10.9630037841 1.7371415614 27.1472158063
4659 1 1.78118 3.59192 29.9354 12 10.7360470727 1.7384779716 29.0233321561
4660 1 0.00679649 5.25596 30.008 12 11.2364829247 1.7775221073 26.8733010436
4661 1 3.5303 3.49561 28.2756 12 10.795334306 1.7439331823 27.8233193406
4662 1 5.29235 5.13621 28.2203 12 10.8938645376 1.7367930261 25.5927834142
4663 1 5.16154 3.52846 30.0169 12 10.8639904363 1.7517552802 27.5171913978
4664 1 3.44592 5.30467 29.9587 12 11.1038768445 1.7534323583 27.4137068317
4665 1 7.0225 3.4812 28.1841 12 10.8866440774 1.7542311275 25.6998934758
4666 1 8.67638 5.25288 28.4178 12 10.8593201156 1.7615014319 23.6166501826
4667 1 8.8414 3.44374 30.0269 12 10.8364687595 1.7542311275 25.5145981309
4668 1 7.00385 5.19136 30.1042 12 11.0661845109 1.7611852349 25.3802797669
4669 1 10.4707 3.52748 28.2213 12 11.1553005299 1.7603556891 23.8106025411
4670 1 12.3275 5.28885 28.2252 12 11.3882092669 1.7556922661 21.5573632966
4671 1 12.2786 3.38942 29.9685 12 11.3969959142 1.7617311262 23.8253472321
4672 1 10.4505 5.31691 29.901 12 11.0583244347 1.7647172822 23.2785234665
4673 1 14.1109 3.45064 28.2702 12 10.9313472481 1.7451150829 22.2335828881
4674 1 15.7654 5.27381 28.2809 12 11.3425508027 1.7747266345 20.1563608429
4675 1 15.8735 3.55682 30.159 12 11.0757526726 1.7747266345 22.4384668984
4676 1 14.0732 5.25544 30.088 12 11.3083457402 1.7701304346 21.7255885369
4677 1 17.5459 3.6016 28.367 12 11.1121231152 1.7630545087 21.0498552286
4678 1 19.367 5.30012 28.2134 12 11.1014555948 1.784063324 19.1467755791
4679 1 19.4679 3.49665 30.044 12 10.9223293119 1.7630545087 21.5937288497
4680 1 17.7935 5.30192 30.0389 12 10.9820978222 1.7747266345 20.4563449775
4681 1 21.1852 3.5099 28.2687 12 10.9899385986 1.7837862094 20.485149961
4682 1 22.9323 5.28551 28.2559 12 11.0210453762 1.784063324 18.8762130423
4683 1 22.9069 3.54791 30.0459 12 10.9730515036 1.761909321 21.2973879145
4684 1 21.1566 5.24641 30.0159 12 10.8427072952 1.7830867028 19.9383307486
4685 1 24.7148 3.45472 28.3048 12 10.9455775324 1.7817933317 20.5808057532
4686 1 26.3362 5.21731 28.2612 12 10.9169269119 1.7381100361 19.2687919438
4687 1 26.5501 3.48473 29.9629 12 11.0311694738 1.7755414029 21.637408884
4688 1 24.7083 5.22344 30.0119 12 11.0519713595 1.7549974205 19.982813044
4689 1 28.3686 3.46458 28.117 12 10.8238570457 1.7300937414 21.1338945699
4690 1 29.9584 5.18562 28.266 12 10.9903402483 1.77563497 20.1953777182
4691 1 29.9955 3.46062 29.9265 12 10.7560615681 1.7681664378 22.4688518175
4692 1 28.17 5.31763 29.8855 12 10.8316948909 1.737518045 20.4633069273
4693 1 31.7716 3.41506 28.3097 12 10.9361953331 1.7642472275 22.1662828517
4694 1 33.5822 5.12881 28.2579 12 11.43086159 1.7639556312 21.4521098419
4695 1 33.4725 3.44264 30.0823 12 10.9839359688 1.764407353 23.6475176779
4696 1 31.7708 5.23263 30.0025 12 11.1395672483 1.7642472275 21.6741040918
4697 1 35.375 3.42429 28.2149 12 10.9756400121 1.764407353 23.4953632403
4698 1 37.0087 5.25784 28.2407 12 10.8250568832 1.7620030525 22.9664599659
4699 1 37.0539 3.54245 29.9189 12 10.951711524 1.7654857024 25.0260862295
4700 1 35.3481 5.27676 30.1214 12 11.0714650692 1.764407353 23.1071105095
4701 1 38.8805 3.48671 28.2123 12 10.9500429341 1.7405579575 25.2200926506
4702 1 40.6003 5.43663 28.3081 12 11.0694225777 1.7673060626 24.9137109713
4703 1 40.5307 3.47542 29.9798 12 10.9523699405 1.7651256854 26.9622007421
4704 1 38.8653 5.28743 29.9476 12 11.252766627 1.7670518731 24.7969769415
4705 1 -0.0558749 7.06194 28.2065 12 10.9731466707 1.7616426406 24.8793832811
4706 1 1.79716 8.75585 28.2582 12 11.0369442488 1.7843677935 25.1552413903
4707 1 1.72052 7.06404 30.009 12 11.1114690635 1.7644625657 26.8403235397
4708 1 42.3805 8.81077 29.9486 12 10.8481202815 1.7608100376 24.6272832738
4709 1 3.52799 7.13125 28.2278 12 11.0495779677 1.7367930261 25.5205252459
4710 1 5.30568 8.71852 28.264 12 10.8217563574 1.7268409253 23.3862454661
4711 1 5.27203 6.97105 30.016 12 11.0365405999 1.7341386908 25.253264024
4712 1 3.51487 8.74834 30.0992 12 10.8086402364 1.7418828171 25.4719922305
4713 1 6.96668 7.02451 28.2152 12 11.0381914546 1.7614041008 23.3128468878
4714 1 8.72567 8.75941 28.1242 12 10.9015929744 1.7615014319 21.0914871984
4715 1 8.71626 7.07447 29.9957 12 11.1952637806 1.764922765 23.127036372
4716 1 6.95616 8.82608 30.0934 12 10.8857787121 1.732809424 23.145201008
4717 1 10.4941 7.06517 28.2282 12 10.9249595303 1.7629250301 21.2585687567
4718 1 12.3184 8.72989 28.2436 12 10.9959252756 1.7546344943 19.1269629698
4719 1 12.2415 7.11232 29.9989 12 11.0051859445 1.7701304346 21.1768693068
4720 1 10.4366 8.88049 29.9277 12 10.8866889209 1.764922765 20.9842575465
4721 1 14.038 7.01606 28.2182 12 11.0468518342 1.7701304346 19.4654584577
4722 1 15.8487 8.69945 28.273 12 11.2143174896 1.7550741327 17.4878884016
4723 1 15.8189 7.08434 30.0761 12 11.1162879053 1.7747266345 19.7098543538
4724 1 14.0741 8.79053 29.9922 12 11.0002408436 1.7701304346 19.1762920135
4725 1 17.6799 7.0092 28.3201 12 11.2581676477 1.7599785187 18.1856571884
4726 1 19.4281 8.89066 28.1676 12 11.0797647209 1.761829041 16.1917160304
4727 1 19.4756 7.06124 29.9842 12 10.937211495 1.761829041 18.6957290537
4728 1 17.6833 8.81015 30.0524 12 11.1968837193 1.7728709723 17.8561553675
4729 1 21.1993 7.10765 28.2372 12 11.0752270475 1.784063324 17.4009199957
4730 1 22.9682 8.8345 28.2731 12 11.0054792967 1.7868864433 15.9521973419
4731 1 22.897 6.91956 30.031 12 11.0898715454 1.7564115402 18.5428534124
4732 1 21.2011 8.82391 30.0405 12 11.2880641556 1.761829041 17.169039393
4733 1 24.6872 7.05124 28.2511 12 10.8912993305 1.7489922531 17.488912343
4734 1 26.4167 8.84345 28.3107 12 11.1388197744 1.767677673 16.3771238764
4735 1 26.4996 7.05574 29.9742 12 11.1005208403 1.7549974205 18.7737624958
4736 1 24.5918 8.71314 29.9686 12 11.2453519827 1.7639434093 17.2268070456
4737 1 28.2712 6.97781 28.2545 12 11.2400827986 1.7682175607 18.2890049369
4738 1 30.0764 8.83258 28.2229 12 11.3053691036 1.7987480157 17.4238932966
4739 1 29.97 6.9298 30.023 12 10.972773538 1.7671827664 19.8586855377
4740 1 28.2557 8.83979 29.9736 12 11.2173844317 1.7832146982 17.8999171428
4741 1 31.7686 7.04174 28.2277 12 11.4672847224 1.7656850987 19.3053652544
4742 1 33.6834 8.9015 28.4343 12 11.215963479 1.7632488624 18.9173315702
4743 1 33.53 7.09243 30.0925 12 11.187074597 1.7639556312 21.0524603874
4744 1 31.7008 8.73127 29.963 12 11.160787096 1.7687458412 19.1287119802
4745 1 35.297 6.95855 28.3335 12 11.1053395844 1.7635285149 20.9503455466
4746 1 37.0791 8.842 28.2676 12 10.9660486231 1.7447177313 20.5951030735
4747 1 37.1341 7.09913 29.9679 12 10.911418542 1.7620030525 22.6860349288
4748 1 35.3582 8.82606 30.0497 12 11.0076195582 1.7617218258 20.7322979028
4749 1 38.7959 7.14334 28.1228 12 10.9459203137 1.7382533567 22.6207241719
4750 1 40.5865 8.73603 28.3141 12 10.8622091848 1.7568391768 22.7298898237
4751 1 40.5315 7.08275 30.0596 12 11.0475754293 1.7616053314 24.5837053105
4752 1 38.7541 8.86132 30.0427 12 10.7199329883 1.7329556625 22.4361470726
4753 1 -0.0647969 10.5134 28.2513 12 10.9060738623 1.7840076556 22.8619382067
4754 1 1.80329 12.3228 28.2543 12 11.2709573455 1.7843731471 23.3497304373
4755 1 1.76493 10.4798 30.0931 12 11.1130440461 1.7843731471 25.0598367954
4756 1 42.3868 12.3792 29.8288 12 11.2039475074 1.795419162 22.7253910684
4757 1 3.55357 10.4401 28.2219 12 11.3656310549 1.7843731471 23.7124980167
4758 1 5.22464 12.374 28.34 12 11.1830207661 1.7709001373 21.6056858332
4759 1 5.30573 10.5307 30.0127 12 10.8422237097 1.7438296421 23.2737561703
4760 1 3.46533 12.3258 30.0612 12 11.1237136845 1.7490385236 23.8130787471
4761 1 6.99552 10.6112 28.2704 12 10.8344131357 1.7709001373 21.1821658347
4762 1 8.7756 12.2987 28.2359 12 11.0585377143 1.7812916619 19.0829960842
4763 1 8.74496 10.4995 29.9738 12 10.9249013565 1.7525123909 21.0452187174
4764 1 7.02721 12.2328 30.0861 12 10.9299291474 1.7709001373 21.3255385484
4765 1 10.6127 10.5233 28.2187 12 10.9964202256 1.7809463539 18.9431818019
4766 1 12.3384 12.393 28.3459 12 11.0321849674 1.7812670486 16.9357073658
4767 1 12.312 10.5143 30.1162 12 11.0672627794 1.7566633512 19.069922017
4768 1 10.528 12.2298 30.0536 12 11.2436489005 1.7812916619 19.0851489868
4769 1 14.0655 10.5174 28.3448 12 11.1197385133 1.7550741327 17.0889692882
4770 1 15.8998 12.244 28.3249 12 10.916811376 1.7786431249 15.1083848329
4771 1 15.7666 10.534 30.0373 12 11.3608918592 1.7797418474 17.3509320392
4772 1 14.0436 12.2701 30.1016 12 11.1266227644 1.7806349509 17.1604318191
4773 1 17.561 10.5731 28.2681 12 10.9680933695 1.7702943805 15.512916139
4774 1 19.3572 12.3255 28.3906 12 10.9085330183 1.7471921657 13.8736398672
4775 1 19.3555 10.5779 30.041 12 11.088188173 1.7702652005 16.2099487615
4776 1 17.5985 12.3422 30.1058 12 11.3960861096 1.7806349509 15.6232871958
4777 1 21.1455 10.6078 28.3034 12 11.0343759425 1.7869042522 14.6989623109
4778 1 22.9921 12.4067 28.3261 12 10.8290803524 1.7869042522 13.3455020468
4779 1 22.879 10.6333 30.0627 12 11.2670584041 1.7866611366 15.8234795165
4780 1 21.1326 12.3389 30.0758 12 10.9446253322 1.7615133241 14.8107535608
4781 1 24.7181 10.5816 28.2684 12 11.0083229704 1.7869042522 14.7332797391
4782 1 26.5099 12.3139 28.3398 12 10.7136504812 1.7487673912 13.9253669332
4783 1 26.4915 10.5146 30.0646 12 11.0802960535 1.7831572026 16.3344915027
4784 1 24.7252 12.3819 29.9775 12 10.8254678194 1.774831088 14.7453016513
4785 1 28.2563 10.6639 28.196 12 11.0623684758 1.7984713454 15.4917455953
4786 1 30.0511 12.4341 28.2458 12 11.0501262798 1.7989282988 14.8841195499
4787 1 30.0512 10.5499 30.0826 12 11.4156119894 1.7989282988 17.3389714792
4788 1 28.1892 12.4041 29.9759 12 11.2990212432 1.7885438106 15.4415564248
4789 1 31.8817 10.6078 28.3154 12 11.3096992127 1.7989282988 16.913009185
4790 1 33.5964 12.3829 28.3269 12 11.0525375333 1.7704178373 16.5773290757
4791 1 33.6636 10.7075 30.0732 12 11.1225464407 1.7617218258 18.7297833752
4792 1 31.7201 12.3828 30.0497 12 11.1029950631 1.7701446188 16.7437059465
4793 1 35.3903 10.6901 28.3362 12 10.886352745 1.7578945526 18.5360397933
4794 1 37.038 12.4172 28.2359 12 10.6997293401 1.7415523984 18.3147414608
4795 1 37.1664 10.7091 29.9739 12 11.0968622497 1.7675727128 20.4011752457
4796 1 35.3463 12.5694 30.0889 12 10.9672517498 1.7593710531 18.4553956402
4797 1 38.8254 10.5931 28.1916 12 10.8821577105 1.7329556625 20.4372165372
4798 1 40.639 12.3825 28.2259 12 10.9622008971 1.7525460322 20.658585936
4799 1 40.4956 10.5916 29.9123 12 11.0268232687 1.7525460322 22.3941013069
4800 1 38.8082 12.4301 29.9109 12 11.0661617998 1.7634692169 20.3596348722
4801 1 0.0329227 14.1829 28.2138 12 10.941445965 1.7951984923 21.1679944254
4802 1 1.71801 15.9098 28.2888 12 11.1429854684 1.7688115432 21.9163166656
4803 1 1.81528 14.153 29.9555 12 11.0219935526 1.795419162 23.434082199
4804 1 42.3492 15.956 29.9732 12 11.0970067619 1.795419162 21.3714176677
4805 1 3.53201 14.1604 28.2329 12 10.9356753726 1.7737013444 22.1475075685
4806 1 5.42893 15.9889 28.251 12 11.1346725742 1.7737013444 20.0317573112
4807 1 5.27128 14.1305 29.9463 12 11.2362860189 1.7607533428 21.7014746285
4808 1 3.6124 15.8601 30.0642 12 11.1053201653 1.7729256352 22.4811774642
4809 1 7.13291 14.1462 28.2716 12 11.2166134366 1.7709001373 19.3957148731
4810 1 8.85918 16.0036 28.2382 12 10.6840114534 1.7600994087 17.3961373689
4811 1 8.85484 14.0078 30.0466 12 10.9812302694 1.7566608711 19.2590531708
4812 1 7.24771 15.9101 29.9772 12 10.9759682307 1.7607533428 19.6069613052
4813 1 10.5552 14.1065 28.1858 12 11.1757970391 1.7812916619 16.9998159265
4814 1 12.3273 15.938 28.4036 12 10.8666288144 1.7413941905 15.0958125124
4815 1 12.3567 14.0378 30.0882 12 11.2916368107 1.7566608711 17.0638914187
4816 1 10.5261 15.8359 30.0196 12 10.9392386308 1.7566608711 17.3218871104
4817 1 14.139 14.1322 28.2872 12 10.7228025798 1.7537074456 14.8958820188
4818 1 15.913 15.8874 28.3587 12 11.0800920703 1.7797723464 13.0692755396
4819 1 15.7648 14.1364 30.0266 12 11.4475888231 1.7806349509 15.2775242901
4820 1 14.0938 15.9701 30.0225 12 11.1720430144 1.7379797039 15.1213637083
4821 1 17.7393 14.0433 28.338 12 11.0590696934 1.7797723464 13.2927584066
4822 1 19.4678 15.8326 28.2964 12 10.9701222185 1.7797723464 11.7424467478
4823 1 19.4809 14.1797 30.1258 12 10.872182386 1.748615907 14.0886147887
4824 1 17.7453 15.9071 30.0705 12 11.2465336521 1.7786193156 13.6276474776
4825 1 21.2576 14.1536 28.3204 12 10.7629231709 1.7598642038 12.3157304322
4826 1 23.043 15.8244 28.3273 12 11.0620683227 1.7912989347 11.3124617997
4827 1 22.9695 14.0331 29.9794 12 10.943506441 1.7917904564 13.6549702782
4828 1 21.2147 15.8532 30.0489 12 10.967257394 1.7917904564 12.9044097041
4829 1 24.7736 14.0775 28.1903 12 10.837102548 1.774831088 12.3270623624
4830 1 26.5021 15.9124 28.3069 12 11.1150738635 1.7505929059 11.5995328958
4831 1 26.5134 14.1065 30.0328 12 10.9885439027 1.7748236742 14.0340907869
4832 1 24.7917 15.9274 30.071 12 11.2404787611 1.7917904564 12.8371409438
4833 1 28.2293 14.1317 28.1858 12 10.8119161296 1.7493226837 13.0611055178
4834 1 30.0078 15.8697 28.2182 12 11.0318939319 1.7524332596 12.6960443547
4835 1 29.9661 14.2398 29.9566 12 11.0944914214 1.7701446188 14.8396844883
4836 1 28.2144 15.9179 30.0986 12 11.2363204762 1.7570863008 13.4405890433
4837 1 31.7915 14.0454 28.3033 12 10.8837492519 1.7554081947 14.6551655429
4838 1 33.5263 15.8975 28.3416 12 10.9029659571 1.7494947166 14.5934465119
4839 1 33.5724 14.2161 30.0879 12 10.959214401 1.7554081947 16.6423315999
4840 1 31.7773 15.9172 29.983 12 10.7934703624 1.7554081947 14.7874744994
4841 1 35.4628 14.1478 28.2642 12 10.9603576984 1.7521209576 16.4736688741
4842 1 37.1468 15.916 28.2122 12 11.0797345905 1.7674855408 16.6325187461
4843 1 37.1358 14.2678 30.0437 12 10.9195978875 1.7674855408 18.5367634016
4844 1 35.3494 15.9592 30.0719 12 11.0856040412 1.7674855408 16.7988928426
4845 1 38.8284 14.1743 28.218 12 10.8646139645 1.7488344468 18.5324652963
4846 1 40.6392 15.8317 28.3541 12 10.9012597931 1.7497766786 19.2166223766
4847 1 40.6487 14.0837 30.119 12 11.0650790828 1.7948105791 20.919982116
4848 1 38.9011 15.9165 30.0449 12 11.1257708206 1.767377981 18.9669085482
4849 1 42.3463 17.7142 28.3702 12 11.0174376657 1.7464278643 19.9729807461
4850 1 1.72411 19.3847 28.3594 12 10.9948156174 1.763373631 21.1183404626
4851 1 1.81044 17.679 30.145 12 11.2698404569 1.7627589678 22.4689313501
4852 1 0.0794048 19.5348 29.9871 12 10.9879786138 1.7598861599 20.6372184653
4853 1 3.49471 17.6918 28.3654 12 11.1652074265 1.7737013444 21.2409422346
4854 1 5.35721 19.3575 28.3302 12 10.9982974726 1.7665836676 19.3523240348
4855 1 5.4531 17.6346 30.0889 12 11.1892081981 1.7702673856 20.5491455075
4856 1 3.66086 19.4935 30.0763 12 11.2893940623 1.7723073588 21.65053179
4857 1 7.23088 17.7283 28.2291 12 10.5788642223 1.7197612511 18.0994440828
4858 1 8.79072 19.4815 28.2287 12 11.1956405056 1.7779367494 16.4163287033
4859 1 8.87587 17.6083 30.0593 12 10.6511253468 1.7446921882 17.8863743061
4860 1 7.08277 19.3921 30.0585 12 10.8609992112 1.7446921882 18.8368521459
4861 1 10.6438 17.6414 28.2701 12 10.934216929 1.7779367494 15.5029981168
4862 1 12.406 19.4542 28.2487 12 10.7851914947 1.7773970855 13.6804397212
4863 1 12.2903 17.6838 30.0732 12 10.9167106453 1.7380706565 15.5257146004
4864 1 10.5617 19.4512 30.0953 12 11.0232503225 1.7769612521 16.2203716176
4865 1 14.1082 17.6464 28.1797 12 10.823000575 1.7610039927 13.0974031392
4866 1 15.9227 19.4019 28.2271 12 11.2088008903 1.7838696176 11.4705999117
4867 1 16.0651 17.6403 30.1154 12 11.2714094202 1.7838696176 13.5239680502
4868 1 14.0651 19.2634 29.9409 12 11.4157037262 1.7838696176 13.883964601
4869 1 17.6838 17.649 28.1977 12 11.2770689989 1.7793838086 11.3023882603
4870 1 19.3446 19.4676 28.2358 12 11.1845389719 1.7673506289 10.0485559747
4871 1 19.4724 17.7858 30.0971 12 11.3756064297 1.764712261 12.318283605
4872 1 17.7182 19.453 30.0369 12 11.2742210586 1.7798857137 12.1830388608
4873 1 21.2037 17.6337 28.4105 12 11.2916055651 1.7673506289 10.6390945563
4874 1 23.0056 19.4041 28.2676 12 11.2553079336 1.7677105121 9.69034023
4875 1 23.0765 17.6961 30.0669 12 11.1492980872 1.7903180455 12.0118068704
4876 1 21.3339 19.4731 30.1141 12 11.1797077655 1.7673506289 11.4731261731
4877 1 24.9008 17.7505 28.1991 12 10.8735273266 1.7493662328 10.3070388591
4878 1 26.6244 19.4745 28.2431 12 10.8897640697 1.7816144082 9.8801376385
4879 1 26.362 17.7701 30.09 12 10.86379428 1.7571751015 12.1406527033
4880 1 24.7856 19.4766 30.0258 12 11.0381445149 1.8094740537 11.3045549017
4881 1 28.2568 17.6216 28.3039 12 11.315287272 1.7571751015 11.1653491651
4882 1 30.0579 19.4557 28.3211 12 11.1702152681 1.750445332 11.2619026226
4883 1 30.0689 17.7256 30.0679 12 11.1761873401 1.7570864359 13.2782774465
4884 1 28.2526 19.4642 30.0685 12 10.8640796379 1.7571751015 12.0046277889
4885 1 31.8959 17.6479 28.3046 12 10.9127930947 1.7524332596 12.8934521626
4886 1 33.7086 19.4302 28.3849 12 10.7603988071 1.7359970396 13.4280383782
4887 1 33.6433 17.5755 30.1379 12 10.6345008589 1.7359970396 15.2623100125
4888 1 31.9424 19.4323 29.9675 12 11.080841684 1.7787920466 13.5958856485
4889 1 35.3651 17.712 28.3376 12 10.9045081986 1.7579359416 14.8967959911
4890 1 37.157 19.4441 28.387 12 10.7250069823 1.7577643191 15.6262389183
4891 1 37.1288 17.7965 30.1046 12 10.7639606992 1.7674855408 17.2322649109
4892 1 35.3674 19.3844 30.1607 12 10.617949989 1.7410749394 15.7870265302
4893 1 38.8759 17.6938 28.3913 12 11.1171016937 1.7579359416 17.3128901902
4894 1 40.633 19.5673 28.3206 12 11.0254650934 1.7464278643 18.1665391909
4895 1 40.6577 17.7893 30.1302 12 10.892288196 1.7442938919 19.6737780915
4896 1 38.8702 19.4263 30.0819 12 10.7384578492 1.7409372784 17.9896447369
4897 1 0.0947123 21.2443 28.2975 12 10.9995496998 1.76052181 19.4814588045
4898 1 1.75172 22.973 28.3413 12 10.9016639783 1.7518945619 20.8286083545
4899 1 1.918 21.2321 30.1993 12 11.0109633757 1.763373631 22.0461214637
4900 1 0.0171138 23.0102 30.0694 12 10.8807034604 1.7467378978 20.2628163367
4901 1 3.49383 21.2875 28.4257 12 11.0817844016 1.7669741145 20.7948718675
4902 1 5.31687 22.9808 28.3426 12 10.9109114447 1.7669741145 19.0889943982
4903 1 5.38157 21.1929 30.1454 12 10.8992883886 1.7669741145 20.0327277022
4904 1 3.66899 22.9741 30.1508 12 10.7065477595 1.7339462741 21.417312422
4905 1 7.06232 21.223 28.3932 12 11.5550794243 1.801738371 17.680574171
4906 1 8.92873 23.0078 28.295 12 11.3058229174 1.7790174186 15.9877739837
4907 1 8.83915 21.2211 30.2017 12 11.2920239222 1.7790174186 17.2933703531
4908 1 7.12835 23.1501 30.1323 12 10.9828366069 1.7790174186 18.5222643089
4909 1 10.5795 21.1907 28.4052 12 10.9850097798 1.7779367494 14.8252422756
4910 1 12.355 22.9056 28.338 12 10.7452076209 1.7301918021 13.3461148095
4911 1 12.4299 21.0732 30.1047 12 10.9731015555 1.7742947509 14.6756018646
4912 1 10.6785 22.9836 30.0888 12 11.1479474841 1.7790174186 15.7678852779
4913 1 14.1591 21.1508 28.2125 12 10.7394745337 1.7335307284 12.1248370012
4914 1 15.7388 22.9854 28.2504 12 10.9668730567 1.7530669277 11.0584965555
4915 1 15.8644 21.1905 30.0346 12 11.3185767226 1.7838696176 12.6123429203
4916 1 14.0771 22.8192 30.127 12 10.9587459837 1.7530669277 13.5507869086
4917 1 17.6176 21.2442 28.3241 12 11.0051689571 1.7517460172 10.2968157351
4918 1 19.4396 22.8783 28.369 12 11.0666599016 1.7573503842 9.5569680963
4919 1 19.4011 21.2135 30.0705 12 11.1853600317 1.7652199253 11.3333380583
4920 1 17.6282 22.9527 30.1088 12 10.9444430687 1.7527778969 11.7953195682
4921 1 21.2432 21.2076 28.2158 12 11.3484270786 1.7676528132 9.2245493097
4922 1 23.0029 22.936 28.3523 12 11.2415920521 1.7677105121 9.1415083572
4923 1 22.9604 21.2649 30.1394 12 11.2163296966 1.8101817283 11.0490043597
4924 1 21.1405 22.9812 30.1551 12 11.1228697632 1.7652199253 11.0153833167
4925 1 24.7794 21.2445 28.2616 12 11.2361442368 1.8101801492 9.1762869622
4926 1 26.4997 23.0261 28.4353 12 11.0672289399 1.7818128764 9.4657817355
4927 1 26.5717 21.1516 30.0033 12 11.1443388067 1.8101817283 11.1305879206
4928 1 24.8198 23.1091 30.1305 12 10.988929338 1.8101817283 10.9132423392
4929 1 28.3491 21.3215 28.1972 12 11.2778199113 1.7818128764 9.9448611488
4930 1 30.0609 22.9304 28.2726 12 11.232735345 1.7654844492 10.5840311855
4931 1 30.0604 21.1679 30.1215 12 11.1110605177 1.7792563618 12.4235059867
4932 1 28.2813 23.0089 30.0791 12 10.9641209256 1.7588825246 11.5479044413
4933 1 31.8451 21.1348 28.3178 12 11.0822170542 1.7795480372 11.8581153826
4934 1 33.5431 22.9144 28.3145 12 11.1608823384 1.7589246396 12.4857251718
4935 1 33.6232 21.2357 30.1135 12 11.0632872491 1.7795480372 14.2725494952
4936 1 31.8171 23.0288 30.0839 12 11.0551381763 1.7795480372 12.9756375187
4937 1 35.3068 21.1385 28.2995 12 10.9903447372 1.7831881565 13.9693260014
4938 1 37.045 22.8981 28.3013 12 11.1010314309 1.7589246396 14.9231712989
4939 1 37.0294 21.1884 29.9958 12 10.9108354686 1.7576884971 16.3301672249
4940 1 35.3541 22.996 30.1288 12 11.2460566919 1.7865703498 15.003324708
4941 1 38.8312 21.2012 28.3387 12 10.8245743304 1.7428462114 16.535587766
4942 1 40.7055 22.9808 28.3815 12 10.8438422531 1.7375211936 17.8835464962
4943 1 40.636 21.2666 30.1267 12 10.9820944858 1.7442938919 19.0348778623
4944 1 38.8141 22.9771 30.0452 12 10.8790320512 1.7587346224 17.3741029063
4945 1 42.3952 24.8128 28.3153 12 11.0752959171 1.7568957732 19.2072938256
4946 1 1.86685 26.5029 28.298 12 11.0157989611 1.7528411585 20.9386116097
4947 1 1.80937 24.6875 30.0713 12 11.0533276781 1.7518945619 21.6907422256
4948 1 0.0739801 26.5256 30.0198 12 10.9695925665 1.7767331784 20.2708436079
4949 1 3.53733 24.717 28.4002 12 10.8714378074 1.7508554219 20.7754670612
4950 1 5.2634 26.4316 28.3087 12 10.9546807624 1.7609420503 19.4450998925
4951 1 5.24417 24.5993 30.1372 12 10.4557209892 1.7360936173 20.1476080527
4952 1 3.5074 26.5466 30.104 12 10.8924721432 1.7425878623 21.8442073313
4953 1 6.95243 24.6806 28.3276 12 10.9978833392 1.7638943391 17.7563487354
4954 1 8.8486 26.4481 28.3316 12 11.1916637279 1.7638943391 16.4677837178
4955 1 8.88084 24.7842 30.0749 12 11.1310444631 1.7786026093 17.2087697446
4956 1 6.95343 26.4781 29.9041 12 10.9916221128 1.7638943391 18.8768915187
4957 1 10.5822 24.7718 28.2263 12 10.8708470389 1.748248958 14.7400619096
4958 1 12.429 26.5672 28.3566 12 10.8208913751 1.7615960465 13.8098888762
4959 1 12.3628 24.6399 29.9577 12 10.7444731201 1.7514730769 14.6082113184
4960 1 10.7582 26.4109 30.013 12 10.8775294252 1.7500977607 16.0533541523
4961 1 14.0944 24.8067 28.3701 12 10.8218350994 1.7492263732 12.317557157
4962 1 15.9374 26.5005 28.3389 12 11.1777971982 1.7605962805 11.6023512077
4963 1 15.8826 24.6936 30.0633 12 10.7331900888 1.7530669277 12.6487272836
4964 1 14.0888 26.4578 30.0842 12 10.7439519134 1.7559631889 13.9781170895
4965 1 17.6144 24.5784 28.3043 12 11.0275281325 1.7577089833 10.2947267681
4966 1 19.4157 26.4298 28.1832 12 11.275321339 1.785856103 9.872164813
4967 1 19.3955 24.7421 29.9806 12 11.0233321488 1.7654289022 11.2722251328
4968 1 17.5932 26.3587 29.9506 12 11.2848674775 1.8231846022 12.1464372438
4969 1 21.1451 24.7065 28.3248 12 11.332227933 1.7862522537 9.2724771589
4970 1 22.9934 26.3836 28.3089 12 11.2864714935 1.7862522537 9.1700642554
4971 1 22.9516 24.7368 30.1566 12 11.1177800048 1.7734513581 10.8902028556
4972 1 21.1599 26.5212 30.0404 12 11.3794490153 1.7862522537 11.1228669224
4973 1 24.7017 24.664 28.1935 12 11.2259424239 1.7565643181 8.9970239241
4974 1 26.4328 26.524 28.3243 12 11.2325707757 1.7565643181 9.4810306496
4975 1 26.523 24.7628 30.1564 12 10.9142737462 1.7506455971 11.2584632987
4976 1 24.707 26.5838 30.1269 12 11.2583365117 1.774936812 11.0508567054
4977 1 28.209 24.6512 28.2531 12 11.0816872441 1.7654844492 9.792993634
4978 1 29.9328 26.4575 28.3622 12 10.8098369714 1.7654844492 10.5951664725
4979 1 29.9947 24.7649 30.0709 12 10.8373812325 1.7654711257 12.0806993194
4980 1 28.1967 26.513 30.0559 12 11.0846821389 1.7529955812 11.5768118348
4981 1 31.7375 24.7509 28.2739 12 10.8836825953 1.7654844492 11.2456028053
4982 1 33.461 26.5974 28.204 12 11.3119860448 1.7655085817 12.3251216184
4983 1 33.4384 24.6906 30.003 12 11.4336381336 1.7865703498 13.6261883693
4984 1 31.6316 26.4908 30.0848 12 10.9467555399 1.7645311872 12.8696528494
4985 1 35.3104 24.8182 28.3109 12 11.2370839063 1.7865703498 13.5228365296
4986 1 37.0897 26.6102 28.3554 12 11.2703526278 1.7751915541 14.9706505709
4987 1 37.0759 24.7472 29.966 12 11.0894431626 1.7837024823 15.9421389667
4988 1 35.3166 26.5647 30.0841 12 11.2593240906 1.7864924052 14.9314508298
4989 1 38.877 24.6575 28.2724 12 11.0587544585 1.769134558 16.2246083833
4990 1 40.617 26.4546 28.3128 12 11.0812323254 1.7866250443 17.7586682379
4991 1 40.6601 24.6998 29.9904 12 10.7337478354 1.7689256299 18.6788732033
4992 1 38.9717 26.5047 30.058 12 10.8140113678 1.7691232207 17.4816139717
4993 1 0.00580702 28.1626 28.2959 12 10.986843983 1.7858984295 19.5194099049
4994 1 1.73795 30.0046 28.2808 12 11.0765871321 1.7892302141 21.3832456419
4995 1 1.73857 28.366 30.0633 12 11.164264701 1.7528411585 21.9113928413
4996 1 42.3715 30.036 29.9025 12 10.7888578116 1.7568347663 20.6872888122
4997 1 3.5992 28.2642 28.2896 12 11.0204318371 1.7608477471 21.1891973092
4998 1 5.30553 29.9597 28.2606 12 11.0853505876 1.7621613706 20.1693920177
4999 1 5.29223 28.302 30.0358 12 10.829138245 1.7592133179 20.7015821267
5000 1 3.59769 30.0252 30.0749 12 11.0182727962 1.7527755999 22.5303744297
5001 1 7.11479 28.2391 28.3205 12 11.1534421397 1.7617343075 18.3005282456
5002 1 8.84148 30.1016 28.2267 12 10.9979423261 1.7500898043 17.4947693862
5003 1 8.8664 28.2305 30.0902 12 11.2945909377 1.7424309172 17.9427554558
5004 1 7.09872 30.1084 30.0099 12 11.2761743703 1.7555095583 19.8195086918
5005 1 10.5863 28.3369 28.3377 12 11.0857462173 1.7513071817 15.6680848074
5006 1 12.3854 30.081 28.3236 12 11.0454943816 1.7681026202 15.1127468709
5007 1 12.3558 28.3633 29.9886 12 10.8194825672 1.7434158067 15.5326488623
5008 1 10.5627 30.1054 29.9915 12 11.2256633884 1.7575994657 17.3646872108
5009 1 14.1314 28.2293 28.2849 12 10.9300139397 1.7603922791 13.2078984282
5010 1 15.8528 29.9502 28.3034 12 10.8452851731 1.7471203794 12.8312737464
5011 1 15.8322 28.2533 30.1011 12 10.9163904563 1.8231846022 13.6083368433
5012 1 14.0848 30.0984 30.0223 12 10.9983025572 1.7599794132 15.1590490689
5013 1 17.6255 28.3181 28.2654 12 11.2917076297 1.8231532765 11.2390273692
5014 1 19.34 30.0707 28.3439 12 11.3169917442 1.7901021467 11.2261123536
5015 1 19.4733 28.2587 30.0064 12 11.5890590399 1.8231846022 11.9269113063
5016 1 17.5503 30.0334 30.0412 12 10.9354795187 1.8210979397 13.3075737837
5017 1 21.2638 28.2817 28.211 12 11.1596779726 1.786094088 9.8076549633
5018 1 22.9064 30.0363 28.181 12 10.939150676 1.7583076509 10.1447146962
5019 1 23.0368 28.3651 29.9718 12 11.1211115675 1.774936812 11.2490033633
5020 1 21.1347 30.0435 29.9879 12 11.0251765675 1.7735896308 12.113419605
5021 1 24.6601 28.2465 28.3112 12 11.1484829198 1.7608686829 9.5474506277
5022 1 26.4958 30.0685 28.2107 12 11.5181001423 1.7608686829 10.1452468429
5023 1 26.4392 28.266 30.1027 12 11.2585417984 1.7567087979 11.4227008608
5024 1 24.6499 30.1075 29.9878 12 11.1052369266 1.7608686829 11.6770586057
5025 1 28.0938 28.3061 28.3068 12 11.1711470942 1.759245766 10.103313833
5026 1 29.9166 30.0639 28.2792 12 11.1480106401 1.7623117944 11.2864224165
5027 1 29.877 28.3552 30.1448 12 11.0143260145 1.759245766 12.4420123733
5028 1 28.2588 30.1584 30.1384 12 10.9476677362 1.7564654376 12.326725353
5029 1 31.6064 28.1982 28.3215 12 11.0652204808 1.759245766 11.6839211248
5030 1 33.4774 29.9166 28.2184 12 11.0825523208 1.7508376292 13.1866421414
5031 1 33.5286 28.22 30.058 12 10.8284987606 1.7708517402 14.1322728938
5032 1 31.8693 29.9626 30.0016 12 10.9079268854 1.74578153 13.6135512774
5033 1 35.3032 28.3387 28.27 12 11.5007114004 1.7752348762 13.935528389
5034 1 37.1574 30.1374 28.2399 12 11.2079334609 1.7752348762 15.7606857085
5035 1 37.198 28.3527 30.0535 12 10.9681444623 1.7737376245 16.469480799
5036 1 35.3167 30.1302 29.9842 12 11.1798527902 1.7737376245 15.6674608112
5037 1 38.8273 28.3025 28.3531 12 11.2593700015 1.7866250443 16.5963216178
5038 1 40.5969 30.0466 28.1951 12 11.0560848979 1.7920194443 18.358908445
5039 1 40.7414 28.3908 30.0286 12 10.6926024 1.7866250443 19.0994958371
5040 1 38.8852 30.1367 30.0025 12 10.7680905787 1.7576668251 18.0932436923
5041 1 42.3936 31.7369 28.2012 12 10.9218432261 1.7643026996 20.3539669615
5042 1 1.79409 33.5683 28.1625 12 10.9691420362 1.7392228717 22.5077508642
5043 1 1.73934 31.8183 29.966 12 11.4606438337 1.7615917901 22.6764450005
5044 1 42.4009 33.6085 29.9915 12 11.0892520026 1.7573713169 21.9278274839
5045 1 3.52204 31.7337 28.2645 12 11.3053186089 1.7687565144 22.1365055586
5046 1 5.28748 33.5817 28.3124 12 11.0910846084 1.7609955458 21.485719592
5047 1 5.3074 31.8085 30.015 12 11.3377226025 1.7621613706 21.7240953904
5048 1 3.56676 33.7068 29.956 12 11.1046097151 1.7572899071 23.6832912645
5049 1 7.04656 31.8916 28.2465 12 10.9700914755 1.7619513966 19.461299546
5050 1 8.90371 33.6019 28.317 12 10.8762454909 1.767826298 18.9483987083
5051 1 8.75739 31.809 30.0101 12 11.0228121823 1.7579112467 19.2880419881
5052 1 7.14646 33.5658 30.0087 12 11.0954434627 1.7738722401 21.0988547327
5053 1 10.6249 31.8957 28.1931 12 10.6463774854 1.764205044 16.9621761107
5054 1 12.2859 33.6367 28.2646 12 10.6612822275 1.7672445859 16.7705992607
5055 1 12.2643 31.9443 30.045 12 11.1197453797 1.7681026202 17.0461867676
5056 1 10.5637 33.6585 29.941 12 10.8251991194 1.7579112467 18.8601433819
5057 1 14.2229 31.9633 28.3298 12 11.2366091477 1.7681026202 14.7308015571
5058 1 15.866 33.716 28.1826 12 10.9702645013 1.7600702657 14.6570458741
5059 1 15.8558 31.7728 29.9606 12 10.9233457174 1.7600702657 14.8038204457
5060 1 14.0432 33.6352 30.1759 12 10.8826343689 1.7600702657 16.8442421119
5061 1 17.5578 31.8078 28.302 12 11.0432638084 1.7909530593 12.810550841
5062 1 19.3964 33.693 28.1735 12 10.8272476476 1.7914913103 13.0374786322
5063 1 19.3303 31.789 30.1026 12 11.1137158143 1.7914913103 13.4876507859
5064 1 17.6577 33.5192 29.8796 12 11.1392712016 1.7584609811 14.8520074721
5065 1 21.1791 31.787 28.1938 12 11.1991969815 1.7914913103 11.3684542199
5066 1 22.8814 33.6506 28.2399 12 11.0075495741 1.7432222658 12.0406287108
5067 1 22.8985 31.8419 29.9647 12 11.0089783588 1.7730317527 12.4931649255
5068 1 21.1552 33.5879 29.8969 12 11.0555855573 1.7735896308 13.6781519785
5069 1 24.6538 31.8258 28.2484 12 11.1661259151 1.7709512966 10.8412528553
5070 1 26.3277 33.6169 28.2502 12 11.0264962424 1.7547614976 11.9682473506
5071 1 26.4991 31.92 29.9681 12 11.1064048906 1.7553331459 12.4992385691
5072 1 24.6623 33.7279 29.9466 12 11.0252238941 1.7334903785 13.3012479146
5073 1 28.2818 31.9186 28.2773 12 11.036051775 1.7503476966 11.4516959603
5074 1 30.0219 33.5366 28.3368 12 11.3279380712 1.7820661895 12.9812622769
5075 1 30.1089 31.781 30.0108 12 11.081395441 1.7732159708 13.4465888219
5076 1 28.2566 33.6401 30.0326 12 10.9059225893 1.7377708804 13.7602833275
5077 1 31.8316 31.6661 28.1541 12 10.7517441308 1.7558548195 12.7779832064
5078 1 33.5479 33.4917 28.2186 12 10.989978764 1.7667372169 14.6572728713
5079 1 33.5177 31.7681 30.0313 12 10.9207334607 1.728560634 15.1279261842
5080 1 31.8628 33.4997 29.9737 12 11.0016045653 1.7579599957 14.9608578116
5081 1 35.2632 31.7214 28.1326 12 10.8624264796 1.7253848107 14.948054877
5082 1 37.1356 33.4567 28.179 12 10.7828171233 1.7254939822 17.0045503831
5083 1 37.0589 31.8123 29.9633 12 11.0290053391 1.7446235174 17.3638873068
5084 1 35.3116 33.4669 30.0697 12 10.9979349047 1.7422200581 16.911476911
5085 1 38.951 31.8396 28.1589 12 10.9523716925 1.7446235174 17.664167949
5086 1 40.6508 33.5798 28.2507 12 11.0310208111 1.7480039268 19.722420329
5087 1 40.6629 31.7925 29.9382 12 10.8445495588 1.7573713169 19.9034990149
5088 1 38.878 33.6183 29.9463 12 10.942814921 1.7661103528 19.3143437028
5089 1 42.4166 35.2843 28.223 12 10.8255705811 1.741032897 21.8281425669
5090 1 1.71755 36.9524 28.2829 12 11.1446977682 1.7980070526 23.9449835219
5091 1 1.66411 35.2737 30.0281 12 10.9465358359 1.7365749425 23.937835227
5092 1 -0.0230556 37.1075 30.0551 12 11.2377839807 1.7359296895 23.4802739913
5093 1 3.59012 35.3256 28.1776 12 10.7699986419 1.7503735255 23.4739724622
5094 1 5.35253 36.9669 28.3125 12 10.9597369346 1.7600092314 23.0850764495
5095 1 5.31333 35.3785 30.0977 12 10.7929776213 1.7605717393 23.2211217773
5096 1 3.44289 37.0726 30.0884 12 11.212659078 1.7592359631 25.3455582876
5097 1 7.14126 35.425 28.2898 12 10.9315707977 1.7591058174 21.0273071294
5098 1 8.85046 37.1831 28.2517 12 11.1566863603 1.7679470611 20.8831083928
5099 1 8.81252 35.3674 30.0535 12 11.05558783 1.7945068636 20.8982133229
5100 1 7.02745 37.1175 30.0882 12 11.1078071357 1.7605717393 22.9787919334
5101 1 10.5681 35.4569 28.2627 12 10.6751494188 1.7313546605 18.8422084384
5102 1 12.3752 37.0671 28.3698 12 10.739530667 1.7583998111 18.6803034581
5103 1 12.3147 35.2364 29.9405 12 10.5413826671 1.7433547999 18.5667398301
5104 1 10.6991 37.0694 30.1079 12 10.8742118286 1.7507981234 20.6711935343
5105 1 14.0886 35.392 28.3307 12 10.902484612 1.7445777639 16.7021205751
5106 1 15.9581 37.1448 28.4511 12 10.854634093 1.734575201 16.9107036899
5107 1 15.8757 35.2851 30.0441 12 11.1579289311 1.7600702657 16.7794413332
5108 1 14.0865 37.1177 30.1248 12 11.0593029569 1.7847575269 18.8199087666
5109 1 17.6619 35.393 28.2173 12 10.8439162488 1.7560331511 14.864454839
5110 1 19.4147 37.1421 28.1825 12 10.698452204 1.7688594514 15.2843411826
5111 1 19.4817 35.3363 29.9759 12 11.0406217072 1.7620094055 15.2573962282
5112 1 17.812 37.1221 29.9918 12 10.9017866862 1.7603108376 17.0171250407
5113 1 21.1501 35.4276 28.2012 12 10.8267348039 1.7684751661 13.5505718287
5114 1 22.9445 37.0817 28.1735 12 11.0489744134 1.7688594514 14.3696267538
5115 1 22.8998 35.4692 30.0246 12 11.0232017355 1.733859868 14.5450028325
5116 1 21.1266 37.199 30.0146 12 11.0456483219 1.7688594514 16.0111640496
5117 1 24.7295 35.4936 28.2066 12 11.1287865531 1.7547614976 13.0974002966
5118 1 26.5054 37.1364 28.2615 12 11.2976880208 1.7610093471 14.4460487953
5119 1 26.5734 35.3554 30.0339 12 10.9468231308 1.7547614976 14.4607292809
5120 1 24.7855 37.1025 30.1199 12 11.4104485533 1.7536262059 15.5883544405
5121 1 28.2304 35.3285 28.2 12 11.3466456779 1.7710669349 13.4185359773
5122 1 29.9735 37.0837 28.2902 12 10.9852281309 1.7708457078 15.2265230137
5123 1 29.9734 35.4216 30.1513 12 11.0706837691 1.7710669349 15.3778554012
5124 1 28.245 37.2441 30.0002 12 10.6849099611 1.736509675 15.9763880247
5125 1 31.7589 35.3741 28.2876 12 11.3899961302 1.7710669349 14.8017338127
5126 1 33.6323 37.0524 28.3203 12 10.8877873782 1.7663757643 16.8192388403
5127 1 33.5543 35.2272 30.0518 12 10.7515591586 1.7667372169 16.7483235593
5128 1 31.87 37.127 29.9915 12 10.7537811515 1.7267996328 17.0443929181
5129 1 35.3918 35.2743 28.3361 12 11.2267631662 1.7667372169 16.7883412051
5130 1 37.0879 37.0835 28.3077 12 11.3549684222 1.7837147145 18.8740997739
5131 1 37.0915 35.16 30.0522 12 11.1152585018 1.7837147145 18.8060247028
5132 1 35.33 36.9477 30.1802 12 10.959287218 1.7819114169 18.7516756515
5133 1 38.7922 35.2255 28.3231 12 11.2680757554 1.7672303006 19.0850246327
5134 1 40.6157 37.0546 28.2141 12 11.1729013239 1.793452366 21.2819629448
5135 1 40.6654 35.4132 30.0635 12 10.9936272665 1.7431093659 21.4259426754
5136 1 38.9373 37.1319 30.0516 12 11.1623851672 1.7837147145 21.0157052268
5137 1 42.346 38.7024 28.2154 12 11.3453928281 1.7980070526 23.4123034693
5138 1 1.53695 40.557 28.2965 12 11.4671941493 1.7979844817 25.6289046368
5139 1 1.7699 38.8965 30.0808 12 11.140313145 1.7980070526 25.6983389009
5140 1 42.2779 40.5003 30.0455 12 10.9365578436 1.7469501733 25.1421074067
5141 1 3.50657 38.8113 28.2441 12 11.2264834182 1.7980070526 25.3672816239
5142 1 5.18058 40.6568 28.2803 12 10.9042312323 1.756423196 25.3581157686
5143 1 5.09039 38.8885 30.0818 12 11.1019092735 1.7605717393 25.2019342185
5144 1 3.51971 40.6062 29.9967 12 10.6921663403 1.7497819649 27.1864656587
5145 1 7.00684 38.8175 28.3396 12 11.4169405337 1.7837750042 23.0702551684
5146 1 8.64853 40.7119 28.1507 12 11.109007531 1.7680606228 23.0531938847
5147 1 8.85005 39.0167 29.9458 12 11.3409947204 1.7680606228 22.8146481892
5148 1 7.06108 40.6479 30.0463 12 10.9971766085 1.7510487429 24.9392088187
5149 1 10.6863 38.8797 28.1784 12 11.1801364143 1.7680606228 20.6632064551
5150 1 12.4254 40.6199 28.2516 12 11.0079724476 1.760657903 20.8284021885
5151 1 12.3314 38.9542 29.9164 12 10.9744067777 1.784489569 20.7154663158
5152 1 10.6186 40.7175 30.0575 12 11.2305267524 1.7653324925 22.8218278091
5153 1 14.2313 38.8377 28.2222 12 11.0128148399 1.7847575269 18.6898394319
5154 1 15.8 40.6531 28.222 12 11.1383244662 1.7655117363 19.2744601377
5155 1 15.9188 38.838 30.0712 12 10.9955385902 1.7847575269 19.0158788392
5156 1 14.1124 40.6822 30.0129 12 10.9899865355 1.7847575269 21.0158221244
5157 1 17.6324 38.8638 28.1942 12 10.9354750101 1.7643549794 17.2235850757
5158 1 19.4227 40.6574 28.2696 12 11.0262011382 1.7605256639 18.0137661651
5159 1 19.359 38.8902 29.986 12 10.7928109015 1.7502387383 17.6629046083
5160 1 17.6394 40.6808 29.9644 12 11.1118057015 1.765518045 19.5423539022
5161 1 21.0975 38.9684 28.1678 12 10.8202746625 1.7688594514 16.1663435199
5162 1 22.8354 40.7401 28.2816 12 10.9824255203 1.7520404124 17.3776875344
5163 1 22.8301 38.8212 30.0054 12 11.4387093283 1.7573105276 16.8775945325
5164 1 21.1701 40.6879 29.9845 12 11.1147313568 1.757360912 18.557249743
5165 1 24.6393 38.8471 28.2021 12 11.2762939741 1.7536262059 15.6566783622
5166 1 26.5059 40.5537 28.2085 12 10.7871029817 1.7489243735 17.1524547012
5167 1 26.5211 39.0105 30.0029 12 10.9852918486 1.7490061307 16.9886094684
5168 1 24.6681 40.5881 29.9536 12 11.4226952559 1.7742355306 18.0988801425
5169 1 28.2339 38.8293 28.1295 12 10.8264528243 1.7422380893 15.9697105666
5170 1 30.0733 40.4911 28.1924 12 11.0968664743 1.7740606188 17.8025513343
5171 1 29.9943 38.7718 29.9654 12 10.9708203941 1.7745183957 17.4832133277
5172 1 28.1619 40.5774 29.9741 12 10.8697557757 1.7739749991 18.409664148
5173 1 31.8633 38.7386 28.1964 12 11.1512203857 1.7743145831 17.0876923491
5174 1 33.7189 40.5877 28.2023 12 11.1950840231 1.7743145831 19.2753863365
5175 1 33.6411 38.8253 30.0451 12 10.82927236 1.7594423279 18.9701883955
5176 1 31.8601 40.5654 29.9729 12 11.313917928 1.7831553817 19.4165256284
5177 1 35.2546 38.7997 28.2822 12 10.7854370522 1.7484388013 18.8266835876
5178 1 37.0026 40.5742 28.25 12 11.0644315097 1.7583786817 21.0074758439
5179 1 37.0953 38.7586 30.0017 12 10.9197396581 1.7809720753 20.7402670285
5180 1 35.3866 40.5131 29.9529 12 10.747933792 1.7593060235 20.9095954901
5181 1 38.9231 38.7615 28.0843 12 10.9172374129 1.7667129387 20.9743063517
5182 1 40.656 40.6358 28.2729 12 11.0687285231 1.7449166716 23.3635444982
5183 1 40.5367 38.8445 30.0557 12 10.8368328068 1.7441643461 23.0197226584
5184 1 38.74 40.3982 29.9312 12 11.0757842658 1.7449166716 22.7074327818
5185 1 42.2773 42.3604 31.7925 12 11.2331998899 1.7469501733 27.0275408788
5186 1 1.73188 1.72057 31.8067 12 10.9547744231 1.7647123544 29.3506512519
5187 1 1.71447 42.3592 33.4837 12 11.1011472308 1.7644838895 29.0755830027
5188 1 42.3264 1.74626 33.5632 12 11.1518714504 1.7790244796 29.0304867401
5189 1 3.40521 42.3996 31.6819 12 10.9072433235 1.7513968288 29.1262011849
5190 1 5.14613 1.69075 31.6851 12 11.1433158122 1.7524716417 29.027438207
5191 1 5.21078 42.334 33.567 12 11.225662184 1.7789322708 28.9159456186
5192 1 3.54029 1.68831 33.4816 12 11.0651851415 1.7637417618 30.9371731799
5193 1 6.97879 42.37 31.7849 12 11.2264828512 1.7789322708 26.884830481
5194 1 8.74734 1.79845 31.7804 12 10.9303155008 1.7771424774 27.0302829853
5195 1 8.76503 -0.0160355 33.5689 12 11.3830029817 1.7789322708 26.873690864
5196 1 6.96931 1.66693 33.4421 12 11.3599745903 1.7788828116 28.8222333103
5197 1 10.5359 0.0515596 31.8345 12 10.8928510938 1.7771165127 24.9739059915
5198 1 12.2859 1.69854 31.8361 12 11.0361102102 1.7617311262 25.2491241735
5199 1 12.2629 42.3975 33.4951 12 10.8873057596 1.761213621 25.0764984093
5200 1 10.502 1.70108 33.5327 12 10.946954892 1.7554260184 27.0411607966
5201 1 14.0651 -0.00241643 31.8059 12 10.8737497807 1.750482456 23.2857591426
5202 1 15.9252 1.73566 31.8202 12 10.968161555 1.7686061748 23.807915834
5203 1 15.8663 -0.0067699 33.5373 12 10.6764831952 1.7559664555 23.5640848311
5204 1 14.1742 1.67341 33.5444 12 11.0753907366 1.7498882462 25.4162226977
5205 1 17.5738 42.3451 31.812 12 10.9592959106 1.7527946672 21.8592160483
5206 1 19.4262 1.63832 31.8192 12 10.9991269703 1.7617066634 22.6569094515
5207 1 19.4332 42.3369 33.5036 12 11.1375019833 1.7695708037 22.3684302265
5208 1 17.663 1.6814 33.5725 12 10.9714288043 1.7596662105 24.1876516529
5209 1 21.2779 -0.00367741 31.8259 12 10.8547861971 1.754115989 20.9992488514
5210 1 22.9398 1.70445 31.8565 12 10.7171481531 1.761909321 22.1622392443
5211 1 23.0692 -0.00244161 33.5482 12 10.8384919974 1.7580637465 21.8801810318
5212 1 21.2877 1.67639 33.5298 12 10.8297257151 1.7617066634 23.3438452599
5213 1 24.7253 42.3918 31.7401 12 11.1035472372 1.774148191 20.6184428126
5214 1 26.4375 1.68461 31.7537 12 11.2063500167 1.7793154968 22.0671344388
5215 1 26.4601 0.0347554 33.5381 12 11.0105059497 1.7430057124 21.8938311662
5216 1 24.6343 1.71291 33.5744 12 10.8693533113 1.7453023045 23.1334868094
5217 1 28.2014 42.2746 31.719 12 11.2156761068 1.7674295521 20.7913948867
5218 1 29.9428 1.64168 31.6387 12 11.1945665589 1.7685149169 22.4985432243
5219 1 30.0322 0.0524426 33.5301 12 11.1781552533 1.7744625163 22.4548601947
5220 1 28.2668 1.72172 33.5474 12 11.1759707881 1.7577100742 23.379374704
5221 1 31.7988 42.3558 31.6453 12 11.0719853794 1.7831632997 21.6877982088
5222 1 33.5323 1.62642 31.6989 12 11.0240856176 1.751409449 23.5984602324
5223 1 33.5016 42.4147 33.5476 12 10.9933434649 1.7583657364 23.4677446662
5224 1 31.8281 1.6408 33.521 12 11.0147658954 1.7649736309 24.0877498186
5225 1 35.3589 -0.0228581 31.6849 12 10.8618844145 1.7511037981 23.1409993197
5226 1 37.0627 1.73392 31.6978 12 10.9329447344 1.7651952115 25.1942840279
5227 1 37.128 -0.0309102 33.4166 12 11.1186011832 1.7653608198 24.9532193552
5228 1 35.2888 1.71817 33.5145 12 11.0444417131 1.751409449 25.3642441455
5229 1 38.9131 42.3741 31.6757 12 11.2129833282 1.7675619414 24.9350196546
5230 1 40.7225 1.7847 31.7352 12 10.8148215791 1.7675741107 27.213965607
5231 1 40.5758 0.00945136 33.4875 12 10.8964314755 1.7320495181 26.8857021812
5232 1 38.9051 1.74094 33.4912 12 10.9527587862 1.7675741107 27.0618256547
5233 1 0.0277688 3.46652 31.6775 12 11.1023707284 1.7837116873 28.8564581702
5234 1 1.75885 5.21535 31.8055 12 11.1769852544 1.777574845 28.8234372154
5235 1 1.71346 3.4844 33.5359 12 11.389530669 1.7837116873 30.7376270254
5236 1 42.3792 5.39347 33.5848 12 11.2544872129 1.7837116873 28.564705781
5237 1 3.48541 3.41786 31.7392 12 10.8689575406 1.7569659682 29.3883860645
5238 1 5.2572 5.24791 31.8153 12 11.1008953936 1.7592540403 27.2156422641
5239 1 5.2252 3.46517 33.5591 12 11.1333910273 1.7569659682 29.2685576511
5240 1 3.46171 5.25412 33.5493 12 10.8740673753 1.7568983666 29.2121194993
5241 1 6.98684 3.51319 31.768 12 11.1594881798 1.7615204723 27.3219287916
5242 1 8.84226 5.2808 31.8024 12 11.0849736671 1.7615204723 25.1431239683
5243 1 8.76549 3.40088 33.6189 12 10.9854706545 1.7534043235 27.3902883266
5244 1 7.05425 5.16701 33.6373 12 11.1490973997 1.7615204723 27.2207835748
5245 1 10.5513 3.50863 31.7385 12 11.0797826041 1.7607810058 25.4215644922
5246 1 12.2773 5.25357 31.6978 12 11.3547557395 1.7653181932 23.3746675104
5247 1 12.3527 3.56055 33.4849 12 11.4369700477 1.7617311262 25.5503637241
5248 1 10.4776 5.24725 33.514 12 10.9493689129 1.7511414624 25.2738382467
5249 1 14.1306 3.49257 31.8454 12 11.2969199478 1.7653181932 23.9787634622
5250 1 15.9338 5.39319 31.8088 12 10.8585582821 1.7746928813 21.9411096614
5251 1 15.9399 3.60011 33.5227 12 11.1852999882 1.7603233478 24.3030419578
5252 1 14.2511 5.42423 33.5969 12 11.137310799 1.7653181932 23.600609303
5253 1 17.6808 3.58842 31.8836 12 11.2354101052 1.7630545087 22.8865764858
5254 1 19.4983 5.30707 31.8274 12 11.053018133 1.7600193842 21.1806512886
5255 1 19.4526 3.42976 33.6055 12 11.3885712204 1.7624159489 23.7395369483
5256 1 17.6365 5.34791 33.6041 12 11.3589804011 1.7624159489 22.6585550826
5257 1 21.1093 3.48034 31.8461 12 11.0033286297 1.761909321 22.4387215283
5258 1 22.8823 5.22606 31.7894 12 11.228712165 1.761909321 20.9645375522
5259 1 22.9239 3.50736 33.5923 12 11.0910192932 1.7618364676 23.4385070674
5260 1 21.137 5.38832 33.6312 12 11.2417058842 1.7624159489 22.1181149691
5261 1 24.6863 3.44598 31.7465 12 11.2378243151 1.7793154968 22.4270096963
5262 1 26.5085 5.23868 31.7828 12 11.160562087 1.7793154968 21.2804816856
5263 1 26.4733 3.49043 33.6281 12 10.9801576067 1.7793154968 23.7636577556
5264 1 24.8563 5.12675 33.6412 12 10.9631146129 1.7512807985 22.3526449967
5265 1 28.2337 3.40259 31.6423 12 11.0775551291 1.7792938406 22.9769129346
5266 1 29.9349 5.18119 31.68 12 11.4004324842 1.7835359635 22.1209429927
5267 1 30.0854 3.38436 33.5048 12 11.048552965 1.7753209028 24.5884587527
5268 1 28.255 5.04031 33.5393 12 10.9653776983 1.7835359635 22.9151160072
5269 1 31.7677 3.37202 31.7544 12 10.9030364767 1.7686238438 24.0886984909
5270 1 33.4967 5.2423 31.6807 12 10.8877404973 1.7334793841 23.2804433442
5271 1 33.5118 3.48898 33.4823 12 10.9725282636 1.7402270037 25.6251197728
5272 1 31.7989 5.15275 33.4123 12 11.2351691507 1.7835359635 23.8214201967
5273 1 35.36 3.52332 31.7637 12 11.0767323915 1.76546316 25.2683755714
5274 1 37.1244 5.33058 31.7844 12 11.1515305709 1.7670518731 24.8653992696
5275 1 37.1263 3.42161 33.4422 12 10.8128770408 1.7654857024 27.0920035077
5276 1 35.2571 5.23268 33.5671 12 10.8923634186 1.7387986024 25.1450807037
5277 1 38.8874 3.50152 31.7456 12 11.0961058756 1.7675741107 26.9362830822
5278 1 40.642 5.21198 31.7884 12 11.3715397947 1.777574845 26.7493690431
5279 1 40.5942 3.46856 33.5689 12 11.3654129549 1.7837116873 28.8351937666
5280 1 38.8499 5.32231 33.4755 12 10.9549220669 1.7670074335 26.7060932226
5281 1 42.2965 7.09282 31.7249 12 11.0396188216 1.777574845 26.484606357
5282 1 1.634 8.76678 31.7611 12 10.7421391265 1.7639453329 26.6934054263
5283 1 1.6881 6.97063 33.5319 12 10.7473171394 1.7644625657 28.6531114326
5284 1 42.3634 8.683 33.4554 12 10.8615448519 1.7738480116 26.597431724
5285 1 3.52607 7.04972 31.814 12 10.9505160072 1.7635958823 27.2389280826
5286 1 5.3222 8.64972 31.7916 12 10.6809757717 1.7631964374 25.198959223
5287 1 5.2226 6.9774 33.6216 12 10.8009322404 1.7631565884 27.2161465715
5288 1 3.45363 8.73629 33.5381 12 10.9083244552 1.7631964374 27.3537072978
5289 1 6.98909 7.02743 31.9072 12 10.9530046553 1.7615204723 25.1753608433
5290 1 8.67969 8.84651 31.7762 12 10.8967346912 1.7503112631 23.0734037401
5291 1 8.72819 7.04773 33.4953 12 10.8000618331 1.7503112631 25.0831388659
5292 1 6.999 8.80776 33.6547 12 10.8990784724 1.7627401934 25.1776869453
5293 1 10.4843 7.02499 31.8426 12 10.9683833405 1.764922765 23.1690103824
5294 1 12.1342 8.59695 31.7501 12 11.1861823871 1.7705441933 21.2982030308
5295 1 12.3186 6.90683 33.5389 12 11.0486202164 1.7705441933 23.3790376798
5296 1 10.5365 8.76386 33.6639 12 10.8139303105 1.7705441933 23.2377889894
5297 1 14.0398 7.04547 31.7665 12 11.2504555186 1.76989706 21.434480874
5298 1 15.9334 8.83175 31.8579 12 11.3686851026 1.7593213729 19.5979311103
5299 1 15.9263 7.11477 33.5879 12 11.0415455881 1.7414647052 21.9001929769
5300 1 14.0507 8.75676 33.7512 12 11.2941132818 1.7705441933 21.6649641215
5301 1 17.6223 6.99205 31.7179 12 10.9743198862 1.7512429807 20.2470997442
5302 1 19.318 8.8009 31.7779 12 11.1277645321 1.7590801867 18.6514994297
5303 1 19.4718 7.12171 33.6172 12 11.2105291384 1.7534811311 21.0787516221
5304 1 17.7559 8.81311 33.6309 12 10.8938624276 1.7419036065 20.331618047
5305 1 21.1585 7.04364 31.7773 12 11.1730963712 1.7564115402 19.6492616745
5306 1 23.0677 8.76019 31.8463 12 11.4733849266 1.784633866 18.4083668546
5307 1 23.0857 6.99577 33.5329 12 11.3738678236 1.7723223736 20.8468610696
5308 1 21.294 8.82427 33.6468 12 11.0066645129 1.7531554311 19.7630829147
5309 1 24.7821 6.92422 31.8887 12 11.2933213117 1.7550752813 19.8478148368
5310 1 26.4065 8.79201 31.846 12 11.0996179233 1.7556055587 18.7392353848
5311 1 26.6059 6.96272 33.5837 12 10.8225354601 1.7495823841 21.2522878317
5312 1 24.8638 8.80841 33.6276 12 11.2652949065 1.7756041529 19.8134734274
5313 1 28.1512 7.06487 31.7523 12 11.0346877829 1.7671827664 20.2760504238
5314 1 29.9056 8.71807 31.7299 12 10.9406511526 1.7675202439 19.62850927
5315 1 29.9121 7.05777 33.5528 12 11.2421889716 1.7835359635 21.9779364872
5316 1 28.2753 8.83325 33.5086 12 10.7505080899 1.7547901197 20.3275739352
5317 1 31.6956 7.03457 31.8325 12 11.1665642139 1.7686218059 21.4721690627
5318 1 33.5537 8.84007 31.7026 12 11.2840921029 1.7753003367 20.872138553
5319 1 33.5962 6.96747 33.4304 12 11.1977019574 1.7753003367 23.2020965557
5320 1 31.7121 8.79118 33.4954 12 11.4348069755 1.7753003367 21.3155548327
5321 1 35.385 7.06063 31.7728 12 11.0066904593 1.7280840541 22.9122744575
5322 1 36.9994 8.89668 31.7853 12 11.0834755256 1.795496944 22.5233236485
5323 1 37.0585 7.07519 33.592 12 10.9235219599 1.7953066562 24.7950792183
5324 1 35.2569 8.83982 33.5584 12 11.1146946296 1.795496944 22.7998259588
5325 1 38.7636 7.17306 31.7794 12 10.8334597116 1.7670518731 24.4821114374
5326 1 40.5249 8.84082 31.7499 12 10.7988962777 1.7465639112 24.4203596074
5327 1 40.4848 7.02157 33.5189 12 10.862973207 1.7462015691 26.4972867237
5328 1 38.8448 8.87346 33.4353 12 10.9226335625 1.7954965836 24.5001749575
5329 1 42.3142 10.5592 31.6252 12 11.1723797036 1.7730171305 24.5378578653
5330 1 1.69874 12.3579 31.6121 12 11.3573994002 1.767585914 24.9510303886
5331 1 1.74691 10.5059 33.3255 12 11.3614022422 1.7738480116 26.7762049703
5332 1 42.3404 12.2266 33.5531 12 11.2838418891 1.7738480116 24.9403411713
5333 1 3.65136 10.4828 31.6979 12 10.9980756913 1.7490385236 25.3542046137
5334 1 5.35605 12.3651 31.8027 12 10.9964023294 1.7490385236 23.4021698482
5335 1 5.22403 10.5246 33.5051 12 10.8709134061 1.7631964374 25.3146152055
5336 1 3.48109 12.2377 33.5454 12 11.3470765992 1.767585914 25.7770188741
5337 1 6.97093 10.5645 31.8883 12 10.7660165854 1.7312003533 23.2243494345
5338 1 8.763 12.2863 31.8333 12 10.9819919754 1.7779072092 21.1888645227
5339 1 8.82253 10.4587 33.5244 12 11.1615119574 1.7779072092 23.1314754326
5340 1 6.9522 12.4071 33.5494 12 11.1655936087 1.8010614017 23.3290938732
5341 1 10.5181 10.4813 31.7673 12 11.0385085939 1.7552142412 21.0912077669
5342 1 12.342 12.2816 31.8531 12 11.0892612918 1.7566633512 19.1620216632
5343 1 12.3167 10.5358 33.6256 12 11.1393229334 1.7695037259 21.3413415421
5344 1 10.5944 12.3361 33.509 12 11.3878385074 1.7774041766 21.1607290057
5345 1 14.0124 10.4935 31.9169 12 11.4796367868 1.7593213729 19.4018674013
5346 1 15.794 12.3328 31.9658 12 11.5323856965 1.7806349509 17.6760572024
5347 1 15.9143 10.4605 33.6368 12 11.105815972 1.7596648061 19.9119355805
5348 1 14.1776 12.2716 33.6843 12 10.6994274651 1.7372356923 19.6176215082
5349 1 17.6696 10.6027 31.9471 12 11.1304519655 1.7728709723 18.0040624894
5350 1 19.4852 12.2555 31.8543 12 11.2663032918 1.7421425366 16.531054344
5351 1 19.4296 10.4587 33.7206 12 10.9580724997 1.7539032558 19.0575931808
5352 1 17.8087 12.3104 33.6109 12 11.438910833 1.7764281781 18.3283416026
5353 1 21.2089 10.4698 31.9125 12 11.3237654887 1.784633866 17.3928886779
5354 1 22.9606 12.3406 31.8574 12 11.0709219583 1.7845206873 16.1559682801
5355 1 22.931 10.5591 33.6421 12 11.0671378185 1.784633866 18.6400087817
5356 1 21.2379 12.3441 33.6586 12 11.3493830015 1.759043061 17.7360597528
5357 1 24.7701 10.6602 31.7763 12 11.2606637071 1.784633866 17.2124201929
5358 1 26.3918 12.4523 31.744 12 11.0520491766 1.7885438106 16.3469330642
5359 1 26.5382 10.5564 33.5314 12 11.1185536554 1.7744863192 18.9095854594
5360 1 24.6728 12.3491 33.5287 12 11.0253437941 1.7756041529 17.6462758679
5361 1 28.1859 10.6224 31.7709 12 11.1304450088 1.7880633688 17.8885374004
5362 1 29.964 12.4034 31.8727 12 11.2289314816 1.7885438106 17.3135769293
5363 1 29.9732 10.579 33.4945 12 11.1342893354 1.7686673906 19.6148557189
5364 1 28.2367 12.3775 33.5694 12 10.9639892594 1.7881217616 18.1531515286
5365 1 31.8156 10.5722 31.7521 12 11.3477814083 1.7687458412 19.0392047261
5366 1 33.3832 12.5199 31.7869 12 11.026683416 1.7457981688 18.5887004911
5367 1 33.5391 10.6027 33.5146 12 11.1783128046 1.7736703815 20.9245385491
5368 1 31.7331 12.4509 33.548 12 10.9695667131 1.7686673906 19.1592634659
5369 1 35.2815 10.8201 31.8987 12 11.4120932347 1.7675727128 20.584121569
5370 1 37.0499 12.4941 31.822 12 11.0878134541 1.7673773878 20.5456609866
5371 1 37.1515 10.6767 33.4996 12 11.044614448 1.795496944 22.6683887243
5372 1 35.3364 12.4196 33.6959 12 10.8661560594 1.7457981688 20.9393409011
5373 1 38.8296 10.6954 31.7165 12 10.8942428336 1.7658825606 22.3907652662
5374 1 40.6226 12.3478 31.7579 12 11.0857390974 1.7620058691 22.6611320741
5375 1 40.6387 10.5185 33.4955 12 10.9496287421 1.7738480116 24.6457653289
5376 1 38.9236 12.3046 33.5868 12 10.9447305263 1.7604327666 22.8690975593
5377 1 42.3499 14.103 31.804 12 11.2045894721 1.795419162 23.104214812
5378 1 1.78398 15.7639 31.748 12 11.3570561672 1.755751865 23.8669697002
5379 1 1.62395 14.0294 33.5455 12 11.2870316468 1.767585914 25.396873819
5380 1 42.3596 15.9026 33.5704 12 10.9414969583 1.7655955115 23.637006521
5381 1 3.54113 14.0874 31.8007 12 11.2769184329 1.7624888301 24.0500510505
5382 1 5.40492 15.8136 31.8087 12 11.3426760345 1.7702673856 22.062084322
5383 1 5.29387 14.1043 33.6627 12 11.2051106852 1.7623743163 23.8275712626
5384 1 3.49519 15.8384 33.5705 12 11.1532319786 1.7618250761 24.520627741
5385 1 7.0874 14.0687 31.7391 12 10.9755429084 1.7493834957 21.4341914187
5386 1 8.79551 15.7597 31.8895 12 10.8074714498 1.7378699084 19.6999239731
5387 1 8.77572 14.0411 33.58 12 11.2800810126 1.7767279751 21.4902360723
5388 1 7.00482 15.9042 33.6566 12 11.1540401405 1.7655121227 22.018570586
5389 1 10.4921 14.1004 31.7628 12 10.9958782653 1.7560050608 19.2116294673
5390 1 12.2424 15.9035 31.8619 12 11.1233069996 1.7560050608 17.4867510182
5391 1 12.3872 14.0647 33.5856 12 11.1437434519 1.7562384106 19.4589598992
5392 1 10.6033 15.829 33.5738 12 10.9369565611 1.7526186549 19.6992895344
5393 1 14.0217 14.1427 31.8226 12 11.1141554073 1.7656712662 17.3389255366
5394 1 15.8465 15.9295 31.7349 12 11.0715663223 1.7683562779 15.6341496123
5395 1 15.7355 14.1123 33.556 12 11.241544725 1.7764281781 17.9829180123
5396 1 14.1854 15.936 33.5486 12 10.7041685076 1.7517669923 17.7927068056
5397 1 17.6213 14.07 31.8256 12 11.6061474653 1.7764281781 16.0240609835
5398 1 19.4973 16.0049 31.7237 12 10.9796538266 1.7655373151 14.5275334701
5399 1 19.5233 14.241 33.4609 12 11.394513765 1.7727975721 16.8679811377
5400 1 17.7664 15.885 33.4901 12 11.4809150052 1.7756370312 16.4931099914
5401 1 21.2016 14.1107 31.6953 12 11.1225607267 1.7655373151 15.1663325975
5402 1 23.0151 15.948 31.9182 12 11.2537724239 1.7917904564 14.4409699426
5403 1 23.0232 14.1167 33.5874 12 11.4084585247 1.7665118336 16.7516135816
5404 1 21.2355 15.9618 33.6207 12 11.130122923 1.7655374703 16.0293859896
5405 1 24.656 14.1385 31.8178 12 10.9409392144 1.773927058 15.2490803171
5406 1 26.3937 15.9423 31.8572 12 10.9782098665 1.7517436374 14.5168294116
5407 1 26.4766 14.1009 33.5468 12 11.1464792249 1.7737831405 16.8889956381
5408 1 24.8021 15.9267 33.6359 12 11.1723182468 1.7677356425 15.9669254512
5409 1 28.2843 14.2561 31.8335 12 11.1541477883 1.7885438106 15.7332814
5410 1 30.0314 16.0021 31.7793 12 11.0709512 1.7743088487 15.3735965335
5411 1 29.9311 14.1357 33.5562 12 10.8610835885 1.7743088487 17.6578675691
5412 1 28.2074 16.0153 33.5916 12 10.9725646164 1.773950723 16.3524015291
5413 1 31.6869 14.2061 31.8045 12 10.919377214 1.7554081947 16.9198038577
5414 1 33.4672 15.8799 31.7752 12 10.7100636916 1.7405960503 17.0009724428
5415 1 33.5739 14.1786 33.5271 12 10.9472368076 1.7422477279 19.090392606
5416 1 31.7808 15.9745 33.5656 12 11.0065180462 1.7743088487 17.544984174
5417 1 35.3382 14.1698 31.9014 12 10.9168372161 1.737009113 18.8646948388
5418 1 37.1654 15.9337 31.8126 12 11.0204649103 1.7648739997 19.1079976573
5419 1 37.1342 14.071 33.678 12 10.9890298901 1.7442113049 21.1649827778
5420 1 35.3906 15.8861 33.5159 12 11.2641017743 1.7805288217 19.3540107069
5421 1 38.9391 14.2072 31.8568 12 11.0630982924 1.7634692169 20.8597223425
5422 1 40.7725 15.9899 31.8016 12 10.86814231 1.7461659767 21.3533825455
5423 1 40.5987 14.1378 33.5419 12 10.9937419773 1.7471058942 23.0580170854
5424 1 38.8683 15.891 33.4765 12 11.0214512767 1.7570598144 21.3411161783
5425 1 -6.90211e-04 17.7838 31.7861 12 11.1437454131 1.7655955115 22.0270378
5426 1 1.80683 19.4464 31.8729 12 11.1694299385 1.7723073588 23.1398165816
5427 1 1.78784 17.5097 33.6459 12 11.2769164065 1.7655955115 24.594222391
5428 1 -0.0571596 19.4282 33.5693 12 11.0641455266 1.7655955115 22.8558051739
5429 1 3.58631 17.5255 31.8402 12 11.3894776205 1.7723073588 23.026159865
5430 1 5.34082 19.4162 31.8443 12 11.0612500634 1.7723073588 21.2585905043
5431 1 5.32434 17.6554 33.6242 12 11.078191547 1.7702673856 22.7153881871
5432 1 3.50133 19.3405 33.6407 12 10.9284038232 1.7722220779 23.7926108818
5433 1 7.19195 17.6265 31.8075 12 11.0449211098 1.7702673856 20.2008535002
5434 1 8.88037 19.3958 31.8413 12 10.6731700982 1.7429184124 18.6050946558
5435 1 8.94692 17.6092 33.562 12 11.0886631156 1.7655121227 20.1627042629
5436 1 7.16065 19.4223 33.5421 12 11.0493056096 1.7794324133 20.9815790748
5437 1 10.4881 17.6045 31.7238 12 10.7416576386 1.7348658693 17.8615370856
5438 1 12.2934 19.3703 31.842 12 10.9855479806 1.7461500402 16.3711427578
5439 1 12.2776 17.6464 33.6196 12 10.8695815954 1.7367886505 18.208057662
5440 1 10.5995 19.4558 33.6141 12 10.7500291624 1.7384961292 18.7458857293
5441 1 14.0801 17.519 31.9443 12 10.9853875715 1.765580029 15.9774034391
5442 1 15.7583 19.452 31.7995 12 11.377395184 1.7835968438 14.5149979173
5443 1 15.9268 17.5965 33.6336 12 11.0350902666 1.7664728316 16.5640200843
5444 1 14.0682 19.3187 33.5861 12 10.9547079587 1.7566478567 16.8542595238
5445 1 17.6589 17.7135 31.8935 12 11.0694067396 1.7651469554 14.4088812821
5446 1 19.6424 19.4775 31.8811 12 11.0518166993 1.7519149008 13.3676776558
5447 1 19.491 17.6873 33.6212 12 10.9407401999 1.7487094096 15.5572455155
5448 1 17.7082 19.3743 33.5204 12 10.992795068 1.7576697118 15.3895916749
5449 1 21.4023 17.6451 31.8764 12 10.9196542352 1.7644717767 13.7454745291
5450 1 22.9436 19.4794 31.9034 12 10.7334730197 1.7505567538 13.1354528605
5451 1 22.9382 17.7068 33.7603 12 10.8430753378 1.765037684 15.4317146049
5452 1 21.2689 19.3988 33.6298 12 10.7008804472 1.75157694 14.8825864471
5453 1 24.6572 17.7893 31.8108 12 10.7455026365 1.7498391814 13.5445953536
5454 1 26.534 19.4887 31.797 12 10.5872406179 1.7336484508 13.1838332909
5455 1 26.4245 17.7111 33.4739 12 10.7008926734 1.7497605492 15.2711372252
5456 1 24.7507 19.4183 33.5748 12 10.9371726858 1.7573540406 14.743882274
5457 1 28.1734 17.7458 31.8092 12 10.8589714895 1.7571751015 14.0944027809
5458 1 29.9904 19.3707 31.8227 12 10.7866165008 1.7710184066 14.2326580189
5459 1 30.0104 17.682 33.599 12 10.9001673765 1.7743088487 16.2819273805
5460 1 28.2493 19.475 33.5357 12 10.7331584631 1.7696964092 15.2052648072
5461 1 31.8447 17.7237 31.7643 12 10.913841335 1.7740275583 15.4786150349
5462 1 33.6405 19.4939 31.7982 12 10.9621431233 1.7740275583 15.9948264058
5463 1 33.5652 17.6559 33.5068 12 11.2249892501 1.7468949236 17.7731617244
5464 1 31.7897 19.4625 33.5201 12 11.1184608129 1.7736426913 16.4699337373
5465 1 35.3433 17.6456 31.8447 12 10.7101973725 1.7376202404 17.5077390448
5466 1 37.1227 19.3679 31.8586 12 10.7808268743 1.7576884971 18.1409402035
5467 1 37.1408 17.6947 33.6261 12 11.0369671929 1.7569404724 19.9075296434
5468 1 35.385 19.3528 33.6356 12 10.9354372527 1.7468949236 18.4763802998
5469 1 38.9512 17.7126 31.8372 12 10.8389263591 1.7569404724 19.6642877994
5470 1 40.7422 19.4888 31.8765 12 10.8766239192 1.7433314877 20.5302974298
5471 1 40.6464 17.6281 33.6132 12 10.977987056 1.7634645832 22.0629670839
5472 1 38.8664 19.5244 33.4465 12 11.0401918161 1.7578420315 20.3807267333
5473 1 0.0635743 21.2523 31.802 12 10.9710659897 1.7491243454 21.5156569819
5474 1 1.79579 22.9527 31.9345 12 11.0575985567 1.7467378978 22.7839667597
5475 1 1.75158 21.0433 33.6275 12 10.9326030469 1.7526953146 23.9849034476
5476 1 42.3968 23.0026 33.5578 12 10.9124511592 1.7588830843 22.3589491472
5477 1 3.58671 21.2198 31.9788 12 10.9062930906 1.7674018493 22.5365070261
5478 1 5.36215 22.9354 31.9311 12 10.8082651031 1.7323458671 21.0121939025
5479 1 5.38597 21.0713 33.6222 12 11.0553461403 1.7290184359 22.1343691556
5480 1 3.55104 22.9648 33.5728 12 11.0497426196 1.7869467513 23.4489654779
5481 1 7.03409 21.1894 31.7502 12 10.7417330209 1.7431954457 19.664594766
5482 1 8.81394 22.9506 31.9037 12 11.1747279129 1.778612854 18.3695875585
5483 1 8.78929 21.1544 33.5408 12 10.679937554 1.7208925484 19.63078927
5484 1 7.08998 22.9996 33.6161 12 10.9386655165 1.7415538714 20.7994035262
5485 1 10.6757 21.1122 32.0151 12 10.7772323845 1.7742947509 17.2482076434
5486 1 12.304 22.8344 31.8224 12 10.7672584677 1.7514730769 15.971228851
5487 1 12.363 21.2031 33.7082 12 10.60577178 1.7391301608 17.5483513739
5488 1 10.5665 22.9562 33.6253 12 10.8566567962 1.7472209558 18.4622756227
5489 1 14.0538 21.1412 31.9458 12 10.8821086082 1.7640524742 15.1693105278
5490 1 15.7937 22.9899 31.7919 12 10.8877826601 1.7640524742 14.0853035245
5491 1 15.8312 21.1028 33.6373 12 11.1978337499 1.7606939742 15.8424997327
5492 1 14.0404 22.9383 33.4961 12 10.9336893138 1.7601078322 16.4114348367
5493 1 17.5706 21.1697 31.8838 12 11.2022658803 1.7640524742 13.582034171
5494 1 19.3031 22.9353 31.8576 12 11.0549439732 1.7654289022 12.9755981468
5495 1 19.4621 21.1425 33.5402 12 10.9953681357 1.7604646773 14.6963785604
5496 1 17.5277 22.9418 33.5337 12 11.1535883703 1.7604646773 15.0541257041
5497 1 21.2344 21.2022 31.8185 12 10.7439466788 1.7600611389 12.7757061037
5498 1 22.9593 23.0404 31.8212 12 10.739032385 1.7520523272 12.6050640423
5499 1 23.0453 21.333 33.5985 12 11.211310059 1.7577812115 14.4710726508
5500 1 21.1176 22.9953 33.529 12 11.0899338003 1.7577318958 14.3808399641
5501 1 24.6742 21.2406 31.885 12 11.0237089313 1.8101817283 12.7559852765
5502 1 26.5696 22.9342 31.8147 12 11.0325455447 1.7761402726 12.7875419675
5503 1 26.4168 21.1464 33.5648 12 11.2006494263 1.7767181614 14.5828721378
5504 1 24.7251 23.1171 33.4408 12 11.1499255379 1.7767181614 14.2148379745
5505 1 28.368 21.1337 31.8325 12 10.8664035597 1.7699410689 13.3439355288
5506 1 30.0363 23.0352 31.7867 12 10.6602937156 1.7588937545 13.7579768383
5507 1 30.0439 21.2089 33.5747 12 10.7647611932 1.7670991 15.5298068867
5508 1 28.2629 23.0176 33.5664 12 11.1021038026 1.7766448989 14.8737883338
5509 1 31.6672 21.2556 31.8644 12 11.0641119819 1.7795480372 14.6899654922
5510 1 33.6162 22.9096 31.9105 12 11.1795676622 1.7802425293 15.4480755381
5511 1 33.5784 21.1325 33.5458 12 11.0215580223 1.7468949236 17.0898765968
5512 1 31.7601 23.0189 33.5397 12 10.7775296861 1.7354241501 16.039506725
5513 1 35.4034 21.22 31.9022 12 10.9004125966 1.7576884971 16.708905757
5514 1 37.0973 22.9772 31.8641 12 11.1233782536 1.7547041506 17.4414597196
5515 1 37.1001 21.2076 33.6089 12 10.9622712942 1.7565097488 19.0454663566
5516 1 35.3598 23.0329 33.6132 12 10.8394829467 1.7438796355 17.7871008994
5517 1 38.9038 21.2595 31.7349 12 11.1919697148 1.7576884971 18.827582777
5518 1 40.6872 23.0106 31.7709 12 11.0566468348 1.7692339746 19.9038557936
5519 1 40.7004 21.2311 33.6029 12 11.0979026812 1.7495819103 21.3828788243
5520 1 38.9203 22.9861 33.6625 12 11.1348678024 1.7441771927 19.9820237269
5521 1 -0.0195084 24.8099 31.7051 12 11.1884666996 1.7775031705 21.1115400311
5522 1 1.80497 26.5262 31.8188 12 11.1945471848 1.7775031705 22.7091487265
5523 1 1.73423 24.7326 33.5302 12 10.9898891605 1.7874739256 23.6188935512
5524 1 42.3477 26.5121 33.586 12 11.0061436683 1.7775031705 22.3282585238
5525 1 3.62109 24.7716 31.8154 12 11.0020425398 1.7874739256 22.4360743196
5526 1 5.28725 26.5273 31.7721 12 10.7349381111 1.743363843 21.2926569551
5527 1 5.35777 24.8196 33.6479 12 11.1247637371 1.7872948929 22.1855138266
5528 1 3.53663 26.5575 33.6289 12 11.0111096803 1.7874739256 23.7825677178
5529 1 7.01093 24.8118 31.8628 12 10.9372215564 1.7653303999 19.7787511513
5530 1 8.80084 26.477 31.7921 12 11.1234920559 1.765697486 18.6542486874
5531 1 8.78255 24.7699 33.6688 12 11.2944705594 1.765697486 19.7464517111
5532 1 7.01806 26.5908 33.5211 12 10.9619216628 1.7610712764 21.1159536059
5533 1 10.6204 24.6874 31.851 12 11.2116168554 1.765697486 17.1699211639
5534 1 12.3818 26.4895 31.7763 12 10.8252695239 1.7559631889 16.2947863484
5535 1 12.4629 24.6922 33.544 12 10.9116461292 1.7483373623 17.3732467409
5536 1 10.7531 26.4725 33.5371 12 11.0674825141 1.7445399898 18.6291701176
5537 1 14.1064 24.733 31.7751 12 10.9519260505 1.7550483428 15.0145544237
5538 1 15.9191 26.5473 31.7675 12 10.8703690262 1.7691959674 14.4823849596
5539 1 15.8901 24.8102 33.5282 12 11.0056789188 1.7549662334 15.7406884571
5540 1 14.2159 26.4869 33.5916 12 11.1215429073 1.7559631889 16.804380775
5541 1 17.5329 24.7529 31.8129 12 10.9321856829 1.7683525518 13.5530621363
5542 1 19.4496 26.5293 31.8403 12 11.3852983833 1.7691959674 13.2763222521
5543 1 19.2966 24.6878 33.6057 12 11.1338902222 1.7639337961 14.7921351709
5544 1 17.6946 26.5928 33.5445 12 11.1799953927 1.7663761336 15.4231068391
5545 1 21.0564 24.8052 31.8212 12 10.9701624578 1.7654289022 12.7355199279
5546 1 22.9157 26.5501 31.8498 12 11.3646803816 1.7749117369 12.6964076901
5547 1 22.8343 24.8049 33.6537 12 11.1765793348 1.757976625 14.3886009072
5548 1 21.1228 26.4951 33.514 12 11.1274747798 1.7939066031 14.5135218935
5549 1 24.6869 24.7105 31.8118 12 10.6344596178 1.7507738509 12.5944235308
5550 1 26.5303 26.4894 31.886 12 10.9630972709 1.7661931919 13.006086605
5551 1 26.5892 24.6941 33.5779 12 10.9281996924 1.7767181614 14.6078104293
5552 1 24.7795 26.3709 33.5638 12 11.2706525477 1.7660659078 14.4315018746
5553 1 28.2909 24.7882 31.8537 12 10.6103415829 1.7478032725 13.2970928975
5554 1 30.0217 26.5341 31.876 12 10.9024994696 1.7521939265 13.8758544404
5555 1 30.0107 24.6742 33.5552 12 10.8132056313 1.7574556067 15.3890363571
5556 1 28.3116 26.5384 33.5811 12 10.9512285974 1.7661931919 15.0101363351
5557 1 31.7765 24.7452 31.8365 12 10.7724871618 1.7798852479 14.3997280661
5558 1 33.4725 26.5457 31.7216 12 10.8003337363 1.7795018418 15.1874598162
5559 1 33.5847 24.7888 33.5556 12 10.959036039 1.7802425293 16.744329723
5560 1 31.826 26.551 33.4593 12 10.8411683419 1.7535471904 15.9975590305
5561 1 35.3394 24.8322 31.8765 12 11.274799779 1.7865703498 16.2537045185
5562 1 37.2045 26.4754 31.6577 12 11.0102353555 1.7547041506 17.3350247424
5563 1 37.1379 24.7527 33.5605 12 10.8237311523 1.7546320076 18.680961281
5564 1 35.3552 26.5668 33.5214 12 10.940093027 1.7353396861 17.7002782627
5565 1 38.8795 24.7037 31.7867 12 11.0416605558 1.7703437801 18.5050213928
5566 1 40.6357 26.5937 31.7378 12 10.9250382942 1.775401046 19.8369060379
5567 1 40.5802 24.8271 33.5862 12 11.1587242437 1.7703437801 20.979320347
5568 1 38.8098 26.4356 33.5346 12 11.0111436433 1.7503444016 19.7914542847
5569 1 42.3113 28.3534 31.7452 12 10.9640419313 1.7775031705 21.3478978036
5570 1 1.80231 30.099 31.8088 12 11.1273797608 1.7611296478 23.2415194217
5571 1 1.59338 28.2562 33.4757 12 11.0933264706 1.7422992167 23.7221246842
5572 1 0.0375705 30.1131 33.6102 12 10.8604379973 1.7339199316 22.9856699735
5573 1 3.63266 28.2523 31.828 12 10.9672340696 1.7433937849 22.9921300648
5574 1 5.37141 30.0657 31.8651 12 11.1722883641 1.7621352763 22.1659449723
5575 1 5.33827 28.2499 33.5686 12 10.7134854771 1.7293642887 22.7094270026
5576 1 3.53338 30.0027 33.5497 12 11.0151391768 1.7597418065 24.510028105
5577 1 7.08489 28.2478 31.7561 12 11.0535990527 1.7555095583 20.2841864057
5578 1 8.87431 30.0349 31.8756 12 11.1792630026 1.7555095583 19.6594094252
5579 1 8.89293 28.1882 33.484 12 11.0695755095 1.7445399898 20.1586337347
5580 1 7.21452 30.0077 33.587 12 10.995559977 1.7526222922 21.8866005535
5581 1 10.6438 28.1206 31.7373 12 11.0561009433 1.7509925833 17.767491169
5582 1 12.3528 30.0458 31.775 12 11.3109678061 1.7608691037 17.421279882
5583 1 12.4716 28.2575 33.4673 12 11.1259653465 1.7432053255 18.032905645
5584 1 10.6803 29.9511 33.6133 12 11.2229281506 1.7493153459 19.6994987739
5585 1 14.1858 28.2851 31.7761 12 11.1161129837 1.7608691037 15.8039619096
5586 1 15.8699 30.1436 31.7828 12 11.1699036033 1.7608691037 15.5341760986
5587 1 15.9128 28.3308 33.6855 12 11.0244395208 1.7547375673 16.595278298
5588 1 14.1423 30.1151 33.594 12 11.2165975131 1.7608691037 17.8484172703
5589 1 17.5814 28.3412 31.8987 12 11.3250193747 1.8231846022 14.3354882335
5590 1 19.3668 30.0462 31.7727 12 11.0471963795 1.7612829266 14.1239843741
5591 1 19.4557 28.3868 33.6005 12 11.11590941 1.7609989465 15.2748652715
5592 1 17.6341 30.0055 33.6761 12 11.0904565318 1.7694764948 16.349114348
5593 1 21.2132 28.4532 31.8222 12 10.9853950497 1.766695198 13.2355976865
5594 1 23.0071 29.9969 31.8228 12 10.930819424 1.7460222447 13.4953261517
5595 1 22.886 28.303 33.5885 12 10.8914184484 1.757976625 14.7304823289
5596 1 21.1948 30.1016 33.4668 12 10.7108013387 1.745270784 15.2908252927
5597 1 24.7509 28.3438 31.9129 12 11.1487545985 1.730974863 13.0937404758
5598 1 26.435 30.1479 31.7158 12 11.2070635927 1.7567087979 13.4268217812
5599 1 26.5149 28.2992 33.5065 12 11.3344628667 1.79623299 14.7686601178
5600 1 24.6874 30.16 33.5929 12 11.1370656594 1.7692858144 15.1346645507
5601 1 28.3191 28.3887 31.8578 12 10.8873824286 1.7659997716 13.5184484403
5602 1 30.0523 30.0108 31.7717 12 11.0258851975 1.7740554841 14.3341834346
5603 1 30.0436 28.3058 33.5833 12 11.1118007487 1.7735085502 15.6476839435
5604 1 28.1959 30.1491 33.5533 12 11.1844755448 1.7727421178 15.4678707216
5605 1 31.9038 28.3261 31.7888 12 10.823716744 1.7541008845 14.7806361499
5606 1 33.6874 29.9566 31.8151 12 10.7411930437 1.7471813201 16.0457226671
5607 1 33.5486 28.2325 33.5604 12 10.7539903597 1.7541008845 17.0674658087
5608 1 31.864 30.0729 33.6688 12 11.0494969346 1.7735085502 16.7427105351
5609 1 35.3367 28.2919 31.8097 12 10.8628716383 1.7737376245 16.562243956
5610 1 37.0685 30.0602 31.7386 12 10.97516436 1.7583003849 18.0021201096
5611 1 37.0821 28.2947 33.4581 12 10.8825783756 1.7503444016 18.8845140813
5612 1 35.4356 29.9685 33.5863 12 10.732619506 1.7471813201 18.4252232966
5613 1 38.9656 28.2538 31.6914 12 10.9606805877 1.7583003849 18.8116847721
5614 1 40.6296 30.0979 31.7409 12 10.7793487182 1.7561258908 20.4445505709
5615 1 40.6564 28.262 33.4975 12 11.0373464698 1.749477026 21.2484898629
5616 1 38.8233 30.0425 33.539 12 10.8834588651 1.7583003849 20.4135612667
5617 1 42.4111 31.795 31.8041 12 11.1538223736 1.7615917901 22.2849908999
5618 1 1.78231 33.6284 31.7995 12 11.2669035732 1.7615917901 24.2646464899
5619 1 1.80971 31.7428 33.5883 12 10.969845477 1.7615058226 24.6984467775
5620 1 42.1965 33.4343 33.4852 12 11.0148012999 1.7543243013 23.6992307097
5621 1 3.49715 31.7853 31.7566 12 11.2559963219 1.7621352763 24.0716437444
5622 1 5.30018 33.5836 31.7889 12 11.2891073343 1.7763110284 23.4417899384
5623 1 5.38075 31.7779 33.5956 12 11.2317989746 1.7615562792 23.7802417832
5624 1 3.60627 33.5194 33.509 12 11.0862135014 1.774242931 25.6360012879
5625 1 7.15293 31.7804 31.939 12 11.0714415794 1.7763110284 21.5465062754
5626 1 8.84731 33.5375 31.8054 12 11.245345206 1.7945068636 21.068565298
5627 1 8.81905 31.8874 33.5668 12 10.8101049716 1.7678232614 21.5268271642
5628 1 7.06639 33.7013 33.6628 12 11.0574011755 1.7807407797 23.468885186
5629 1 10.568 31.8298 31.8804 12 11.2526934074 1.7579112467 19.2783782856
5630 1 12.2616 33.7023 31.8343 12 10.9000923309 1.7429166388 18.9837787963
5631 1 12.3569 31.859 33.6188 12 11.2740344472 1.7772856603 19.4178070527
5632 1 10.6108 33.6806 33.4984 12 10.932603548 1.7694352042 21.074078899
5633 1 14.0223 31.9027 31.758 12 11.1379497274 1.7608273831 17.1373797249
5634 1 15.8255 33.6201 31.8167 12 11.0517088001 1.7590477689 17.0788334616
5635 1 15.8119 31.8428 33.5688 12 11.1231379526 1.7688904258 17.6326019591
5636 1 14.0901 33.6601 33.6212 12 11.1352677523 1.7614140618 19.2421311234
5637 1 17.6015 31.9263 31.8097 12 11.1013302574 1.7694764948 15.5203094302
5638 1 19.3874 33.5132 31.8019 12 11.017194823 1.759480476 15.7051280256
5639 1 19.4562 31.8236 33.5274 12 11.0610173698 1.7694764948 16.3497305886
5640 1 17.6516 33.5953 33.5079 12 10.9244600417 1.7664032915 17.6674298612
5641 1 21.2071 31.7688 31.7363 12 11.0497661788 1.7735896308 14.3597630284
5642 1 22.9581 33.5764 31.6964 12 11.0898104892 1.7437369733 14.8150012777
5643 1 22.9136 31.8679 33.5441 12 11.2245148802 1.7728654147 15.73854527
5644 1 21.207 33.539 33.5621 12 10.8808276274 1.7527364406 16.7149078202
5645 1 24.6722 31.9453 31.6765 12 11.2740843049 1.7575736501 13.932891396
5646 1 26.477 33.577 31.8203 12 11.0647360996 1.7503991863 14.8995265912
5647 1 26.4355 31.7809 33.5709 12 10.9683685643 1.7571736025 15.7015041528
5648 1 24.7433 33.6481 33.6849 12 11.2451522134 1.7575736501 16.4805924516
5649 1 28.2969 31.903 31.7225 12 11.2165708593 1.7740554841 14.3853387297
5650 1 30.2089 33.5513 31.787 12 11.3422023443 1.7740554841 15.7200853491
5651 1 29.9954 31.8478 33.6038 12 11.380053582 1.7740554841 16.5071371385
5652 1 28.3106 33.5512 33.6787 12 11.0325506722 1.7585752734 16.7997131287
5653 1 31.9098 31.6545 31.7919 12 11.1350569618 1.7730082847 15.6259338738
5654 1 33.575 33.5895 31.7566 12 10.784975514 1.7329538722 17.1631732347
5655 1 33.5346 31.8361 33.5291 12 10.8266659224 1.7819280753 17.8716192148
5656 1 31.9101 33.5246 33.65 12 11.0638505494 1.7638523711 17.8645783921
5657 1 35.2306 31.7935 31.915 12 10.8798812122 1.7053781078 17.5227621861
5658 1 37.0845 33.4273 31.8009 12 11.0070461355 1.7661103528 19.1614374904
5659 1 37.1382 31.8185 33.4977 12 10.6900570377 1.7535455998 19.8505550843
5660 1 35.2779 33.5201 33.7008 12 10.9472877545 1.7530743849 19.4865192017
5661 1 38.8924 31.7611 31.76 12 10.8842345346 1.7661103528 19.7477409029
5662 1 40.7182 33.5316 31.6668 12 10.7681734111 1.7658671183 21.5953748966
5663 1 40.5854 31.6824 33.5453 12 10.7401755813 1.7680317819 22.0433719579
5664 1 38.9391 33.5001 33.499 12 11.113688385 1.7652887853 21.5308579825
5665 1 42.4115 35.3274 31.9309 12 10.8048544044 1.7500683789 23.6733531744
5666 1 1.70877 37.0371 31.8218 12 11.1199355926 1.7466711433 25.6113320639
5667 1 1.75704 35.3243 33.5464 12 11.118142733 1.774242931 25.8653844948
5668 1 42.3247 37.0976 33.516 12 11.0271385351 1.7668789238 25.2336533263
5669 1 3.49148 35.2521 31.761 12 10.7039167517 1.774242931 25.3648853615
5670 1 5.12412 36.9728 31.8889 12 11.0168367198 1.7605717393 25.1321042925
5671 1 5.3017 35.3656 33.6176 12 10.8365332683 1.7802327147 25.3093054369
5672 1 3.43619 37.1605 33.5661 12 11.0427921727 1.7741398985 27.3048349483
5673 1 7.02391 35.3347 31.7984 12 11.3397270097 1.7945068636 23.058235069
5674 1 8.83996 37.2496 31.6997 12 11.2107901306 1.7936046172 22.8094412524
5675 1 8.87762 35.4531 33.637 12 11.5609564638 1.7945068636 23.0195137
5676 1 7.02251 37.2585 33.5582 12 11.1551978104 1.7807407797 25.0271096807
5677 1 10.628 35.4928 31.8415 12 11.0105250374 1.7943012103 20.8462221314
5678 1 12.3364 37.1892 31.8038 12 10.856158342 1.7428334174 20.7800500216
5679 1 12.3329 35.3907 33.6603 12 11.0333499575 1.7441472738 20.9932551248
5680 1 10.5186 37.2715 33.5508 12 10.9441645454 1.7386712725 22.896616818
5681 1 14.0948 35.455 31.8544 12 11.0381483061 1.7440774421 18.9059641589
5682 1 15.9073 37.1852 31.8092 12 11.0108258819 1.7620528855 19.0788876161
5683 1 15.9015 35.3586 33.4927 12 10.8777255388 1.7607817533 19.2061929231
5684 1 14.1512 37.1461 33.6303 12 10.8865560981 1.7620528855 21.0457418732
5685 1 17.6434 35.3667 31.7194 12 11.275993098 1.7620094055 17.2376901802
5686 1 19.4502 37.1809 31.8813 12 10.8803952214 1.7687609985 17.76998076
5687 1 19.4377 35.3431 33.4937 12 11.1829143699 1.7738790767 17.9738286041
5688 1 17.6702 37.0573 33.5409 12 11.0429510422 1.7637991317 19.5159381841
5689 1 21.1584 35.2471 31.673 12 11.1414963139 1.7687609985 16.0085816967
5690 1 22.974 37.0084 31.8086 12 11.1027024357 1.7687609985 16.8752238936
5691 1 22.8406 35.2334 33.5361 12 11.2232997987 1.7629567055 17.2424025523
5692 1 21.0868 37.093 33.6844 12 11.0169013811 1.7687609985 18.6740739002
5693 1 24.798 35.3287 31.7925 12 11.1616571506 1.7359433685 15.7308640358
5694 1 26.7227 37.0946 31.8361 12 10.9933684433 1.736509675 16.9595877715
5695 1 26.5908 35.3597 33.5216 12 10.9658856386 1.75966544 17.2760068378
5696 1 24.6756 37.0449 33.5511 12 11.1993708327 1.7605738466 18.1636764175
5697 1 28.2092 35.2784 31.7416 12 10.760131791 1.7601317023 16.0245521125
5698 1 29.9373 37.074 31.7304 12 10.8158614738 1.7496145405 17.5241230156
5699 1 30.1166 35.2021 33.4728 12 11.2857138644 1.7666439293 17.8649550172
5700 1 28.4342 37.1127 33.5513 12 10.8448485539 1.7601317023 18.560892848
5701 1 31.8405 35.3847 31.6553 12 10.8826219601 1.7644065911 17.1580420021
5702 1 33.5802 37.0558 31.7416 12 10.7085265827 1.7409064943 18.9103282523
5703 1 33.6335 35.3576 33.5123 12 11.2134157796 1.7666439293 19.3083622782
5704 1 31.7338 37.1347 33.4273 12 11.2466641085 1.7666439293 19.3955087488
5705 1 35.373 35.1865 31.8355 12 10.7184163003 1.7432265707 18.9084167161
5706 1 37.0658 37.0864 31.8593 12 10.8123035122 1.7837147145 20.8460976203
5707 1 37.0664 35.319 33.528 12 10.9393192733 1.7687289917 21.0930659545
5708 1 35.3846 37.0801 33.4668 12 10.5951773326 1.7387740026 20.9763579813
5709 1 38.9159 35.2886 31.7932 12 10.9991874211 1.7661103528 21.1111191402
5710 1 40.5467 37.0752 31.805 12 10.9628556768 1.7673609565 23.0293159879
5711 1 40.5867 35.2408 33.415 12 10.6971326175 1.7669024644 23.2141478895
5712 1 38.7676 36.9863 33.6103 12 10.9848035955 1.7673609565 22.9157375051
5713 1 42.3708 38.8774 31.8058 12 11.0035203055 1.7554226915 25.1711578811
5714 1 1.76443 40.5223 31.7932 12 10.9291480022 1.75314877 27.2973293403
5715 1 1.70834 38.8534 33.6506 12 10.8739162413 1.7573001434 27.3666353088
5716 1 42.3558 40.6063 33.5349 12 10.9722860148 1.7573001434 26.9673076118
5717 1 3.52989 38.9455 31.8204 12 10.5976712811 1.7466711433 27.1522919304
5718 1 5.1874 40.626 31.7572 12 10.7516018869 1.7522610547 26.999454707
5719 1 5.21165 38.9082 33.5544 12 10.738444163 1.7462634366 27.0268018159
5720 1 3.46467 40.6499 33.5192 12 10.8913707708 1.7588728184 29.049373574
5721 1 6.96605 38.8713 31.7674 12 11.1400255151 1.7523761148 24.9127934371
5722 1 8.79684 40.6336 31.7927 12 11.1087139736 1.7758989212 24.782206965
5723 1 8.7794 38.9147 33.512 12 10.8721208933 1.7535195779 24.789954015
5724 1 6.95198 40.5278 33.5954 12 11.0152254695 1.7789322708 26.8485941687
5725 1 10.6742 38.882 31.7454 12 10.8483279218 1.7507981234 22.6592704225
5726 1 12.4135 40.7061 31.7616 12 11.0259443219 1.7618594441 22.865884552
5727 1 12.4189 38.8369 33.5481 12 10.8896541604 1.7618594441 22.8055350707
5728 1 10.5865 40.5722 33.4997 12 11.3285624171 1.7618594441 24.7571968587
5729 1 14.1362 38.9202 31.84 12 11.0727324606 1.7835987708 20.9841538961
5730 1 15.8518 40.7061 31.7631 12 11.0392820671 1.765518045 21.3118137195
5731 1 15.8698 38.9322 33.5333 12 11.0856436828 1.7637991317 21.3043341288
5732 1 14.0998 40.7138 33.6672 12 10.9799329371 1.7618594441 23.262710988
5733 1 17.6512 38.8857 31.7363 12 10.9598200763 1.7637991317 19.3639911372
5734 1 19.5093 40.4558 31.7596 12 11.121581272 1.7700805898 19.8679727618
5735 1 19.4754 38.7802 33.5804 12 10.646692894 1.7700805898 19.997896918
5736 1 17.686 40.5826 33.5377 12 11.1175444742 1.7700805898 21.6704115457
5737 1 21.2189 38.7852 31.8565 12 10.9053551742 1.7677216437 18.3613119699
5738 1 22.976 40.6114 31.8738 12 11.2795628983 1.7742355306 19.4264145923
5739 1 22.9718 38.831 33.5815 12 11.1586652942 1.7630445468 19.3943298619
5740 1 21.2237 40.6352 33.5366 12 11.0919191133 1.7700805898 20.8132391884
5741 1 24.688 38.7882 31.7928 12 11.2734630359 1.7742355306 17.9634704272
5742 1 26.5076 40.573 31.9134 12 10.71494655 1.7742355306 19.411565841
5743 1 26.5784 38.8023 33.4418 12 11.1055674879 1.7726069859 19.2638184543
5744 1 24.7805 40.5698 33.5356 12 11.0609444935 1.7710176768 20.4549489687
5745 1 28.2861 38.9799 31.765 12 10.6293519375 1.7496145405 18.4092255929
5746 1 30.2028 40.5595 31.7559 12 11.1689191223 1.7745183957 19.9640514234
5747 1 29.9679 38.8624 33.5575 12 11.0974239532 1.7795386272 19.9859553899
5748 1 28.2808 40.7424 33.4926 12 11.019066444 1.7750315402 20.8370938953
5749 1 31.8409 38.8321 31.7211 12 10.9077692908 1.7514028896 19.2707042528
5750 1 33.6485 40.6214 31.7835 12 11.1061211746 1.7594423279 21.2150386805
5751 1 33.5549 38.8293 33.5207 12 10.9858006647 1.7590622014 21.1515468447
5752 1 31.8241 40.6335 33.4423 12 11.1888206982 1.7750315402 21.6034801814
5753 1 35.3934 38.813 31.8398 12 10.7493474922 1.7401246453 20.8920560143
5754 1 37.0966 40.6452 31.7666 12 10.8390736929 1.7661353525 22.8727795917
5755 1 37.0561 38.8427 33.5701 12 10.6541711519 1.7661353525 22.8614945333
5756 1 35.3343 40.6547 33.4859 12 11.0731303931 1.7661353525 23.0247244471
5757 1 38.7646 38.889 31.8846 12 10.9228902323 1.7425596785 22.8531864026
5758 1 40.555 40.5349 31.7481 12 10.8758217433 1.7449166716 24.8283835705
5759 1 40.5938 38.8899 33.6202 12 11.0800894435 1.7673609565 24.9891705577
5760 1 38.9123 40.6852 33.5451 12 10.8753862835 1.7661317514 24.9167441063
5761 1 42.3465 42.3844 35.1732 12 10.9672117083 1.7787750232 28.83896866
5762 1 1.73576 1.6594 35.3319 12 11.3453761253 1.7798836694 31.0195848268
5763 1 1.65694 42.2276 37.0492 12 11.1425389921 1.7489151204 30.9031508237
5764 1 0.0487815 1.65258 37.1316 12 11.2621783477 1.778834614 31.0092631143
5765 1 3.52134 42.4014 35.3229 12 11.0817979432 1.7587868494 30.9770650912
5766 1 5.27266 1.64456 35.406 12 11.1569206691 1.7788828116 30.8897864306
5767 1 5.30028 42.3508 37.1221 12 10.9085273349 1.7636399399 30.8663498947
5768 1 3.4748 1.68147 37.0753 12 11.0968803171 1.7582961807 32.9288770044
5769 1 6.99174 42.1349 35.3458 12 11.143860044 1.7789317152 28.7384977524
5770 1 8.80102 1.59708 35.3605 12 11.1798175661 1.7788828116 28.9043602575
5771 1 8.7857 42.3364 37.1619 12 10.8766894904 1.7446674436 28.9743577705
5772 1 7.0611 1.67133 37.031 12 10.8886328219 1.7742390235 30.8577129686
5773 1 10.6259 42.2617 35.4129 12 11.1777622008 1.7562545642 26.949617258
5774 1 12.3323 1.70591 35.299 12 11.1148979497 1.7554260184 27.2730685915
5775 1 12.3605 42.4031 37.0455 12 11.0360141255 1.7699570581 27.2712479454
5776 1 10.5777 1.72341 37.0317 12 11.1152731664 1.7621995652 29.1641865199
5777 1 14.1131 0.0487352 35.2292 12 11.0452374175 1.7659114549 25.3693152426
5778 1 15.976 1.78875 35.3069 12 11.1776436497 1.8004598395 25.8739846975
5779 1 15.9093 42.3528 37.0579 12 11.3585847782 1.8013365922 25.8262643234
5780 1 14.0171 1.77723 37.0471 12 11.2353265103 1.8013781717 27.7005844687
5781 1 17.6222 42.437 35.2451 12 11.06026258 1.7623472968 24.0818809845
5782 1 19.4539 1.68453 35.3379 12 11.1771842333 1.7623472968 24.8468457995
5783 1 19.5253 42.3903 37.1338 12 11.082886417 1.7623472968 24.8928235695
5784 1 17.6152 1.65873 37.0919 12 11.1025658586 1.8013781717 26.4566279828
5785 1 21.1722 42.3584 35.2985 12 11.0733645128 1.7672205746 23.2526604003
5786 1 22.9711 1.7566 35.3348 12 10.7773704853 1.7580637465 24.3831182722
5787 1 22.9366 0.0132663 37.1027 12 11.0672453645 1.7576195243 24.4104251661
5788 1 21.2051 1.68509 37.1176 12 10.9087504057 1.7651266497 25.749715287
5789 1 24.8056 0.00815403 35.3974 12 11.1262390704 1.770269822 23.0936455726
5790 1 26.4911 1.71952 35.4048 12 10.9955256906 1.7458717115 24.3911877394
5791 1 26.5354 42.4349 37.1388 12 11.1897357805 1.8160607717 24.4194303148
5792 1 24.6577 1.75045 37.1382 12 10.9597253469 1.7394647549 25.5569979761
5793 1 28.2869 42.39 35.3044 12 10.9102653289 1.7573972752 23.2537068126
5794 1 30.0535 1.65372 35.2541 12 11.1630959873 1.8067882695 24.7447520949
5795 1 30.0634 42.3241 37.1029 12 10.7998325309 1.8067882695 24.8199372244
5796 1 28.3241 1.64958 37.0785 12 11.0122392857 1.8059282987 25.6844581214
5797 1 31.8812 42.3543 35.3956 12 11.0185768133 1.7618967227 24.0928544557
5798 1 33.6278 1.75535 35.2994 12 11.0188824472 1.7635605659 25.8393999342
5799 1 33.6955 42.3439 37.0934 12 11.0434349872 1.7339763331 25.839257525
5800 1 31.9661 1.70764 37.0376 12 11.5242744105 1.8067882695 26.4413302156
5801 1 35.2975 42.3218 35.2382 12 11.2515858591 1.7491444271 25.184343646
5802 1 37.0573 1.72058 35.2434 12 10.9545032503 1.7430787137 27.1446639389
5803 1 37.0739 0.0113257 37.0819 12 10.914436201 1.7446110191 27.2378902491
5804 1 35.3102 1.8235 37.0627 12 11.1806491764 1.7442012002 27.6271156908
5805 1 38.7871 0.0921767 35.3421 12 10.8254455837 1.7368534962 27.0103459546
5806 1 40.6149 1.62424 35.4039 12 11.0389998079 1.7790244796 28.9553440813
5807 1 40.6043 42.3571 37.0455 12 10.9912519311 1.7489151204 28.9283296226
5808 1 38.8326 1.834 37.1512 12 10.9428333283 1.7446110191 29.2097954354
5809 1 -0.0104799 3.50543 35.4208 12 11.4205897453 1.7829183593 30.7936841962
5810 1 1.75972 5.3074 35.3257 12 11.0414486442 1.7796474528 30.6423469134
5811 1 1.7687 3.42868 37.1218 12 11.2231221452 1.7797071885 32.7877272653
5812 1 42.4009 5.26687 37.0643 12 10.9628631433 1.7614935474 30.7147512216
5813 1 3.54371 3.47089 35.2589 12 11.0692061099 1.7798836694 31.1547339658
5814 1 5.20118 5.26796 35.2549 12 10.7303259284 1.7442048012 29.1542171361
5815 1 5.27501 3.50866 36.9697 12 10.8734977853 1.7564767648 31.1245824983
5816 1 3.53014 5.21128 37.0458 12 11.0132334883 1.7647603372 31.2081549969
5817 1 7.11593 3.39004 35.2827 12 11.1179577363 1.772684668 29.1987696763
5818 1 8.87922 5.2644 35.3936 12 10.7920366715 1.7434771169 27.2024523967
5819 1 8.83422 3.4596 37.145 12 11.1458598904 1.7621995652 29.4126160719
5820 1 7.03192 5.28238 36.9503 12 11.0034928189 1.7605302417 29.137657745
5821 1 10.5828 3.41751 35.2369 12 11.0995982877 1.7619992156 27.4497766251
5822 1 12.416 5.21104 35.2734 12 10.9920998392 1.760844217 25.5319923132
5823 1 12.3521 3.5186 37.0863 12 11.0467286265 1.7621995652 27.8405147185
5824 1 10.5693 5.24606 36.9445 12 11.0017262149 1.7621995652 27.4080110135
5825 1 14.1264 3.5213 35.3351 12 11.2053068189 1.7603233478 26.0615015251
5826 1 15.8524 5.30108 35.4204 12 10.7191925808 1.7603233478 24.3829803678
5827 1 15.8954 3.52921 37.1468 12 10.907842953 1.8013781717 26.7518224046
5828 1 14.2357 5.20832 37.0656 12 10.7140454671 1.7414359128 26.0930225072
5829 1 17.6727 3.57436 35.3454 12 11.3402238242 1.7600744218 25.077622164
5830 1 19.4774 5.31182 35.4711 12 11.3102824025 1.7624159489 23.6401144446
5831 1 19.3655 3.40997 37.1463 12 11.0873962713 1.7653267967 26.1578037055
5832 1 17.7287 5.29576 37.1729 12 10.912680092 1.7435497571 25.190332045
5833 1 21.1817 3.42044 35.3711 12 11.0915684188 1.7653267967 24.7343957396
5834 1 22.9783 5.18864 35.3879 12 11.0246094866 1.7711951347 23.4351252829
5835 1 22.9682 3.50185 37.0379 12 10.9114950636 1.7636210495 25.7936676099
5836 1 21.1783 5.22943 37.117 12 11.1721971611 1.7653267967 24.7327142103
5837 1 24.7156 3.46237 35.3229 12 10.7025400415 1.7324922334 24.6959280877
5838 1 26.644 5.30444 35.2497 12 10.6604296967 1.7473475775 23.5741335638
5839 1 26.5461 3.47281 37.0833 12 11.076132817 1.7914703834 26.1195020133
5840 1 24.9156 5.13411 37.0511 12 11.0259735434 1.7494737265 24.7870951388
5841 1 28.292 3.44753 35.2896 12 10.9794647779 1.7914298911 25.2186572644
5842 1 29.9376 5.28518 35.2744 12 10.9986486407 1.7834028249 24.3552582535
5843 1 30.1257 3.49903 37.1704 12 11.3810600243 1.8067882695 26.9125464457
5844 1 28.4035 5.23057 37.0343 12 11.0714987381 1.7914703834 25.2534794969
5845 1 31.7427 3.54089 35.2444 12 11.0971949685 1.7649736309 26.0860501582
5846 1 33.55 5.2239 35.3198 12 10.8426025475 1.7489871886 25.5527024912
5847 1 33.5552 3.62782 37.0266 12 10.9916833607 1.7382529205 27.7399991136
5848 1 31.7634 5.19506 36.9801 12 10.6462029432 1.7413388551 26.0829664036
5849 1 35.3085 3.49677 35.1594 12 10.6833594045 1.7381562996 27.3144152257
5850 1 37.0853 5.13476 35.1383 12 10.8590672499 1.7486014916 26.9801498502
5851 1 37.0348 3.49265 36.9331 12 10.8208492541 1.7446110191 29.1174900664
5852 1 35.3904 5.2562 37.0399 12 11.0045724901 1.7824940125 27.3407279973
5853 1 38.7789 3.40984 35.2525 12 10.8684719222 1.7487735561 28.9633399111
5854 1 40.5871 5.25213 35.269 12 11.0348283474 1.7487735561 28.6773891283
5855 1 40.5987 3.50735 36.9937 12 11.086929717 1.7508841479 30.821866488
5856 1 38.7653 5.24352 36.9614 12 11.2460176061 1.7560474114 28.8317024515
5857 1 42.3471 6.98074 35.246 12 10.6014501745 1.7415924628 28.5908286227
5858 1 1.63783 8.77308 35.1926 12 11.004460462 1.7661114155 28.6434808879
5859 1 1.76977 7.00353 37.0214 12 11.0938013392 1.766017016 30.7445032596
5860 1 42.3219 8.66438 37.0549 12 11.0894724949 1.7661114155 28.8557071899
5861 1 3.48987 7.08593 35.3073 12 10.6648029485 1.7415207497 29.1974491502
5862 1 5.20367 8.84589 35.3092 12 10.6376487967 1.7631964374 27.2214452516
5863 1 5.22693 7.03501 36.975 12 10.9061770428 1.7442048012 29.1684953205
5864 1 3.41543 8.80628 37.0144 12 10.7435904711 1.7661114155 29.3858753143
5865 1 7.04959 6.9861 35.3009 12 10.6940550034 1.7411058556 27.1497693503
5866 1 8.89155 8.7338 35.2613 12 10.7230673178 1.7411058556 25.137156148
5867 1 8.80436 7.03069 36.9783 12 10.8289245424 1.7522196636 27.2566242648
5868 1 6.96304 8.72909 36.9279 12 10.9958335626 1.743132636 27.2564030944
5869 1 10.6123 6.97094 35.2527 12 10.7397287674 1.7617750743 25.2532368785
5870 1 12.3001 8.76588 35.329 12 10.9365999436 1.7655515534 23.5195043828
5871 1 12.4268 6.92634 37.0562 12 11.0532387883 1.7622784625 25.7251371352
5872 1 10.5773 8.74228 37.047 12 11.1045173137 1.7548635064 25.508812885
5873 1 14.1682 7.01772 35.4343 12 10.6902454352 1.7622784625 23.8460249618
5874 1 15.8537 8.79358 35.4395 12 10.7105812234 1.7712427537 22.2375590445
5875 1 15.9412 7.02935 37.1313 12 10.7618859323 1.7707083967 24.5195661781
5876 1 14.0832 8.81463 37.0951 12 10.9606918502 1.7712254408 24.0886833378
5877 1 17.5628 7.04919 35.4784 12 10.9681157208 1.7449007311 22.8541637385
5878 1 19.4363 8.72696 35.4082 12 11.0273508964 1.7433186329 21.4100248405
5879 1 19.4526 7.05917 37.1646 12 11.0716966233 1.7468803384 23.7893197003
5880 1 17.641 8.86294 37.0932 12 11.02852659 1.7712427537 23.0196933535
5881 1 21.2841 7.05761 35.3095 12 11.0853198483 1.7722587914 22.1682282749
5882 1 23.0376 8.78665 35.3241 12 11.1922510993 1.7723223736 21.0467518176
5883 1 23.0509 6.90882 37.0739 12 11.3616372429 1.7723223736 23.5786279203
5884 1 21.2864 8.82175 37.1804 12 11.3783053315 1.7547862887 22.5843824402
5885 1 24.8521 6.88122 35.3719 12 11.0492517266 1.7723223736 22.3771307548
5886 1 26.5528 8.75553 35.3435 12 10.8831150166 1.7589288434 21.4124026905
5887 1 26.5548 7.00716 37.131 12 10.9572004236 1.7608202975 23.8628789038
5888 1 24.7651 8.80569 36.9267 12 11.0853252715 1.7547862887 22.4233179752
5889 1 28.3227 7.08945 35.2755 12 10.7565882635 1.7579329349 22.751373686
5890 1 29.974 8.82964 35.3444 12 10.9155300196 1.7659197763 22.0623224069
5891 1 30.1799 6.97122 37.0868 12 10.77985781 1.7579329349 24.5696539321
5892 1 28.2541 8.79716 37.0434 12 10.9185469902 1.7568816495 22.9951908922
5893 1 31.8206 6.979 35.2617 12 11.3525692279 1.7670880337 23.7385512998
5894 1 33.5336 8.76376 35.2506 12 11.2441409043 1.7787471296 23.2069698809
5895 1 33.4853 6.99559 37.0471 12 11.3262265581 1.7826000567 25.5187315995
5896 1 31.6439 8.862 37.02 12 11.0951686603 1.7787471296 23.7562456871
5897 1 35.3142 7.02772 35.1967 12 11.1466295656 1.7826000567 24.9915484726
5898 1 37.1044 8.81427 35.3733 12 11.0644414112 1.795496944 24.8939992494
5899 1 37.0474 7.09786 36.9786 12 10.8909936874 1.7826000567 26.8997696007
5900 1 35.2268 8.84774 37.0999 12 11.0734611485 1.7826000567 25.1592984088
5901 1 38.7405 7.0814 35.2885 12 10.8677552686 1.7505803749 26.6691084419
5902 1 40.6463 8.74653 35.2377 12 10.8789218593 1.7494541049 26.6894982776
5903 1 40.6257 6.99539 36.9405 12 11.0841124158 1.7510177639 28.7439146306
5904 1 38.8678 8.74355 37.0567 12 10.9522114352 1.7504643715 26.9625730312
5905 1 42.3649 10.4349 35.2862 12 11.1343728288 1.7736781847 26.8667856587
5906 1 1.64835 12.2958 35.1775 12 11.21213153 1.767762553 27.0857179661
5907 1 1.68307 10.5328 37.0602 12 11.1102740531 1.7661114155 29.0572200721
5908 1 42.3555 12.2371 37.0179 12 11.0610701699 1.7779095855 27.2730140023
5909 1 3.455 10.4784 35.3034 12 10.8884825968 1.767762553 27.5630364367
5910 1 5.17409 12.2439 35.3146 12 11.0659104159 1.8010614017 25.6599502435
5911 1 5.17202 10.536 36.9931 12 10.7129521462 1.743132636 27.4716908227
5912 1 3.51336 12.2703 37.1165 12 11.0064366036 1.767762553 27.894810115
5913 1 7.02124 10.6633 35.3388 12 11.1126150039 1.8010614017 25.2253753551
5914 1 8.79398 12.3284 35.3836 12 11.5271335874 1.8005383822 23.4459843456
5915 1 8.75876 10.4759 36.9854 12 11.1105239283 1.7558674889 25.448168449
5916 1 7.05107 12.2886 37.1737 12 10.9861890884 1.8003814506 25.7111516127
5917 1 10.5966 10.6076 35.3519 12 11.1370795951 1.7681954146 23.3095654413
5918 1 12.4916 12.3435 35.2881 12 11.0723934123 1.7681954146 21.4909612895
5919 1 12.3355 10.6113 37.107 12 11.1907689904 1.7605009731 23.7959015185
5920 1 10.6871 12.3314 37.1555 12 11.1167423387 1.7651391296 23.7395094839
5921 1 14.1331 10.5308 35.3823 12 10.7486231285 1.7599615002 21.8452634264
5922 1 15.8509 12.3681 35.3614 12 11.3147287633 1.774232494 20.2656254068
5923 1 15.7971 10.5818 37.1755 12 11.1081815263 1.7723354847 22.6653280953
5924 1 14.1825 12.3466 37.1779 12 11.1250325691 1.7744821365 22.2878303549
5925 1 17.6501 10.5644 35.3907 12 11.0812880631 1.7599615002 20.7246317118
5926 1 19.5 12.393 35.2946 12 11.1576808077 1.7582826686 19.3424471583
5927 1 19.3704 10.6447 37.1559 12 11.220852075 1.7430497496 21.8121881352
5928 1 17.7197 12.4367 37.0045 12 11.3206046398 1.7744821365 21.1048753056
5929 1 21.2417 10.5349 35.4361 12 11.0991759786 1.7538097626 20.1935212621
5930 1 22.9968 12.2908 35.4024 12 10.9200706322 1.7535044971 19.2111204722
5931 1 22.9905 10.6921 37.149 12 10.9257860429 1.7535044971 21.5162962517
5932 1 21.289 12.4409 37.1017 12 10.8655563711 1.7430497496 20.7037889757
5933 1 24.804 10.6669 35.4059 12 11.1472188837 1.7756041529 20.1386498831
5934 1 26.5064 12.3908 35.3204 12 11.2925642573 1.7736190933 19.2861159782
5935 1 26.5111 10.5546 37.0466 12 10.9772536939 1.7599895014 21.7268281361
5936 1 24.7202 12.5161 37.2197 12 10.7860960841 1.7304981977 20.7223523701
5937 1 28.3327 10.6168 35.285 12 10.8618195507 1.7599895014 20.5480983862
5938 1 30.0172 12.3665 35.2799 12 11.0208721303 1.7695606858 19.97249312
5939 1 29.9497 10.583 37.0673 12 10.8437956645 1.7508123498 22.3400898898
5940 1 28.3353 12.3848 37.0246 12 10.905008164 1.7600698671 21.004879765
5941 1 31.8041 10.6292 35.2823 12 11.2097269858 1.7686673906 21.4897467913
5942 1 33.5325 12.4228 35.2531 12 10.7824417066 1.7457981688 21.1977898874
5943 1 33.5601 10.5725 36.9391 12 10.9313469325 1.7780188676 23.4207318425
5944 1 31.8718 12.4019 37.0057 12 10.9302558261 1.754079314 21.9351001662
5945 1 35.3304 10.5712 35.2197 12 10.9294633891 1.7735956039 22.9455692295
5946 1 37.1151 12.255 35.3784 12 10.9112271241 1.7544377797 23.1471755128
5947 1 37.0828 10.5815 37.0696 12 11.0484016011 1.763906652 25.1102388268
5948 1 35.2304 12.2771 37.023 12 11.0316861399 1.7432922356 23.3760903925
5949 1 38.902 10.566 35.2998 12 11.0747629375 1.75441744 24.8682201433
5950 1 40.6539 12.3415 35.3641 12 10.8586920253 1.7529082329 25.0722105928
5951 1 40.5984 10.4548 37.112 12 10.8664677382 1.7576788963 27.098505956
5952 1 39.0073 12.3077 37.0891 12 10.849374534 1.7544377797 25.389758401
5953 1 42.3425 14.1456 35.3885 12 10.8419782971 1.7401305623 25.4252806737
5954 1 1.68573 15.862 35.3175 12 10.9454436008 1.7507684749 26.0273197583
5955 1 1.73349 13.9805 37.0491 12 11.1814037861 1.7608823907 27.7985415662
5956 1 42.4027 15.8605 37.0117 12 10.9187233337 1.7728943891 26.1042613511
5957 1 3.38406 14.0206 35.3164 12 11.1243960044 1.7676607417 26.2213908064
5958 1 5.13858 15.8544 35.3621 12 10.9626737906 1.7575567754 24.4436004157
5959 1 5.27233 14.0078 37.0752 12 11.1889765429 1.7607207603 26.0897245485
5960 1 3.52784 15.791 37.0927 12 11.1736030691 1.7608823907 26.7302173869
5961 1 6.99261 14.2601 35.4699 12 11.2383931691 1.8010614017 23.8029166853
5962 1 8.83474 15.8969 35.3574 12 11.2274759978 1.7747351559 22.0295371232
5963 1 8.80566 14.0597 37.1246 12 11.0479454418 1.7747351559 23.9867462322
5964 1 7.03561 15.7931 37.2552 12 10.8768407043 1.7575567754 24.5479046501
5965 1 10.6206 14.1289 35.414 12 11.344104329 1.7747351559 21.6991867981
5966 1 12.4198 15.8622 35.2682 12 10.9997124647 1.7562384106 20.0229347133
5967 1 12.3673 14.0765 37.0957 12 10.9018008935 1.7562384106 22.1875565016
5968 1 10.6179 15.7682 37.1948 12 11.0838183385 1.7516828686 22.4932594702
5969 1 14.1841 14.1705 35.3349 12 10.7267313916 1.7562384106 19.968024654
5970 1 15.8796 15.8711 35.3447 12 11.1701158416 1.7583717516 18.6684222582
5971 1 15.8348 14.2568 37.1088 12 11.0166999636 1.7744821365 20.8424944077
5972 1 14.0125 15.884 37.1373 12 10.9248640653 1.7380523928 20.8823734866
5973 1 17.6956 14.1635 35.3624 12 11.519444242 1.7764281781 18.8874671233
5974 1 19.5293 15.9429 35.3793 12 11.0196304991 1.7580792234 17.7994909142
5975 1 19.4662 14.1089 37.1901 12 10.8253761629 1.7615327324 20.1955398284
5976 1 17.661 15.8111 37.1255 12 10.8845320125 1.7550959815 19.7799602125
5977 1 21.1942 14.1831 35.4149 12 11.0635818347 1.759043061 18.4250031633
5978 1 22.9271 15.96 35.4446 12 11.2051757682 1.7677356425 17.6328268581
5979 1 22.9837 14.1882 37.055 12 10.9490738718 1.7436534105 19.8280901005
5980 1 21.111 15.9339 37.1794 12 10.8486669541 1.7334830093 19.3132356254
5981 1 24.7641 14.1181 35.4162 12 11.1773963424 1.7677356425 18.3706417521
5982 1 26.5052 15.8628 35.4406 12 10.9083731615 1.7654455721 17.7666877209
5983 1 26.5415 14.1816 37.1903 12 10.9537829951 1.7613663736 20.0433506066
5984 1 24.8032 15.9685 37.162 12 11.001094923 1.7677356425 19.1938824097
5985 1 28.2658 14.233 35.3266 12 10.9091260982 1.7695606858 18.6559259327
5986 1 29.872 15.9048 35.3318 12 10.8298646186 1.7741722261 18.375802406
5987 1 30.069 14.1383 37.1081 12 10.9848357598 1.7695606858 20.681338853
5988 1 28.3148 15.9701 37.1098 12 10.6857034882 1.7613663736 19.5525668727
5989 1 31.7972 14.2224 35.2394 12 11.0267317555 1.7695606858 19.6425303818
5990 1 33.5986 15.9723 35.2971 12 11.2004532445 1.7805288217 19.7728151934
5991 1 33.5225 14.1122 36.9999 12 10.640818709 1.7468557589 21.8176753769
5992 1 31.7955 15.8849 37.0349 12 10.9125794686 1.7528553683 20.5131180615
5993 1 35.3891 14.1874 35.4189 12 11.1395115862 1.7800217085 21.4217678642
5994 1 37.1565 15.8973 35.3509 12 11.1875102226 1.7805288217 21.7357272983
5995 1 37.2265 14.0951 37.0264 12 11.0569053793 1.744090567 23.647622576
5996 1 35.3237 15.9699 37.1224 12 10.8830852284 1.7802697268 22.0908876389
5997 1 38.8936 14.0749 35.2798 12 10.819115481 1.7547274296 23.3204775194
5998 1 40.6529 15.8233 35.392 12 10.8827343741 1.7581264737 23.8457990428
5999 1 40.6179 14.0641 37.0488 12 10.7779273929 1.7581264737 25.6174818607
6000 1 38.8454 15.9042 37.0734 12 11.0969568733 1.7719770647 24.0190929574
6001 1 42.4467 17.5516 35.3225 12 10.9031984586 1.7724760105 24.4928512526
6002 1 1.81607 19.3861 35.3604 12 11.1212512917 1.766034485 25.4174921637
6003 1 1.82943 17.6444 37.1214 12 11.3321200963 1.7771630345 26.9725109006
6004 1 42.4071 19.4005 37.0077 12 11.3039924586 1.772685454 25.3051454909
6005 1 3.61824 17.6347 35.4186 12 10.7949739234 1.7624277966 25.1254787874
6006 1 5.33154 19.2617 35.3298 12 11.1168440934 1.7807113652 23.5322694042
6007 1 5.16538 17.5885 37.285 12 11.1011349066 1.7575567754 25.3219557154
6008 1 3.57665 19.4151 37.1918 12 10.8277985047 1.7650074897 26.0403185859
6009 1 7.05599 17.5935 35.4141 12 11.4667700474 1.7806271041 22.7284764024
6010 1 8.88579 19.413 35.3577 12 11.2059473637 1.7807113652 21.1495797359
6011 1 8.72585 17.6076 37.1107 12 11.1465642081 1.7588793679 22.9581133467
6012 1 7.06618 19.4748 37.1934 12 11.286757367 1.7807113652 23.6835961818
6013 1 10.648 17.6022 35.3797 12 11.1142489589 1.7589150841 20.50547007
6014 1 12.31 19.42 35.3958 12 10.956456386 1.7384961292 19.2348333892
6015 1 12.395 17.5563 37.1451 12 10.9809789205 1.7469154705 21.0819651679
6016 1 10.5467 19.3787 37.1005 12 11.3577739495 1.7844589136 21.5861592544
6017 1 14.1034 17.7322 35.3775 12 11.0110418738 1.7380523928 18.7645923692
6018 1 16.0318 19.3275 35.3676 12 11.0010805841 1.7589140025 17.6344051414
6019 1 16.0095 17.6897 37.0823 12 11.093465429 1.7531632422 19.5953642574
6020 1 14.1791 19.3943 37.0368 12 10.9331759725 1.7760944961 19.8270413398
6021 1 17.7463 17.6687 35.3436 12 10.9817435043 1.7583717516 17.5201055474
6022 1 19.4838 19.4373 35.3261 12 10.9030396105 1.756748552 16.7077184168
6023 1 19.4581 17.5741 37.1543 12 10.8434409356 1.7425514475 18.9187414859
6024 1 17.805 19.3611 37.1344 12 10.8636215259 1.7307927922 18.7834960095
6025 1 21.1997 17.8189 35.4664 12 10.7760245989 1.7364017781 17.0738810928
6026 1 22.9954 19.4992 35.4279 12 11.1834882922 1.7647666718 16.5610890539
6027 1 23.0718 17.696 37.0893 12 11.1756129011 1.7660824369 18.6024879497
6028 1 21.1473 19.539 37.1971 12 11.3361586502 1.7660824369 18.3459269805
6029 1 24.8357 17.6966 35.3609 12 10.9777979033 1.7666188625 16.9258435177
6030 1 26.5016 19.4482 35.3689 12 10.7805716703 1.7573540406 16.6277279567
6031 1 26.5811 17.6023 37.246 12 10.6274252232 1.7374852748 18.8866812648
6032 1 24.8221 19.3766 37.152 12 11.0841955593 1.7591339201 18.2528068765
6033 1 28.14 17.7203 35.3058 12 10.8812807041 1.7375850803 17.2874309942
6034 1 29.9292 19.414 35.2713 12 11.033701887 1.7598274195 17.3302229613
6035 1 30.0411 17.6195 37.0528 12 10.8744335829 1.7598274195 19.4238416608
6036 1 28.1895 19.4387 37.096 12 10.8376185046 1.7687824845 18.5882408466
6037 1 31.7495 17.6755 35.2954 12 11.1460655414 1.7455163853 18.4295539674
6038 1 33.5711 19.4386 35.4293 12 11.2288611136 1.7468949236 18.9592074036
6039 1 33.5748 17.6013 37.181 12 10.9750706931 1.7656574198 20.8577461882
6040 1 31.8185 19.4546 37.0005 12 10.8938371392 1.7598274195 19.578905769
6041 1 35.374 17.7582 35.4597 12 11.1221332046 1.7805288217 20.2774488503
6042 1 37.1049 19.4645 35.3344 12 10.7962230489 1.7578420315 20.7787592114
6043 1 37.1792 17.757 37.0976 12 11.1327545289 1.7723513719 22.5884764473
6044 1 35.3282 19.5528 37.0734 12 11.0304898552 1.7598739732 21.2180811776
6045 1 38.9394 17.7111 35.3602 12 11.234337247 1.7704739591 22.3013604571
6046 1 40.6418 19.4374 35.277 12 11.092704876 1.7575434369 22.8854313689
6047 1 40.7173 17.6803 37.1141 12 11.3240046305 1.7728943891 24.7119662785
6048 1 38.9067 19.5399 37.0281 12 11.2129870288 1.7723513719 23.1321910358
6049 1 0.0363768 21.2064 35.4333 12 11.0203749204 1.7495819103 23.8980307751
6050 1 1.71288 22.9902 35.2101 12 10.9825559869 1.750448593 24.7565874847
6051 1 1.87208 21.2171 37.0448 12 10.8810176309 1.766034485 26.3091762112
6052 1 0.0739697 22.9945 37.0836 12 11.2065395482 1.7556910698 24.9060024211
6053 1 3.62855 21.1603 35.2789 12 11.2506014863 1.7627610352 24.534100091
6054 1 5.3476 22.9775 35.3455 12 11.3020240889 1.7509631974 23.2539517666
6055 1 5.32531 21.1796 37.0615 12 11.1324156381 1.749317286 24.5511342264
6056 1 3.50641 22.9838 37.1012 12 11.0156290738 1.750448593 25.797999582
6057 1 7.17163 21.1567 35.3634 12 11.1015353357 1.7807113652 22.0588432164
6058 1 8.82719 22.8913 35.3081 12 10.8509169522 1.7477045397 20.8642056512
6059 1 8.86091 21.2055 37.1693 12 11.0088133488 1.7596204636 22.3760948702
6060 1 7.13002 22.9104 37.2245 12 11.377852085 1.7570317017 23.4224929201
6061 1 10.5745 21.2979 35.3216 12 10.8458498524 1.7590406534 19.8750271
6062 1 12.3911 23.0232 35.3527 12 10.810093601 1.7601078322 18.8452809099
6063 1 12.3702 21.2635 37.0496 12 11.2136375237 1.7760944961 20.3928644006
6064 1 10.5582 23.0492 37.0322 12 11.0638255774 1.7698616857 21.2394313525
6065 1 14.1366 21.123 35.321 12 11.1094582205 1.7760722085 18.0672487059
6066 1 15.8935 22.9545 35.4172 12 11.2464413778 1.7604573072 17.3707156473
6067 1 15.9179 21.123 37.1468 12 11.1235189429 1.7760944961 19.0693748269
6068 1 14.1602 22.9557 37.079 12 10.9441409489 1.7759748412 19.5668505889
6069 1 17.739 21.1752 35.3229 12 11.3760895979 1.7604573072 16.7982990146
6070 1 19.4622 22.9826 35.3667 12 11.2783147067 1.7659102153 16.3956573529
6071 1 19.3643 21.2831 37.0778 12 11.1159970962 1.765026655 18.1703043416
6072 1 17.608 23.0657 37.1707 12 11.0004567197 1.7659102153 18.5359968924
6073 1 21.2497 21.2814 35.2858 12 11.3135619824 1.7589288241 16.2052071689
6074 1 22.9377 23.0392 35.3688 12 11.3842293258 1.7731431167 16.150263481
6075 1 23.0784 21.2053 37.1097 12 11.447402998 1.7732634323 17.9763403689
6076 1 21.2548 23.0328 37.2026 12 11.3652697091 1.7732634323 18.0377200861
6077 1 24.8496 21.3151 35.4371 12 11.3682302906 1.7622093282 16.2842160497
6078 1 26.4978 23.081 35.3884 12 11.1888159808 1.7767181614 16.3092406329
6079 1 26.546 21.1163 37.1609 12 10.8693996276 1.744434242 18.1482446706
6080 1 24.7961 23.0799 37.1346 12 11.1355414338 1.7732634323 17.9087489198
6081 1 28.2013 21.2378 35.3588 12 11.0711172102 1.7699751948 16.6650315247
6082 1 30.0838 22.8762 35.3308 12 10.9020480187 1.7704245694 17.1015160991
6083 1 30.0403 21.1462 37.0642 12 10.9751775538 1.7596901632 18.8050872903
6084 1 28.2754 22.906 37.1022 12 11.0364780027 1.7704245694 18.3079469147
6085 1 31.7508 21.1951 35.32 12 10.8374709323 1.7477229928 17.7995741112
6086 1 33.4772 22.8578 35.3303 12 11.0372961095 1.7365491225 18.3895671959
6087 1 33.5266 21.3071 37.1508 12 11.149143728 1.7491074083 20.1949174035
6088 1 31.746 23.0497 37.0526 12 11.0504043711 1.7491074083 19.2807623053
6089 1 35.2939 21.2433 35.2682 12 10.9359964712 1.7365491225 19.3998584869
6090 1 37.1087 23.0602 35.3314 12 10.6356830641 1.7376999169 20.1740929153
6091 1 37.0343 21.3015 36.9805 12 10.9245116865 1.7570128812 21.7255931125
6092 1 35.4055 23.0034 37.1284 12 10.9580725257 1.7666876744 20.8348013995
6093 1 38.845 21.2143 35.3141 12 10.8023409688 1.7578420315 21.4226340775
6094 1 40.7441 23.0305 35.2807 12 10.9195106173 1.7428716063 22.3916137927
6095 1 40.6261 21.3035 37.0566 12 11.0881957814 1.7700448179 23.851280783
6096 1 38.8606 22.9299 36.9937 12 10.9889094022 1.7854379366 22.5442961694
6097 1 0.00849177 24.7043 35.2366 12 10.825741658 1.7577710162 23.4625128423
6098 1 1.7278 26.4861 35.2955 12 11.0248557932 1.7557925399 24.8102777253
6099 1 1.71429 24.7913 37.0537 12 11.2331995276 1.7636061893 25.952770823
6100 1 42.337 26.4898 37.0267 12 11.2083104274 1.7556910698 24.73706589
6101 1 3.48403 24.6505 35.3831 12 11.1526020533 1.7874739256 24.7163867936
6102 1 5.27479 26.5743 35.3165 12 10.9326369456 1.7610712764 23.5791233639
6103 1 5.35284 24.7491 37.0937 12 11.1019824656 1.7544441433 24.5698920283
6104 1 3.61923 26.4075 37.1275 12 11.066084486 1.7557925399 25.9773409255
6105 1 7.11602 24.7289 35.4244 12 11.2438168365 1.7610712764 22.1532404934
6106 1 8.95723 26.5568 35.4312 12 11.1812404447 1.7599750443 21.2010473738
6107 1 8.90479 24.8266 37.0986 12 11.3683199025 1.7767031169 22.3174382771
6108 1 7.01209 26.5073 37.1446 12 11.1714240757 1.7741532771 23.7174206096
6109 1 10.6291 24.7869 35.3073 12 11.0668333032 1.7705843663 19.8625864074
6110 1 12.4524 26.4624 35.371 12 10.9958323771 1.7478916765 19.1690431999
6111 1 12.4427 24.7428 37.0578 12 10.9336952589 1.7706060094 20.3888219385
6112 1 10.6456 26.6119 37.1803 12 11.0756771388 1.7706060094 21.6426865829
6113 1 14.2115 24.6971 35.2812 12 11.0734089567 1.7661332715 18.0072972434
6114 1 15.9795 26.5941 35.3814 12 11.1476889923 1.7549929739 17.7004426699
6115 1 15.9815 24.8664 37.141 12 10.9993125491 1.7661332715 19.0684418572
6116 1 14.1098 26.5687 37.08 12 10.8535350885 1.7659965589 19.9345343981
6117 1 17.5511 24.662 35.3585 12 11.2288661459 1.7497037296 16.8922463705
6118 1 19.337 26.5802 35.3998 12 11.4662990456 1.7947616505 16.7187437822
6119 1 19.4505 24.8339 37.139 12 11.2353691952 1.7758343627 18.2336684561
6120 1 17.7124 26.5335 37.2844 12 11.1509266741 1.7409213132 18.9322875784
6121 1 21.0387 24.8099 35.3373 12 11.2547134971 1.7947049603 16.219432667
6122 1 22.9236 26.5515 35.3589 12 11.187093985 1.7947616505 16.1786309284
6123 1 22.9496 24.8114 37.0944 12 11.1288502462 1.771476598 17.8236006296
6124 1 21.0941 26.6562 37.2301 12 11.1263108706 1.7947616505 18.192056567
6125 1 24.7358 24.8004 35.4357 12 11.0329141794 1.7622093282 16.2109589081
6126 1 26.5131 26.4746 35.4161 12 11.2807311352 1.7950919839 16.4864306711
6127 1 26.5931 24.753 37.1741 12 10.9934982071 1.7281410067 18.1509447007
6128 1 24.7109 26.5221 37.1196 12 10.9821127687 1.7929746622 17.9669983183
6129 1 28.3555 24.788 35.3982 12 10.9734638811 1.7704245694 16.7598463222
6130 1 30.0264 26.5189 35.2821 12 10.992527848 1.7557587099 17.1044908984
6131 1 29.9828 24.7661 37.0593 12 10.9870110837 1.7574398314 18.7521458124
6132 1 28.3596 26.6094 37.1173 12 10.6387541319 1.7700259348 18.4771104343
6133 1 31.858 24.7316 35.2632 12 11.0953221461 1.7574556067 17.5967986347
6134 1 33.6039 26.4834 35.2747 12 10.978953712 1.752040205 18.3622369278
6135 1 33.6623 24.7023 37.0295 12 10.9664545805 1.7491446462 19.9102292603
6136 1 31.8344 26.4146 37.0661 12 11.1619826853 1.7862705758 19.3504965178
6137 1 35.3012 24.7048 35.3257 12 11.0079392365 1.7464543116 19.1255487486
6138 1 37.0184 26.5132 35.3389 12 11.0518722924 1.7653256944 20.1205203587
6139 1 37.1534 24.7028 37.1449 12 10.7998524443 1.765249085 21.6386102351
6140 1 35.3261 26.5331 37.1374 12 10.7398579302 1.7649595551 20.7940085108
6141 1 38.8235 24.7966 35.3148 12 10.8584935174 1.7437102391 21.101028378
6142 1 40.6565 26.6997 35.3412 12 11.0337648841 1.747000988 22.3820378711
6143 1 40.6073 24.7653 37.0571 12 11.2772219455 1.7556910698 23.5764480487
6144 1 38.8863 26.435 37.0939 12 11.2029686437 1.7653256944 22.6160775555
6145 1 0.0403184 28.2854 35.3531 12 10.9135241363 1.7399276375 23.8173373156
6146 1 1.83957 29.9963 35.2705 12 10.986428218 1.7521489252 25.352371447
6147 1 1.79635 28.1393 37.1098 12 11.2738136944 1.7521489252 26.2587370706
6148 1 0.0863948 30.0672 37.0601 12 11.2491997072 1.7730203335 25.3732149879
6149 1 3.51256 28.2151 35.2355 12 10.9897828435 1.7542048687 25.1096526352
6150 1 5.37888 29.9283 35.2773 12 11.1873961764 1.7427664566 24.2351023562
6151 1 5.25027 28.2458 37.1207 12 11.1371593675 1.7567921602 25.1688260064
6152 1 3.57404 30.0794 36.9863 12 11.1295034388 1.7576625873 26.6630894352
6153 1 7.16411 28.2339 35.401 12 11.0389741885 1.7610712764 22.6694216478
6154 1 8.92835 29.9439 35.2719 12 11.161180449 1.7440185976 21.9442990964
6155 1 8.81543 28.3019 37.2044 12 11.066952689 1.7569305818 23.0200626306
6156 1 7.02728 30.0135 37.0586 12 11.3075345577 1.7569305818 24.4293192372
6157 1 10.6994 28.2015 35.328 12 11.1144099197 1.7422028748 20.4536933031
6158 1 12.3799 30.0367 35.3299 12 11.0302902081 1.7772856603 20.1175645739
6159 1 12.4671 28.3247 37.1555 12 10.7253797144 1.7422781849 21.095038984
6160 1 10.6101 30.0406 37.0571 12 11.0895126665 1.7430068911 22.4094854729
6161 1 14.1023 28.2733 35.4314 12 10.9542231319 1.7549929739 18.875996826
6162 1 15.8534 30.0963 35.3568 12 10.8035442512 1.7549929739 18.5263885536
6163 1 15.9281 28.2721 37.1976 12 11.1649297284 1.7549929739 19.7093842486
6164 1 14.1014 30.1074 37.0539 12 10.9515646712 1.7530309212 20.7446340342
6165 1 17.643 28.3642 35.4176 12 10.8971117276 1.7541498129 17.4975398528
6166 1 19.3929 30.2014 35.3927 12 10.9414174045 1.7515929846 17.4494994506
6167 1 19.3308 28.3791 37.2318 12 11.1566036203 1.7515929846 18.7479224328
6168 1 17.5462 30.0962 37.1127 12 11.1323358161 1.7490404679 19.4945782904
6169 1 21.1359 28.3947 35.3389 12 11.1874456372 1.7947616505 16.6046058159
6170 1 22.8772 30.0116 35.3028 12 10.8997738939 1.7728654147 16.8257587059
6171 1 22.9373 28.3306 37.0638 12 11.0948945668 1.789103955 18.1294741552
6172 1 21.149 30.0144 37.1197 12 11.1215232723 1.747840097 18.7114766589
6173 1 24.5934 28.1973 35.2224 12 11.5721746382 1.7965487925 16.3160736122
6174 1 26.5015 30.109 35.2726 12 11.0757524301 1.7965487925 16.8338420101
6175 1 26.5945 28.2576 37.1183 12 11.2380143073 1.7965487925 18.3338857862
6176 1 24.6607 30.092 37.1118 12 11.3992731607 1.7929746622 18.538590393
6177 1 28.178 28.2868 35.3836 12 11.0858139608 1.7965487925 16.8676670518
6178 1 30.0717 30.0181 35.3471 12 11.3391407392 1.7728374732 17.6045171197
6179 1 30.0223 28.1742 37.1474 12 11.0576218541 1.7862705758 18.9953249172
6180 1 28.2393 30.0353 37.0867 12 10.8637656033 1.7768507513 18.8167720051
6181 1 31.776 28.23 35.315 12 11.1365069134 1.7862705758 17.8664109218
6182 1 33.5871 29.9737 35.2963 12 11.1170062635 1.7808424505 18.9013951806
6183 1 33.6551 28.2788 37.0818 12 11.2096812588 1.7861413769 20.2311539943
6184 1 31.8532 29.9843 37.1793 12 11.2951092341 1.7862705758 19.8715103493
6185 1 35.4061 28.2029 35.2771 12 10.8638048914 1.7471138286 19.4293084671
6186 1 37.099 30.0662 35.2946 12 10.7521254679 1.7841785982 20.7289732747
6187 1 37.1043 28.2551 37.1264 12 11.3110753877 1.7864489852 21.8651027834
6188 1 35.2864 30.0331 37.1189 12 11.0032590184 1.7864544173 21.2867978157
6189 1 38.8169 28.2635 35.1834 12 11.1708373845 1.7503444016 21.2714865197
6190 1 40.6532 29.9534 35.3118 12 11.1091754441 1.7680317819 22.8599974006
6191 1 40.5737 28.3406 37.1179 12 11.1367306086 1.7499254465 23.8607348654
6192 1 38.8518 30.0629 36.9874 12 11.199290019 1.7864544173 23.0527978183
6193 1 -0.0304179 31.7319 35.3086 12 11.054026639 1.7731594652 24.4757700437
6194 1 1.72479 33.5495 35.1997 12 11.5553974317 1.7746444136 26.1809822707
6195 1 1.75105 31.8683 37.0261 12 11.0731634859 1.764600144 26.8943173612
6196 1 -0.0261329 33.5935 37.0825 12 11.5782889359 1.7731594652 26.2687124731
6197 1 3.63372 31.8206 35.2786 12 11.0985206905 1.7746444136 26.0568528549
6198 1 5.38595 33.614 35.3058 12 10.9662789507 1.7716201761 25.5662115147
6199 1 5.27382 31.8303 37.0593 12 10.9913979063 1.7633850895 26.1128854455
6200 1 3.55983 33.5907 37.1033 12 11.1871556788 1.7746444136 27.9034088373
6201 1 7.18382 31.8661 35.4031 12 11.1625688752 1.745975065 23.7814744818
6202 1 8.85162 33.6043 35.3362 12 10.9363473665 1.7695053104 23.3768133066
6203 1 8.83863 31.7662 37.1978 12 11.1952133392 1.744675554 24.0481050234
6204 1 7.08586 33.5562 37.0669 12 11.2832533366 1.7790330215 25.6366482844
6205 1 10.4938 31.8309 35.3289 12 11.1977018124 1.7772856603 21.7389536172
6206 1 12.3364 33.5877 35.365 12 11.2684162312 1.7772600903 21.397296705
6207 1 12.2765 31.799 37.1705 12 11.282705033 1.7772856603 22.1921062061
6208 1 10.5433 33.6171 37.0376 12 11.1974145313 1.7498323551 23.6204206392
6209 1 14.1133 31.8537 35.4276 12 11.0330911028 1.7764783869 19.9089642382
6210 1 15.9582 33.6179 35.2645 12 10.7980300902 1.7606463165 19.6979002232
6211 1 15.8482 31.9021 37.0365 12 10.8085350777 1.7482482142 20.5507814069
6212 1 14.2 33.7046 37.2044 12 11.0479962228 1.7615744521 22.014613031
6213 1 17.6456 31.8629 35.3368 12 10.9992570275 1.7694764948 18.4479087741
6214 1 19.5102 33.5617 35.3032 12 11.0894365691 1.772189932 18.6351648773
6215 1 19.3825 31.8184 37.1553 12 11.1163333276 1.7490404679 19.6058756233
6216 1 17.6041 33.5799 37.1 12 11.0899432019 1.7557927841 20.6775260782
6217 1 21.1761 31.7881 35.4059 12 10.9113522675 1.7710927339 17.6819542307
6218 1 22.9666 33.5518 35.3563 12 10.969434655 1.7728654147 18.0416497271
6219 1 23.0183 31.6962 37.1089 12 10.9752957466 1.7727718025 19.0220453894
6220 1 21.2424 33.4275 37.1832 12 11.052500063 1.7638243229 19.9017099646
6221 1 24.7752 31.8275 35.3808 12 10.7579331247 1.7728654147 17.3344812163
6222 1 26.5472 33.533 35.3168 12 10.7565817217 1.7503991863 17.9872699134
6223 1 26.534 31.7981 37.0027 12 10.867889016 1.7784970443 18.9452284928
6224 1 24.767 33.5777 37.0422 12 11.080346798 1.7706615212 19.506695232
6225 1 28.2934 31.8061 35.3404 12 10.7508688053 1.7644476286 17.6363987426
6226 1 30.1377 33.5439 35.4286 12 10.9371526094 1.7644476286 18.780866595
6227 1 29.986 31.7469 37.1625 12 10.9665251879 1.7643764622 19.6962143107
6228 1 28.2876 33.5517 37.1511 12 11.0495177638 1.7674108391 19.9035799652
6229 1 31.854 31.7698 35.4301 12 10.9890605207 1.7819280753 18.7363411214
6230 1 33.4366 33.5664 35.392 12 10.9062883557 1.7819280753 19.9467798954
6231 1 33.6482 31.7457 37.1852 12 10.9114662178 1.7814340016 20.977717264
6232 1 31.8436 33.499 37.1521 12 10.6343575124 1.7525632165 20.8034242411
6233 1 35.4099 31.685 35.2992 12 11.0818389059 1.7819280753 20.2126946974
6234 1 37.0712 33.5513 35.3139 12 11.0164613973 1.769425913 21.7026032965
6235 1 37.032 31.8336 37.0861 12 11.121234373 1.7864544173 22.5545015128
6236 1 35.3484 33.6196 37.0763 12 11.1257897877 1.7380023579 22.2123351925
6237 1 38.8082 31.7559 35.2782 12 10.8890704565 1.7680317819 22.1614748217
6238 1 40.6556 33.4855 35.3524 12 11.119098756 1.7680317819 23.908343471
6239 1 40.4949 31.8252 37.0989 12 11.3245162928 1.7731594652 24.5530301469
6240 1 38.7309 33.5456 37.1219 12 11.1235924878 1.7579663285 24.0139215079
6241 1 42.3168 35.3315 35.2131 12 11.3476141248 1.7611809788 25.5583865491
6242 1 1.61664 37.1252 35.3113 12 10.9681307856 1.7642251357 27.496656981
6243 1 1.81415 35.3559 37.0054 12 11.502975354 1.7644984458 28.0269604202
6244 1 42.3646 37.1049 37.0307 12 11.3139196064 1.7649440106 27.4365730894
6245 1 3.56578 35.3621 35.3101 12 11.1283601617 1.7746444136 27.5066183705
6246 1 5.34714 37.1164 35.2552 12 10.8507515766 1.7479937989 27.0527632352
6247 1 5.20509 35.413 37.1297 12 11.2327072061 1.7650555028 27.5897364188
6248 1 3.45796 37.0843 36.9981 12 10.9644217545 1.7649440106 29.349462214
6249 1 7.05748 35.4684 35.3717 12 11.0333453588 1.7804075852 25.2841969861
6250 1 8.86845 37.306 35.4299 12 10.9102458075 1.7386988488 25.0514980888
6251 1 8.75373 35.4271 37.0693 12 10.9689529033 1.7437442491 25.3637918796
6252 1 7.00663 37.1663 37.1396 12 10.9883734617 1.7523707267 27.2013337523
6253 1 10.6115 35.452 35.332 12 11.0470422509 1.7489517315 23.1088188713
6254 1 12.3743 37.2048 35.2841 12 11.1257224756 1.7571453494 23.0361425203
6255 1 12.3545 35.4005 37.0553 12 11.2276625967 1.7610008349 23.4442712867
6256 1 10.467 37.1031 37.1709 12 10.8917631518 1.7661960185 25.2564036196
6257 1 14.2176 35.3717 35.3977 12 11.0832066433 1.7615744521 21.3328016073
6258 1 15.8774 37.109 35.3512 12 11.1666189097 1.7621569552 21.5636671019
6259 1 15.956 35.3557 37.0439 12 10.9388577548 1.7609393155 21.9448767864
6260 1 14.0826 37.1921 37.1965 12 11.3392506652 1.7704298434 23.6732653242
6261 1 17.6672 35.3187 35.2924 12 11.0868665686 1.7738790767 19.9641761936
6262 1 19.3261 37.1386 35.3606 12 11.0272004685 1.7738790767 20.4452611342
6263 1 19.4772 35.2566 37.0511 12 11.2367111395 1.7732277082 20.9005680723
6264 1 17.6859 37.1462 37.1681 12 11.0183709684 1.7617813424 22.3881127801
6265 1 21.2018 35.2233 35.4137 12 11.0109638728 1.7738790767 19.0896952835
6266 1 22.9107 37.0496 35.3275 12 11.1156130509 1.7630445468 19.7106079444
6267 1 22.9715 35.3558 37.0958 12 11.1100143341 1.7643136545 20.378156685
6268 1 21.1366 37.0371 37.1781 12 10.9896724147 1.7505803565 21.4947858161
6269 1 24.7214 35.3862 35.3325 12 10.848894234 1.7506150093 18.7537559018
6270 1 26.5114 37.0266 35.2484 12 10.984115262 1.7712832147 19.6139446929
6271 1 26.5412 35.2664 36.9862 12 11.2065554632 1.8130935732 20.2308486604
6272 1 24.7669 37.0847 36.9924 12 10.8881122693 1.7674406736 21.0436831351
6273 1 28.3666 35.2839 35.252 12 11.1206054349 1.7674108391 18.9693862846
6274 1 30.1242 37.0723 35.3074 12 11.1489548418 1.7790447304 20.3213275787
6275 1 30.1135 35.2052 37.1564 12 11.0548756368 1.7674108391 20.963163683
6276 1 28.2535 37.0774 37.0246 12 11.1307558136 1.7674108391 21.3467355686
6277 1 31.8464 35.3271 35.3677 12 11.0645570346 1.7666439293 20.0312930887
6278 1 33.5563 37.1389 35.326 12 10.9390285534 1.7537196576 21.523574235
6279 1 33.5725 35.2834 37.0509 12 10.9119151304 1.7542737615 22.0384173787
6280 1 31.8545 37.1304 37.1046 12 10.9549672149 1.7492559115 22.3044468932
6281 1 35.3497 35.3787 35.2449 12 10.8444768802 1.7699707228 21.4418836554
6282 1 36.9916 37.1317 35.2955 12 10.8613501631 1.774477251 23.108310399
6283 1 37.0338 35.3665 37.1146 12 11.2698382906 1.7820867353 23.7095874262
6284 1 35.283 37.1004 36.9701 12 11.0630240337 1.7783486398 23.4952320257
6285 1 38.8833 35.2638 35.3102 12 11.2778845559 1.7699707228 23.3825736486
6286 1 40.597 37.0394 35.3356 12 11.10687105 1.7673609565 25.1817161945
6287 1 40.5425 35.2806 37.0704 12 11.2862178703 1.7601190963 25.6330716913
6288 1 38.8601 37.1235 37.0527 12 11.2673527895 1.7743820518 25.3617509682
6289 1 42.3276 38.9487 35.3697 12 11.0235444512 1.7575939434 27.1651234738
6290 1 1.62094 40.6793 35.2928 12 10.8332279345 1.7588728184 29.0859755663
6291 1 1.76022 38.9006 37.188 12 11.1124740914 1.7649440106 29.4682941967
6292 1 42.3486 40.6141 37.1252 12 11.156174604 1.7662536771 29.061094846
6293 1 3.31138 38.8815 35.3486 12 10.8758917393 1.7588728184 29.264330996
6294 1 5.21353 40.4417 35.3692 12 10.7873441315 1.7555055658 28.8657743603
6295 1 5.16007 38.7917 37.1173 12 10.9253099113 1.7370115236 29.0824967909
6296 1 3.51923 40.6602 37.0291 12 10.971322269 1.7588728184 30.996888418
6297 1 6.98564 38.8215 35.3771 12 10.5972773143 1.7178755198 26.9116357578
6298 1 8.81624 40.557 35.3552 12 10.9269675812 1.7535195779 26.7995222994
6299 1 8.78063 38.9743 37.1697 12 10.6827231967 1.7476288528 27.0868779193
6300 1 7.03332 40.589 37.0742 12 10.8102150728 1.7494646355 28.856419469
6301 1 10.6016 38.9112 35.4412 12 10.8500581862 1.7341703697 24.9613089221
6302 1 12.3919 40.5762 35.3375 12 11.0924435706 1.7689032711 25.0275853879
6303 1 12.3243 38.8698 37.1744 12 11.2226075413 1.7699570581 25.2933990774
6304 1 10.5154 40.6033 37.1201 12 10.7459432781 1.7699570581 27.0704523396
6305 1 14.1901 38.8979 35.381 12 11.0083333094 1.756898628 23.265098515
6306 1 15.9681 40.6701 35.3289 12 10.9881299922 1.7563132711 23.5561947119
6307 1 15.9229 38.9471 37.0945 12 11.2125530314 1.7621569552 23.8639243789
6308 1 14.1018 40.6902 37.1513 12 11.4609920424 1.7691744454 25.5864235774
6309 1 17.6391 38.891 35.3143 12 11.093833548 1.7633861119 21.8927974414
6310 1 19.4639 40.5972 35.3055 12 11.0751627509 1.7700404935 22.4146150463
6311 1 19.5307 38.9236 37.1055 12 10.902396253 1.7592466926 22.7653162334
6312 1 17.7373 40.6314 37.1235 12 11.2406832547 1.7805801457 24.2380176544
6313 1 21.1376 38.831 35.3543 12 10.9396799152 1.7672205746 21.0032266921
6314 1 23.0235 40.6762 35.3494 12 11.3646438677 1.7711558866 21.9256012395
6315 1 22.9503 38.8214 37.0695 12 11.1031672477 1.766584363 22.1346111391
6316 1 21.2196 40.6057 37.0757 12 10.9402884912 1.7671459706 23.4065289813
6317 1 24.7915 38.8415 35.286 12 11.3026189601 1.7726069859 20.6318398723
6318 1 26.5582 40.6625 35.2286 12 11.5548537876 1.8157572882 21.8231723438
6319 1 26.5391 38.8088 37.0182 12 11.2033018793 1.8160607717 22.0746604561
6320 1 24.6727 40.6123 37.1356 12 11.4071130713 1.8152811478 23.1806718792
6321 1 28.3238 38.7972 35.3832 12 11.1439206709 1.7796082173 20.9777727219
6322 1 30.0712 40.6444 35.3174 12 11.194310712 1.7796082173 22.4328439426
6323 1 30.0354 38.7888 37.1297 12 10.914319318 1.7796082173 22.6963311995
6324 1 28.4233 40.6211 37.0427 12 11.1656742595 1.8160607717 23.3935880074
6325 1 31.8785 38.7833 35.2917 12 10.9663222954 1.7796082173 21.7791366836
6326 1 33.459 40.5737 35.3198 12 10.930987195 1.7590622014 23.4176524167
6327 1 33.6506 38.9117 37.0647 12 10.74816295 1.741627378 23.8059168069
6328 1 31.7282 40.5631 37.0408 12 10.7953357161 1.7339763331 24.0897487643
6329 1 35.286 38.8983 35.2668 12 10.939310229 1.7479215379 23.1560303972
6330 1 37.1555 40.6893 35.2957 12 11.0382231149 1.7661353525 25.0705737878
6331 1 37.1198 38.9135 37.0802 12 11.2649804745 1.774477251 25.3119010023
6332 1 35.4027 40.586 37.0494 12 10.7663932296 1.7372542544 25.4090115858
6333 1 38.7737 38.8461 35.2276 12 10.9765391749 1.7479215379 24.8763056631
6334 1 40.5027 40.6444 35.346 12 10.9862954385 1.7412962441 26.8833725113
6335 1 40.5552 38.8792 37.0219 12 11.2905343568 1.7570995973 27.09398703
6336 1 38.7809 40.8051 37.0711 12 10.8606391775 1.7476509257 27.1243271049
6337 1 42.4071 42.3412 38.9715 12 11.0921728286 1.7662536771 30.481807833
6338 1 1.72864 1.6609 38.8708 12 11.3916532117 1.8033112135 32.5879851308
6339 1 1.85624 42.3445 40.6908 12 11.2500879032 1.8004433547 30.6810321755
6340 1 42.3068 1.70243 40.5727 12 11.312352887 1.8033112135 30.6203234205
6341 1 3.45481 -0.00174087 38.8715 12 11.2973763712 1.7636399399 31.1918062114
6342 1 5.27446 1.83629 38.7465 12 11.2042182957 1.7636399399 31.2348785776
6343 1 5.28928 42.3674 40.6329 12 11.2945621664 1.7636399399 29.0517007596
6344 1 3.61301 1.77125 40.6421 12 11.6883053252 1.8024278444 31.1279519645
6345 1 7.00546 0.03594 38.9193 12 10.9920034856 1.7626691028 29.1175634741
6346 1 8.7413 1.63285 38.8461 12 11.1070321339 1.7589618845 29.2349512
6347 1 8.7365 0.0126873 40.7113 12 11.4117387553 1.7718564855 27.1087161947
6348 1 6.99424 1.85806 40.6965 12 11.2163187201 1.7598577042 29.2051499788
6349 1 10.5861 0.0221864 38.8571 12 11.309150131 1.7525110282 27.366551191
6350 1 12.3724 1.72501 38.9075 12 10.8749185471 1.7418200594 27.6879502947
6351 1 12.3174 0.0364899 40.7668 12 10.67768718 1.7414694641 25.4097879918
6352 1 10.5873 1.73618 40.7124 12 11.1287208566 1.760897101 27.3289336473
6353 1 14.0805 0.0014814 38.867 12 11.0832864466 1.7667794553 25.9687765777
6354 1 15.7883 1.7003 38.9355 12 11.1387690998 1.8013781717 26.5480638942
6355 1 15.8765 0.025026 40.6932 12 11.1962070062 1.763470269 24.1930531216
6356 1 13.9038 1.65906 40.6304 12 10.5892388059 1.7450399517 26.0057089275
6357 1 17.6386 42.3884 38.8309 12 11.3038500564 1.7803711333 24.9882567402
6358 1 19.3586 1.73775 38.8221 12 10.9251496541 1.7586016578 25.9332131443
6359 1 19.4492 0.0728243 40.6429 12 11.2084751318 1.7633130682 23.4829836903
6360 1 17.6439 1.81635 40.6622 12 11.0656195251 1.7642283647 25.0632804983
6361 1 21.17 -0.0310317 38.9147 12 10.9066162425 1.7591955938 24.4438798162
6362 1 22.9612 1.7326 38.9087 12 11.151460824 1.7572231135 25.6335692312
6363 1 22.9592 42.3953 40.5428 12 10.9714641314 1.759705113 23.2258140732
6364 1 21.1679 1.70049 40.7075 12 11.0461149154 1.7579782588 24.4570831407
6365 1 24.7531 42.352 38.798 12 11.0804995218 1.759705113 24.5116978606
6366 1 26.5813 1.77461 38.7869 12 10.901019718 1.7478733306 26.0168635016
6367 1 26.5242 42.2832 40.5 12 11.0666453923 1.7596731243 23.4640393324
6368 1 24.8137 1.70918 40.603 12 11.2301158844 1.7594621768 24.5526674718
6369 1 28.2839 42.4001 38.811 12 10.7703252612 1.7620799795 25.0573169997
6370 1 30.0194 1.70127 38.8908 12 11.1376112564 1.805693632 26.6070535517
6371 1 30.0269 42.388 40.6194 12 10.8262807449 1.7366937434 24.252931674
6372 1 28.2932 1.79479 40.513 12 10.7694910875 1.7478733306 25.1926384067
6373 1 31.792 42.3953 38.8476 12 10.9966434149 1.7753103594 25.9567308757
6374 1 33.5835 1.78127 38.8325 12 10.9576376779 1.7772479805 27.7467106608
6375 1 33.5642 0.0104978 40.492 12 10.9741306086 1.7646816562 25.4503836552
6376 1 31.7836 1.70101 40.579 12 10.8232061437 1.777879712 26.0254925653
6377 1 35.2271 42.3343 38.8788 12 10.7734205773 1.7344395918 27.029597109
6378 1 37.026 1.77456 38.8314 12 10.9120088331 1.7694680046 29.019423917
6379 1 36.9392 -0.00669568 40.6107 12 10.8183391808 1.7697396154 26.7205503725
6380 1 35.3013 1.80528 40.5479 12 10.9168347621 1.7828891651 27.3047258962
6381 1 38.812 42.3647 38.8649 12 10.817551211 1.7478333886 28.6342108773
6382 1 40.617 1.64633 38.7597 12 11.0239032652 1.7508841479 30.6689536151
6383 1 40.5857 0.0392821 40.5916 12 10.8187967827 1.7463287067 28.6041793122
6384 1 38.8572 1.70497 40.5404 12 10.9242662042 1.7697396154 28.8047687464
6385 1 42.3301 3.55458 38.8148 12 11.4477237986 1.7840698774 31.2539216258
6386 1 1.59381 5.32645 38.8339 12 11.2758667031 1.7679961226 31.16497251
6387 1 1.80055 3.60428 40.6184 12 11.5822883424 1.8033112135 31.223023604
6388 1 42.3695 5.26851 40.6644 12 11.2796812514 1.7840698774 29.170750898
6389 1 3.4979 3.51285 38.8575 12 11.2507041447 1.7679961226 32.6720510568
6390 1 5.2714 5.15261 38.7353 12 11.0330258294 1.7606732032 30.8427370626
6391 1 5.40459 3.54119 40.6425 12 11.004374764 1.7459616465 30.5970087652
6392 1 3.64372 5.26018 40.6729 12 11.2612163835 1.7679961226 30.5066127727
6393 1 7.04828 3.46407 38.7772 12 10.9416506133 1.7593441952 30.960653219
6394 1 8.78653 5.23558 38.7911 12 11.2868236235 1.7605302417 29.0810813539
6395 1 8.78196 3.5236 40.5984 12 11.1823528713 1.760897101 29.0076190489
6396 1 7.02384 5.3326 40.5115 12 11.0502205857 1.7598374609 28.7359401865
6397 1 10.6434 3.41117 38.8674 12 11.2037838715 1.7594594941 29.3821906251
6398 1 12.2415 5.18141 38.8187 12 11.1673772738 1.7415635173 27.6423969647
6399 1 12.3301 3.51486 40.6209 12 11.0478581409 1.754811013 27.4890703041
6400 1 10.4301 5.23585 40.6892 12 11.3595760338 1.754811013 27.1356263525
6401 1 14.1973 3.49484 38.8497 12 10.8211202544 1.7452418597 27.9953721528
6402 1 15.9332 5.21262 38.8794 12 10.5984818279 1.7439526212 26.2636245798
6403 1 15.8472 3.45196 40.5707 12 10.5222109578 1.7434511929 26.3082339421
6404 1 14.1468 5.21623 40.5216 12 10.9622153589 1.7498108186 25.7796020749
6405 1 17.5958 3.46644 38.8588 12 10.709975921 1.7577094646 26.9078949275
6406 1 19.4186 5.23967 38.915 12 10.8866542137 1.7285975211 25.2597408361
6407 1 19.4783 3.55452 40.5359 12 10.9458080745 1.758803659 25.2519143827
6408 1 17.6669 5.24059 40.5291 12 10.6437021744 1.7382916543 24.5510289742
6409 1 21.2343 3.45187 38.8973 12 11.1522957118 1.7653267967 26.1501895227
6410 1 23.1688 5.13929 38.8401 12 11.2640513388 1.7591178734 24.8536243795
6411 1 22.9819 3.5458 40.7269 12 11.1085106898 1.7572231135 24.6256558749
6412 1 21.2519 5.24275 40.546 12 11.1137372299 1.7883762087 23.7425428578
6413 1 24.8298 3.46399 38.9701 12 11.0258874255 1.7546030783 25.8432515564
6414 1 26.6448 5.28395 38.8753 12 11.0383476301 1.7619598747 24.744883969
6415 1 26.5778 3.53402 40.6467 12 10.8037895005 1.7557717367 24.683611303
6416 1 24.7839 5.28549 40.618 12 11.2038860846 1.7582326595 23.3921167919
6417 1 28.2987 3.54288 38.8859 12 10.9602041097 1.7911828825 26.0822463512
6418 1 30.2119 5.32065 38.8133 12 10.8773214583 1.7542588834 25.2824427505
6419 1 30.0682 3.56527 40.6117 12 11.0081546054 1.7542588834 25.1758012689
6420 1 28.3054 5.38793 40.5349 12 10.8333181662 1.7552120242 23.6402006874
6421 1 31.8979 3.57573 38.9332 12 11.0741479552 1.777879712 26.7465377144
6422 1 33.679 5.24314 38.8197 12 11.2666847539 1.7413388551 26.2854023694
6423 1 33.5347 3.46083 40.6913 12 10.8399592071 1.7379832596 26.1408145553
6424 1 31.9174 5.3564 40.632 12 10.9539768037 1.7612074558 24.3897392027
6425 1 35.4297 3.49585 38.8888 12 10.9369976162 1.7379832596 27.971403032
6426 1 37.0127 5.33719 38.7498 12 11.0734369624 1.7560474114 27.5806035606
6427 1 37.2149 3.51998 40.5298 12 11.035372102 1.7697396154 27.6472628564
6428 1 35.3633 5.28817 40.7205 12 11.2632114583 1.7494822712 25.5914073386
6429 1 38.8441 3.50035 38.8597 12 11.0720021462 1.7560474114 29.4526678976
6430 1 40.5592 5.2268 38.7477 12 11.4229441686 1.7676500902 29.3631725483
6431 1 40.5573 3.38853 40.6484 12 11.4154412852 1.7840292557 29.3117857669
6432 1 38.8557 5.31772 40.6164 12 11.1940675588 1.7676500902 27.2640489153
6433 1 42.3134 7.10022 38.8518 12 11.21026458 1.760136998 29.1796538793
6434 1 1.77537 8.83923 38.8241 12 11.3114783012 1.7647088776 29.4472210834
6435 1 1.76716 6.95698 40.5672 12 11.3349112241 1.7786157723 29.3674359526
6436 1 42.369 8.78377 40.6542 12 10.9279987411 1.7599096684 27.227979796
6437 1 3.52593 7.02766 38.7791 12 11.2627727082 1.7679961226 30.7505732329
6438 1 5.22783 8.8975 38.7478 12 11.0673399347 1.735641251 28.8671620994
6439 1 5.24534 7.07765 40.4365 12 11.2119106952 1.7479693373 28.7080905296
6440 1 3.44026 8.74832 40.6543 12 11.2169655647 1.7821272959 28.7692232029
6441 1 7.00286 7.0264 38.7018 12 11.2051020874 1.7605302417 28.931557716
6442 1 8.83337 8.70444 38.8042 12 11.1455762255 1.7380211086 27.0748366326
6443 1 8.70998 7.06905 40.5852 12 10.9199707454 1.7371394593 26.8294438206
6444 1 7.01252 8.77019 40.6564 12 11.0421581881 1.741548468 26.6839398698
6445 1 10.5979 6.95274 38.8531 12 11.2588207282 1.7548635064 27.2111769863
6446 1 12.3765 8.66955 38.8191 12 11.1301757891 1.7605009731 25.4446797254
6447 1 12.3534 6.92639 40.6683 12 11.3661457069 1.754314586 25.2758787909
6448 1 10.5213 8.67846 40.6222 12 11.0439351394 1.7788687073 25.0416262606
6449 1 14.0769 6.97588 38.8622 12 11.1295003287 1.7509033218 25.7746329446
6450 1 15.8737 8.69269 38.9777 12 11.0726104042 1.7712427537 24.0345398748
6451 1 15.9821 6.90507 40.6712 12 10.8551962663 1.7498108186 23.9238919498
6452 1 14.1424 8.70533 40.6375 12 11.1637107387 1.753248242 23.448789208
6453 1 17.6484 7.1052 38.9416 12 10.9209127935 1.7419550768 24.5265118878
6454 1 19.4899 8.80905 38.8545 12 11.133029371 1.7616280851 23.1408100102
6455 1 19.5365 7.03277 40.6082 12 11.1808194309 1.7600457666 22.8406132825
6456 1 17.6582 8.87772 40.5674 12 11.0203002529 1.7616280851 22.2363352017
6457 1 21.318 6.99069 38.7942 12 11.2820464589 1.7591178734 23.9100938548
6458 1 23.0337 8.91853 38.9089 12 11.2446868072 1.7548373406 22.4955177902
6459 1 22.9987 7.01636 40.618 12 11.2435402108 1.7591178734 22.2996186647
6460 1 21.2359 8.9038 40.5363 12 11.1789886879 1.7614856779 21.4089050846
6461 1 24.8145 7.1288 38.7764 12 11.3745020686 1.7618952994 23.5824115076
6462 1 26.5309 8.80343 38.8791 12 11.1134581917 1.7619598747 22.5795947529
6463 1 26.5242 7.04461 40.701 12 11.2726932406 1.7619598747 22.2100332358
6464 1 24.7168 8.74167 40.6404 12 11.0439130354 1.7392790421 21.1221421645
6465 1 28.3646 7.01588 38.7844 12 10.869067615 1.7619598747 23.9100797656
6466 1 30.0051 8.71774 38.8336 12 10.9390859291 1.7669675106 23.1885330094
6467 1 30.0613 7.06737 40.588 12 10.9297467418 1.764893893 22.8259885281
6468 1 28.3371 8.80516 40.5822 12 11.2064963852 1.7562481584 21.4214644655
6469 1 31.876 7.12628 38.8363 12 11.2001005902 1.7674445014 24.5727613803
6470 1 33.5758 8.89589 38.7934 12 11.0888060366 1.7787471296 24.1611722054
6471 1 33.6763 7.08259 40.639 12 11.308680666 1.7674445014 23.8718270478
6472 1 31.8395 8.99621 40.574 12 11.2885988162 1.7674445014 22.1645703699
6473 1 35.3209 7.03358 38.7607 12 11.0781026156 1.7825755846 25.8806057303
6474 1 37.0935 8.80215 38.7721 12 11.0803386076 1.7676582001 25.6185937838
6475 1 37.1658 6.98306 40.6104 12 11.1428273126 1.7891273571 25.4490002282
6476 1 35.3701 8.77762 40.5662 12 11.1566333722 1.7566074414 23.6280205491
6477 1 38.8317 7.00256 38.7812 12 11.1986422794 1.7560474114 27.4411815021
6478 1 40.6667 8.89547 38.9577 12 10.8319114284 1.7510177639 27.2349534783
6479 1 40.6799 7.08311 40.6183 12 10.9470872731 1.7626109743 27.2007802834
6480 1 38.856 8.71104 40.4664 12 11.2039959865 1.7830190142 25.3817398231
6481 1 42.3855 10.5882 38.7933 12 10.9985279536 1.7762421634 27.5242558287
6482 1 1.73216 12.2249 38.8655 12 11.047904918 1.7779095855 27.9281608267
6483 1 1.74204 10.5993 40.7265 12 10.9805090384 1.7821272959 27.4698041115
6484 1 42.3505 12.239 40.6167 12 11.0210870154 1.7766087653 25.6128624167
6485 1 3.44131 10.5247 38.903 12 10.9221398455 1.7821272959 29.0698752436
6486 1 5.30481 12.2833 38.8246 12 10.8737318249 1.7402271272 27.2860158215
6487 1 5.30419 10.5084 40.6693 12 11.101562336 1.7821272959 26.7820116183
6488 1 3.57031 12.311 40.5502 12 10.8911105736 1.7820496702 27.1768549041
6489 1 6.96514 10.4465 38.8095 12 10.9691233171 1.743132636 27.1490029676
6490 1 8.76781 12.1017 38.7897 12 11.1044373982 1.7603165635 25.4842468984
6491 1 8.78531 10.5359 40.5214 12 10.9066291459 1.779292356 24.9490116735
6492 1 7.04174 12.3121 40.5116 12 10.6374936267 1.741134146 25.0754125686
6493 1 10.5807 10.4054 38.8504 12 11.1767733451 1.7793015687 25.3114027799
6494 1 12.3641 12.2708 38.9287 12 11.009318541 1.7582319181 23.4854210843
6495 1 12.3421 10.4286 40.6177 12 11.3427398492 1.7793015687 23.2180920149
6496 1 10.6494 12.2702 40.6528 12 11.1791527008 1.7793015687 23.0778165285
6497 1 14.1357 10.4732 38.9556 12 11.0464875895 1.7605009731 23.6254210167
6498 1 15.9112 12.292 38.9027 12 11.0221998648 1.7744821365 22.0845424858
6499 1 15.8872 10.5324 40.7232 12 10.8239130995 1.7591359352 21.6480618894
6500 1 14.2027 12.2528 40.656 12 11.0009163652 1.7477216701 21.3860067392
6501 1 17.641 10.6339 38.8578 12 11.0678433937 1.7661896941 22.5005445128
6502 1 19.4295 12.3634 38.9094 12 11.0670075204 1.7665970487 21.1427014125
6503 1 19.3654 10.6183 40.6177 12 11.1091211846 1.7641789686 20.7353443495
6504 1 17.5777 12.303 40.6492 12 10.7956639223 1.7614969976 20.1774818355
6505 1 21.1383 10.702 38.8474 12 11.2217917419 1.7604511242 21.815495445
6506 1 23.0288 12.4257 38.8691 12 10.9829335892 1.7436534105 20.7480340566
6507 1 23.1182 10.6964 40.5285 12 11.1636643508 1.7604511242 20.1653269489
6508 1 21.1531 12.4749 40.7518 12 11.1325617701 1.7604511242 19.282310776
6509 1 24.8055 10.5693 38.7372 12 10.9482563611 1.7284185983 21.6882450494
6510 1 26.4981 12.4086 38.7701 12 10.9902105824 1.7319016619 20.8535683431
6511 1 26.5165 10.5146 40.5548 12 11.263706326 1.7514374941 20.241886303
6512 1 24.8314 12.3298 40.5929 12 11.1043709919 1.7652678705 19.2062637846
6513 1 28.2439 10.6517 38.7392 12 11.2161982267 1.7514374941 21.9148597913
6514 1 30.1426 12.4242 38.7749 12 10.9870902997 1.7605121824 21.3486372579
6515 1 30.0288 10.62 40.4869 12 11.448620059 1.7699711004 20.8329023256
6516 1 28.2298 12.284 40.7494 12 11.4364907616 1.7654332417 19.3900703734
6517 1 31.7643 10.6548 38.7352 12 11.0745821789 1.7669675106 22.6880700816
6518 1 33.6557 12.3428 38.8081 12 10.8541087058 1.7557770534 22.3687853049
6519 1 33.5171 10.5728 40.5531 12 10.9357657816 1.7566074414 21.8870748888
6520 1 31.9071 12.4034 40.5738 12 11.1202938018 1.7620293357 20.3387769523
6521 1 35.3276 10.5768 38.8462 12 10.9675953283 1.7676481037 23.8581345913
6522 1 37.0988 12.3288 38.8494 12 11.475874871 1.7676582001 23.7975275965
6523 1 37.1163 10.5436 40.6954 12 11.0469933083 1.7705264177 23.3449017694
6524 1 35.2727 12.3142 40.6148 12 10.9098148328 1.7546571991 21.6293923241
6525 1 38.8654 10.5691 38.7719 12 10.9765634401 1.7705264177 25.5583937937
6526 1 40.6199 12.3565 38.8601 12 10.9335487479 1.7779095855 25.6620380815
6527 1 40.6438 10.6012 40.6109 12 10.890857149 1.7705264177 25.2940918791
6528 1 38.9224 12.3148 40.5675 12 11.163891324 1.7815931062 23.5177205474
6529 1 42.3628 14.1739 38.7568 12 11.3433471124 1.7779095855 26.1221344084
6530 1 1.76493 15.9309 38.8001 12 11.1973059716 1.7771983953 26.7919482036
6531 1 1.71814 14.0884 40.5529 12 10.9032709861 1.7498971843 26.1786270769
6532 1 0.0301193 15.8102 40.546 12 10.928724033 1.7728406457 24.4605169834
6533 1 3.41516 14.0059 38.8414 12 11.1055147303 1.7607561903 27.8272369009
6534 1 5.33059 15.8266 38.9673 12 10.8242012194 1.756741224 25.9679096692
6535 1 5.35196 14.0166 40.5193 12 10.7247333209 1.7389687748 25.4247576098
6536 1 3.45231 15.8865 40.549 12 10.8583041731 1.7367756398 26.0723249922
6537 1 7.09079 14.1013 38.9053 12 10.5098490233 1.7286355964 25.5362109271
6538 1 8.79256 15.8823 38.8353 12 10.740802575 1.7425752979 24.0338334164
6539 1 8.83101 14.0497 40.4872 12 11.0462244903 1.7367432975 23.4048628293
6540 1 7.06217 15.9131 40.4932 12 10.8556544621 1.7886165178 23.7743121452
6541 1 10.635 14.0324 38.7797 12 10.9020755663 1.7561676895 23.6990941153
6542 1 12.3505 15.8255 38.9854 12 10.6846181304 1.7348203436 22.0054822198
6543 1 12.3618 14.1006 40.5465 12 10.8204619707 1.7477216701 21.4489395159
6544 1 10.5933 15.8345 40.602 12 10.7281134178 1.7365636824 21.6950583458
6545 1 14.0896 14.0714 38.8965 12 10.9907964502 1.761324244 21.9520272058
6546 1 15.8145 15.8762 38.8953 12 11.0602568933 1.7680206485 20.5792577976
6547 1 15.9267 13.9933 40.6434 12 10.9795702588 1.7680206485 19.8586058521
6548 1 14.1177 15.8362 40.7042 12 11.0547221493 1.767463535 19.7785203652
6549 1 17.6076 14.1706 38.877 12 11.1188164346 1.7665970487 20.7132746332
6550 1 19.3469 15.8848 38.9461 12 10.6729313364 1.7627861553 19.5417209693
6551 1 19.4195 14.106 40.7589 12 10.9344917599 1.7627861553 18.7081797441
6552 1 17.6679 15.887 40.6393 12 10.8944955704 1.7680206485 18.4558992196
6553 1 21.1624 14.1428 38.8328 12 11.0625310639 1.7627183473 20.0995505911
6554 1 22.9354 15.9035 38.9053 12 11.2102326882 1.7436534105 19.190308485
6555 1 22.9928 14.1399 40.6235 12 11.1165189313 1.7650156087 18.4007653168
6556 1 21.158 15.9269 40.6132 12 10.8972023544 1.7468862111 17.732183588
6557 1 24.7681 14.2141 38.9814 12 10.9042165753 1.7656192974 19.8283152675
6558 1 26.6436 15.8687 39.0266 12 10.6387238513 1.7332332294 19.151190111
6559 1 26.5454 14.1334 40.6208 12 10.8906783404 1.7656192974 18.430429077
6560 1 24.7766 15.9095 40.7385 12 10.8526189628 1.7656192974 17.5198252573
6561 1 28.3424 14.0496 38.8411 12 10.9914956975 1.7654332417 20.2187441037
6562 1 30.093 15.8844 38.8907 12 10.8457961114 1.7528553683 19.7562469303
6563 1 30.1517 14.1298 40.4714 12 11.1932753583 1.7654332417 19.0946071844
6564 1 28.3201 15.7996 40.6323 12 10.8151902988 1.7654332417 17.8744845228
6565 1 31.9768 14.1556 38.738 12 10.726281197 1.7557770534 21.0614784358
6566 1 33.588 15.8331 38.7854 12 10.9443617649 1.7656574198 20.9345287416
6567 1 33.612 14.1927 40.5992 12 10.7475108883 1.7574071727 20.0657675096
6568 1 31.7619 15.9423 40.6202 12 11.1420813552 1.7574071727 18.6616550456
6569 1 35.3212 14.0922 38.7453 12 11.0932203587 1.7393854951 22.3182175185
6570 1 37.0837 15.7989 38.7335 12 10.9574722091 1.7783230462 22.549875906
6571 1 37.0714 14.118 40.6313 12 11.1479428056 1.7761149312 21.6824423915
6572 1 35.3228 15.8696 40.4718 12 11.1215577003 1.7783343156 20.2602839377
6573 1 38.85 14.1366 38.8515 12 11.1159384841 1.759796612 23.9660412779
6574 1 40.6438 15.9332 38.9032 12 11.038797032 1.7717292273 24.3874397089
6575 1 40.6704 14.1455 40.6266 12 11.2407959831 1.758795588 23.7724519112
6576 1 38.8724 15.9103 40.5924 12 11.0186177969 1.7783230462 22.0775707358
6577 1 42.3293 17.7188 38.9237 12 11.2999645655 1.7771983953 25.012376654
6578 1 1.77936 19.4775 38.8886 12 11.1140638923 1.7771983953 26.0380213546
6579 1 1.71085 17.6712 40.6688 12 10.9672321584 1.7771983953 25.112901547
6580 1 0.0177719 19.5149 40.6626 12 10.9833211604 1.7506260578 23.5578125318
6581 1 3.53248 17.6826 38.9601 12 10.6758747184 1.7746405671 26.5870478761
6582 1 5.30908 19.4885 38.9718 12 10.7668387816 1.749220344 24.9738721778
6583 1 5.25663 17.6832 40.551 12 10.6275689807 1.7277821363 24.3374816041
6584 1 3.51183 19.3425 40.6786 12 10.8084903443 1.7506260578 25.0338856559
6585 1 6.99219 17.679 38.8614 12 10.802980094 1.7390361033 24.4700855481
6586 1 8.85898 19.4125 38.9376 12 10.8770103901 1.7841705203 22.8912692787
6587 1 8.94745 17.6738 40.5618 12 10.8432714178 1.7390361033 22.0551380405
6588 1 7.13739 19.4469 40.6377 12 10.8927845254 1.7390361033 22.5888937212
6589 1 10.5705 17.6194 38.8663 12 11.0264470884 1.7843852252 22.4984805713
6590 1 12.439 19.4445 38.8125 12 11.2097954302 1.7844589136 21.1514861173
6591 1 12.322 17.6463 40.5898 12 11.0434273849 1.7662861255 20.1748756803
6592 1 10.6766 19.4303 40.6654 12 10.9187413085 1.7844589136 20.5171553122
6593 1 14.1041 17.6276 38.8068 12 11.002999839 1.7566367646 20.7842187738
6594 1 15.9474 19.4645 38.8158 12 10.8618158218 1.7558944902 19.5995955257
6595 1 15.8429 17.7031 40.5792 12 11.0064253529 1.7667631677 18.5073733924
6596 1 14.1223 19.3427 40.5735 12 10.7909742911 1.7566367646 18.8518714002
6597 1 17.6137 17.5545 38.871 12 11.0350034673 1.7683780526 19.4679506023
6598 1 19.3827 19.4739 38.8914 12 11.1989572519 1.7664508749 18.5298570974
6599 1 19.4452 17.5775 40.6191 12 11.0370410945 1.7683780526 17.3962573558
6600 1 17.5278 19.488 40.7072 12 11.1660649377 1.7683780526 17.3137141983
6601 1 21.1934 17.7084 38.9122 12 11.111954181 1.7492659494 18.6713628463
6602 1 22.9572 19.3301 38.9759 12 11.215161408 1.7660824369 18.082203095
6603 1 22.9867 17.6389 40.728 12 11.0254688334 1.7492659494 16.864313942
6604 1 21.0457 19.5085 40.6451 12 11.0245937552 1.7663954688 16.5546041664
6605 1 24.7785 17.5396 38.9507 12 10.9131556194 1.7226407771 18.6127994108
6606 1 26.4821 19.3614 38.8834 12 10.8892160189 1.7688389241 18.284623921
6607 1 26.5843 17.6042 40.6538 12 10.9347126574 1.7585037313 17.0271522006
6608 1 24.7671 19.4249 40.5712 12 11.0588573371 1.7590616803 16.5525160341
6609 1 28.3144 17.6327 38.8194 12 10.7573340374 1.7681617842 18.9341726648
6610 1 30.016 19.4081 38.7849 12 10.9441736072 1.7688389241 18.8697925691
6611 1 30.0541 17.6865 40.6349 12 10.8383184825 1.7441134548 17.5598618332
6612 1 28.3595 19.3975 40.6322 12 10.932622066 1.7688389241 16.769819289
6613 1 31.6809 17.7161 38.7697 12 11.1338036359 1.7656574198 19.7191322747
6614 1 33.4431 19.4144 38.7937 12 11.2414377619 1.7643441247 19.9384057751
6615 1 33.5264 17.6963 40.7006 12 11.3436859569 1.7656574198 18.6797366951
6616 1 31.756 19.4572 40.7722 12 10.7013923842 1.7441134548 17.5043877019
6617 1 35.4077 17.6896 38.8473 12 11.1029829806 1.7643529899 21.1032704895
6618 1 36.9524 19.6247 38.8329 12 10.9670881306 1.7679504571 21.4910781172
6619 1 37.0939 17.7555 40.5058 12 10.7519742999 1.7783230462 20.5843497113
6620 1 35.2774 19.4056 40.5856 12 10.8543257105 1.7691975487 19.1924461374
6621 1 38.7756 17.6683 38.9497 12 11.1644681122 1.7723513719 22.7845458422
6622 1 40.6103 19.4989 38.8718 12 11.2011560486 1.7700448179 23.6127420872
6623 1 40.6092 17.6021 40.5394 12 10.8800175417 1.7410379309 22.7424566747
6624 1 38.8067 19.4203 40.5305 12 10.8671317587 1.7719257293 21.2276656504
6625 1 0.14079 21.1885 38.7235 12 11.1964656249 1.7700448179 24.8345033559
6626 1 1.90121 22.8846 38.8922 12 11.1938652872 1.7636061893 25.8912933407
6627 1 1.80968 21.2421 40.6867 12 10.9797861213 1.7506260578 24.6743221601
6628 1 0.0281621 22.8488 40.5178 12 11.2222138262 1.762556495 23.4145639891
6629 1 3.55527 21.0915 38.7622 12 10.6982790381 1.727960397 26.0117417776
6630 1 5.17784 22.8534 38.8284 12 11.260301669 1.7509631974 24.6769264734
6631 1 5.19699 21.1986 40.6747 12 11.2147886549 1.7344798338 23.507346085
6632 1 3.54434 22.9924 40.8152 12 10.9975654411 1.7647764577 24.3856023727
6633 1 7.14321 21.1969 38.9436 12 11.039104663 1.7419805999 23.5342341698
6634 1 8.87337 22.9866 38.941 12 11.5245842583 1.7772442427 22.3148206337
6635 1 8.88861 21.1452 40.6582 12 10.9262140213 1.7419089984 21.1521599471
6636 1 6.942 23.0423 40.6443 12 11.323773641 1.7496360708 22.1416898301
6637 1 10.6255 21.2058 38.9248 12 11.4254672199 1.7844589136 21.6151474279
6638 1 12.3952 23.0357 38.7283 12 11.1859185627 1.7749274436 20.7291963926
6639 1 12.3678 21.2514 40.6443 12 11.2344705697 1.7595279478 19.2869401521
6640 1 10.5516 22.9759 40.813 12 11.1708464099 1.790030048 19.8352686713
6641 1 14.086 21.1459 38.8813 12 10.9379949606 1.7760944961 20.054205273
6642 1 15.8058 22.9555 38.8103 12 10.8405299981 1.741300061 19.2775814333
6643 1 15.7831 21.115 40.5844 12 10.882266377 1.7437083388 17.8000435792
6644 1 14.1158 23.0485 40.5463 12 11.10441754 1.7567438086 18.3601960069
6645 1 17.6326 21.2179 38.8391 12 10.8704222359 1.7583591508 18.7459963387
6646 1 19.4285 22.9884 38.8914 12 11.1775436992 1.7749843397 18.1277025886
6647 1 19.3382 21.2263 40.6662 12 10.8981174207 1.7597415551 16.5425691614
6648 1 17.5864 22.9182 40.5591 12 11.0000462874 1.7748867129 17.0149405769
6649 1 21.1911 21.2574 38.8662 12 11.131411507 1.7585434428 17.9812592396
6650 1 23.0198 23.0272 38.9729 12 11.0001100481 1.7732634323 17.6500864694
6651 1 22.9424 21.1069 40.5763 12 10.9342710527 1.7429625524 16.1922166564
6652 1 21.2538 22.9275 40.6463 12 11.0938598891 1.7518045631 16.095954731
6653 1 24.6676 21.2223 38.9283 12 10.9109159663 1.744434242 17.8647129653
6654 1 26.5539 22.9183 38.8272 12 10.9554762656 1.7504210425 17.963006414
6655 1 26.4986 21.1736 40.5507 12 11.0805842028 1.7791776201 16.3616135784
6656 1 24.8019 22.9266 40.5693 12 11.0366816485 1.7575035443 16.1147330666
6657 1 28.3329 21.2021 38.915 12 11.0641860876 1.7688389241 18.1652755315
6658 1 30.1078 22.9765 38.8425 12 11.0874498989 1.7519046499 18.501035221
6659 1 30.0941 21.196 40.6993 12 10.6925909727 1.7380226732 16.793443432
6660 1 28.2863 22.9949 40.6003 12 11.094893937 1.755060241 16.408132708
6661 1 31.7083 21.1469 38.9263 12 10.9568725665 1.7491074083 18.9587326861
6662 1 33.5169 22.9405 38.9279 12 11.0310651944 1.7690416136 19.5296212623
6663 1 33.5279 21.1152 40.5754 12 11.020093927 1.7650203936 18.1324577904
6664 1 31.8294 22.9901 40.5408 12 10.6488957904 1.7425986045 17.3953646096
6665 1 35.2448 21.2549 38.9751 12 10.8522497793 1.7696353061 20.3184462921
6666 1 37.1042 23.0359 38.8629 12 11.0334383909 1.7854379366 21.2889791077
6667 1 37.0504 21.2879 40.5567 12 11.0820662252 1.7719257293 19.9214507167
6668 1 35.3736 22.932 40.7614 12 10.9334168354 1.7696353061 18.7618320583
6669 1 38.8903 21.1742 38.7935 12 11.1458520671 1.7854379366 22.4285702404
6670 1 40.6699 23.022 38.8194 12 11.2659750069 1.7854379366 23.4381587709
6671 1 40.6906 21.111 40.5963 12 10.984803946 1.7715550244 22.1950609022
6672 1 38.9444 22.9572 40.5951 12 11.063549401 1.7846261584 20.9696734528
6673 1 -0.0379722 24.7673 38.9379 12 11.3814643175 1.7636061893 24.5610257017
6674 1 1.82039 26.3938 38.9181 12 11.1218461051 1.7636061893 26.0440175412
6675 1 1.6766 24.6728 40.729 12 11.0812868997 1.7647764577 24.5478162031
6676 1 42.3698 26.5635 40.6204 12 10.9589963114 1.7474624981 23.557560568
6677 1 3.54731 24.6905 38.9017 12 11.1214317969 1.7647764577 25.6546981616
6678 1 5.28576 26.5487 38.9448 12 11.0704695651 1.7746485544 24.5072768414
6679 1 5.22837 24.767 40.6568 12 11.1144578898 1.7642163432 23.2243172904
6680 1 3.43123 26.5118 40.6293 12 11.0394989073 1.7647764577 24.590748605
6681 1 6.9665 24.7838 38.9226 12 11.464103418 1.7772442427 23.385672264
6682 1 8.83924 26.5292 38.9447 12 11.360269058 1.7772442427 22.3279350221
6683 1 8.77105 24.7544 40.8056 12 11.3026542298 1.7912225586 20.7917173308
6684 1 7.07637 26.536 40.7599 12 11.0373047271 1.7746485544 21.9687814927
6685 1 10.687 24.742 38.8593 12 11.5794796074 1.7912225586 21.3436469022
6686 1 12.4311 26.6641 38.8673 12 10.8952944957 1.7512678094 20.5930395234
6687 1 12.3918 24.755 40.5743 12 11.3014092523 1.7904932764 19.0139580705
6688 1 10.6338 26.5926 40.6744 12 11.1054754254 1.7912225586 19.9073572925
6689 1 14.151 24.8309 38.8083 12 10.8422863534 1.7661332715 19.8470679806
6690 1 15.8911 26.6011 38.9685 12 11.0808743012 1.7872827475 19.0182221333
6691 1 15.8292 24.6324 40.5891 12 11.1430813826 1.7872827475 17.550612147
6692 1 14.138 26.5112 40.5647 12 11.0596898541 1.7802335384 18.2981394517
6693 1 17.6529 24.7002 38.9248 12 11.1965362858 1.7758343627 18.4855301
6694 1 19.5114 26.5772 39.0161 12 10.8016026809 1.7758343627 17.9633863902
6695 1 19.4894 24.8054 40.705 12 10.9009259952 1.7757348228 16.302443176
6696 1 17.8447 26.591 40.7405 12 11.0171893026 1.7872827475 16.6973685267
6697 1 21.2012 24.7978 38.9369 12 11.0760393981 1.7758343627 17.7860387819
6698 1 22.8237 26.6271 38.8182 12 10.9986678316 1.7599900457 17.850592269
6699 1 22.9863 24.7419 40.6603 12 11.1441904763 1.756990978 15.9728677393
6700 1 21.2664 26.5723 40.7313 12 10.8777409404 1.7498083002 16.0159481242
6701 1 24.6306 24.8863 38.8363 12 10.9752635158 1.7279393667 17.7969734194
6702 1 26.4778 26.5317 38.8599 12 11.0499440807 1.7700259348 17.9349351475
6703 1 26.3834 24.7379 40.5122 12 11.0765780934 1.755060241 16.2011575777
6704 1 24.705 26.5811 40.6151 12 11.116369214 1.7497905076 16.0988636618
6705 1 28.2805 24.7481 38.9061 12 11.0765222848 1.7700259348 18.0693904988
6706 1 30.1072 26.4462 38.8894 12 10.89590696 1.7698584571 18.5965886321
6707 1 30.0818 24.7042 40.6047 12 10.9654954775 1.7660876856 16.8505897928
6708 1 28.2338 26.4932 40.6512 12 11.3333500472 1.7700259348 16.4351670149
6709 1 31.8537 24.8242 38.7844 12 10.8944040375 1.7442055306 19.1389081153
6710 1 33.6213 26.5275 38.7878 12 11.0134924442 1.7623730946 19.9754909538
6711 1 33.6497 24.6227 40.6104 12 10.7504666463 1.7652204181 18.1395471285
6712 1 31.9044 26.4913 40.5844 12 11.051478099 1.7633180099 17.6366772665
6713 1 35.3305 24.782 38.8112 12 11.0324741811 1.7696353061 20.5150100369
6714 1 37.1525 26.4337 38.8652 12 11.0017867213 1.7661739312 21.596236957
6715 1 37.2221 24.6679 40.5844 12 11.0150703229 1.766267406 20.0031473829
6716 1 35.4193 26.4491 40.6691 12 11.218839654 1.766267406 19.1820260553
6717 1 38.9387 24.7437 38.8481 12 10.8285583307 1.7854066894 22.4153703103
6718 1 40.6247 26.5864 38.8975 12 11.0195415277 1.7409412959 23.6310531832
6719 1 40.7162 24.6945 40.7023 12 11.1125939113 1.762556495 22.128084783
6720 1 38.9494 26.4768 40.5675 12 11.0594656217 1.7661739312 21.2888150492
6721 1 0.00431578 28.2357 38.8138 12 11.3277371524 1.7603586986 25.174722821
6722 1 1.81599 30.0601 38.763 12 11.2276833872 1.7603586986 26.876503253
6723 1 1.65446 28.2566 40.6995 12 11.0704171068 1.7557112679 25.0587001283
6724 1 -0.0268774 30.0776 40.6305 12 11.1267661509 1.7603586986 24.3474727725
6725 1 3.43461 28.2482 38.8313 12 11.032425395 1.7365380435 26.0161835398
6726 1 5.18889 30.0068 38.8208 12 11.2888324136 1.7425991105 25.1499978045
6727 1 5.23568 28.174 40.7015 12 11.1182632918 1.7488091934 23.4346841181
6728 1 3.53164 29.9503 40.6104 12 11.2089242847 1.7480144808 25.0097441005
6729 1 7.16047 28.3264 38.9544 12 11.338362778 1.7746485544 23.5106608761
6730 1 8.83865 30.0912 38.9825 12 10.9848173562 1.7395469418 22.8546369646
6731 1 8.89046 28.2403 40.6938 12 10.9669686871 1.755805157 21.0947025871
6732 1 6.97703 30.0428 40.7042 12 11.2650595972 1.7485797745 22.6266868412
6733 1 10.6371 28.3357 38.871 12 10.8800134798 1.7537594295 21.6530681397
6734 1 12.3634 30.0037 38.9348 12 11.0746776932 1.7734018044 21.0344291018
6735 1 12.3974 28.2027 40.7502 12 11.0251788109 1.7779225094 19.1550339355
6736 1 10.626 30.0985 40.5798 12 11.1925175264 1.7779225094 20.6060061401
6737 1 14.2302 28.3167 38.9696 12 10.8746178006 1.7535761137 19.8423717636
6738 1 15.9494 30.1 38.9061 12 10.9990670446 1.7496220436 19.5437006179
6739 1 15.9238 28.3268 40.7588 12 11.033579591 1.7785972359 17.5329411451
6740 1 14.1592 30.0803 40.6323 12 11.1692377866 1.7789847804 18.7468081154
6741 1 17.718 28.3004 39.1296 12 10.8975443748 1.7494414579 18.4400551896
6742 1 19.422 30.0854 38.9992 12 10.9700189026 1.747840097 18.5111149635
6743 1 19.4035 28.4233 40.7489 12 10.5828378296 1.7432712747 16.4968267861
6744 1 17.6653 30.0416 40.8324 12 10.8734253312 1.7711693309 17.2070143041
6745 1 21.1394 28.3447 39.005 12 10.870408623 1.7595358529 17.9230599035
6746 1 22.9054 30.134 39.0172 12 10.9811573343 1.7599900457 18.185352145
6747 1 22.9788 28.3647 40.722 12 10.9421414533 1.7581833132 16.149731045
6748 1 21.2039 30.1576 40.6978 12 10.6079394971 1.7428005845 16.6496448017
6749 1 24.6716 28.316 38.8611 12 11.3692756723 1.7896086908 18.057212244
6750 1 26.5234 30.0051 38.9314 12 11.3280336769 1.7784970443 18.5206351661
6751 1 26.5868 28.2245 40.7234 12 11.1051106883 1.7497905076 16.3671472037
6752 1 24.7624 30.0505 40.6299 12 10.9599843528 1.7505574298 16.7140415588
6753 1 28.3046 28.2935 38.811 12 10.939368843 1.7698898492 18.4939657981
6754 1 30.0361 30.0926 38.8525 12 10.8052312931 1.7585233472 19.2726620475
6755 1 30.0253 28.2794 40.569 12 11.165131358 1.7671691235 17.246712892
6756 1 28.3319 30.0785 40.6914 12 11.1285122447 1.7482524848 17.1540422252
6757 1 31.7888 28.2703 38.9271 12 11.1323606876 1.7862323829 19.3506442911
6758 1 33.5784 30.1192 38.9212 12 11.0191615435 1.7690955242 20.4711470214
6759 1 33.5774 28.3253 40.5839 12 11.3289378632 1.7689693739 18.6326342821
6760 1 31.7462 30.0817 40.651 12 10.9081479148 1.7690955242 18.2071781753
6761 1 35.4167 28.205 38.8504 12 10.9674457709 1.7538020496 20.9939622364
6762 1 37.0644 29.9596 38.9314 12 11.0379374589 1.7864544173 22.1482536831
6763 1 37.0348 28.331 40.6821 12 10.8583886363 1.7661739312 20.4084392495
6764 1 35.3396 30.1148 40.6611 12 10.9445250397 1.7678862942 19.862260039
6765 1 38.8415 28.3302 38.9993 12 10.9700599396 1.7453537787 22.7917531794
6766 1 40.6452 30.0061 38.7907 12 10.9335962369 1.7599883187 24.426732829
6767 1 40.6004 28.3984 40.5484 12 11.0118204916 1.7671722683 22.7552481449
6768 1 38.7979 30.0226 40.6492 12 10.6704580758 1.7425107483 21.884377068
6769 1 0.0149458 31.7535 38.8369 12 11.1895394828 1.7731594652 26.013703088
6770 1 1.73865 33.4488 38.8461 12 11.1928452604 1.7609917345 27.6874309916
6771 1 1.84172 31.7341 40.5977 12 11.0978669393 1.780477336 26.1639999588
6772 1 0.0640773 33.4958 40.5797 12 11.2895820205 1.760648609 25.4283229346
6773 1 3.54414 31.8241 38.7941 12 10.9099309983 1.7589536204 26.681510745
6774 1 5.24148 33.5435 38.8525 12 11.2144937195 1.7788689105 26.060455774
6775 1 5.28929 31.792 40.6526 12 10.9991762227 1.7427302972 24.222908972
6776 1 3.51023 33.4966 40.7425 12 11.1163117686 1.7609917345 25.9061112345
6777 1 6.98932 31.7655 38.8834 12 11.2998234533 1.7790330215 24.423592596
6778 1 8.80811 33.5595 38.9896 12 11.3288733548 1.7790330215 23.8888462966
6779 1 8.75613 31.8199 40.6607 12 11.1139293126 1.776119565 22.0698437629
6780 1 6.93199 33.7202 40.6124 12 10.9114048522 1.7790330215 23.8448852282
6781 1 10.6169 31.7671 38.8706 12 10.9840337549 1.7524289155 22.4237171303
6782 1 12.2536 33.6398 38.8608 12 11.1790366567 1.7610008349 22.1863310618
6783 1 12.4301 31.9154 40.5939 12 11.4311566673 1.7762827489 20.132788421
6784 1 10.5187 33.6817 40.6428 12 11.1041110717 1.7524289155 21.7367407592
6785 1 14.2232 31.8073 38.7838 12 11.1519495544 1.7530309212 20.7655324213
6786 1 15.9779 33.6223 38.882 12 10.7963210009 1.7562461517 20.6431107016
6787 1 15.8764 31.7613 40.5729 12 10.9768626448 1.7738784635 18.551291559
6788 1 14.1396 33.6633 40.5643 12 11.0256765367 1.7555025921 19.9628277441
6789 1 17.6833 31.8236 38.9979 12 11.0587010695 1.7733702868 19.3926725873
6790 1 19.4535 33.4901 38.9987 12 10.9153600809 1.7460655485 19.6016178712
6791 1 19.4051 31.8337 40.7845 12 10.937620022 1.7738784635 17.3642113883
6792 1 17.6695 33.6701 40.6181 12 10.898413195 1.7738784635 18.6509629516
6793 1 21.1494 31.8325 39.02 12 10.6986369148 1.7478036935 18.7509765495
6794 1 22.8925 33.5007 38.8771 12 11.3426400662 1.7752546306 19.420520294
6795 1 22.9633 31.7877 40.7024 12 10.7393209025 1.7752546306 17.0792603975
6796 1 21.1377 33.5684 40.7047 12 10.9964550662 1.7752546306 17.8762594638
6797 1 24.7501 31.8134 38.8413 12 11.0721116387 1.7713985891 18.9316522647
6798 1 26.5396 33.4675 38.7975 12 11.1296307481 1.8130935732 19.8218728986
6799 1 26.4415 31.8723 40.6687 12 10.9993089254 1.7482524848 17.48770007
6800 1 24.7656 33.5291 40.6393 12 11.1162121537 1.7733858169 17.9377287478
6801 1 28.2654 31.6924 38.9212 12 10.9272873017 1.7468211782 19.3105300189
6802 1 30.1012 33.5196 38.923 12 10.8230317583 1.7427981042 20.4303645321
6803 1 30.0888 31.8052 40.6829 12 10.903339608 1.7500098445 18.1986386538
6804 1 28.2565 33.5621 40.5693 12 11.2961285126 1.7572971496 18.6086948858
6805 1 31.7889 31.8264 38.9289 12 10.8075717461 1.7530618309 20.2845075087
6806 1 33.5975 33.5249 38.856 12 11.0578472538 1.7713606291 21.6635114367
6807 1 33.5873 31.8887 40.6992 12 11.1288709949 1.7713606291 19.525160007
6808 1 31.726 33.5891 40.7013 12 11.0917710894 1.7713606291 19.4607084587
6809 1 35.3093 31.8222 38.8546 12 10.855058018 1.7698667254 21.8125077242
6810 1 37.1833 33.4931 38.9174 12 11.1357374466 1.7821238331 23.2953960697
6811 1 37.045 31.7534 40.7039 12 10.9802719795 1.7685197536 21.261665844
6812 1 35.3856 33.5884 40.6626 12 11.0898501829 1.7684343105 21.0755464953
6813 1 38.9065 31.7018 38.9744 12 11.071612297 1.7694671634 23.6340665069
6814 1 40.5184 33.5399 38.8818 12 11.4729043255 1.760648609 25.270751158
6815 1 40.6192 31.7399 40.6037 12 10.9951734608 1.7652936169 23.569669479
6816 1 38.8747 33.6176 40.6984 12 10.9086870439 1.7483293904 23.0159790694
6817 1 -0.0228238 35.3861 38.8554 12 11.6655889937 1.760648609 27.1694543665
6818 1 1.77489 37.1148 38.8563 12 11.1456370693 1.7649440106 29.0556617584
6819 1 1.66611 35.346 40.6033 12 11.2336491341 1.7500720148 27.2147772184
6820 1 42.3937 37.1706 40.7053 12 10.7318489612 1.7418653426 26.7606629242
6821 1 3.45517 35.3703 38.9728 12 11.1150691098 1.7609917345 27.7679825995
6822 1 5.2223 37.0879 38.9271 12 11.0650621732 1.7523707267 27.417620732
6823 1 5.13285 35.4205 40.6147 12 10.8261499883 1.7532483827 25.6350679615
6824 1 3.4884 37.0984 40.6709 12 10.9886521009 1.7715013861 27.3874314062
6825 1 7.06573 35.3737 38.813 12 11.2144593589 1.777020128 25.6907083142
6826 1 8.77145 37.2213 38.9059 12 11.070795583 1.7641731442 25.4279172059
6827 1 8.68584 35.324 40.7279 12 10.9196786318 1.7387736078 23.3870400577
6828 1 7.03882 37.1064 40.6357 12 11.0935844515 1.7523707267 25.2231194638
6829 1 10.4872 35.4069 38.762 12 11.1932259129 1.7648500296 23.8255338418
6830 1 12.3459 37.154 38.9372 12 11.1085154988 1.7697987848 23.5805730409
6831 1 12.2535 35.4102 40.6468 12 11.1369036341 1.7591128318 21.5247793775
6832 1 10.4829 37.0669 40.6907 12 11.3297856813 1.7661960185 23.1871151742
6833 1 14.0301 35.2268 38.8851 12 10.9721411381 1.7704298434 22.016727532
6834 1 15.9044 37.1284 38.8714 12 11.0470293671 1.7704298434 22.2641060929
6835 1 15.8666 35.3778 40.5451 12 10.8729420136 1.7563621858 20.0605680046
6836 1 14.1089 37.0862 40.7223 12 11.1527126727 1.7704298434 21.4600357865
6837 1 17.688 35.406 38.8011 12 10.8584586864 1.7559166782 20.977134079
6838 1 19.4125 37.1035 38.9057 12 10.9690083986 1.762474441 21.3886043222
6839 1 19.4225 35.3229 40.6231 12 10.9247958458 1.7726773645 19.0218868673
6840 1 17.6277 37.1402 40.5163 12 10.7175602816 1.7549907928 20.4751858707
6841 1 21.1074 35.3565 38.9123 12 11.2048525936 1.7724431348 20.2856564847
6842 1 22.999 37.1205 38.878 12 10.7982315578 1.7625705453 21.1434760996
6843 1 23.0247 35.3327 40.6108 12 11.1285987489 1.7752546306 18.7268314421
6844 1 21.256 37.1093 40.6807 12 11.2232473966 1.7728897278 19.7107347986
6845 1 24.6654 35.351 38.7953 12 11.176408113 1.8130935732 20.3916214067
6846 1 26.3408 37.098 38.8193 12 11.1347590728 1.8128754245 21.4657726596
6847 1 26.3992 35.3247 40.6206 12 11.2789485707 1.8127395451 19.0469779593
6848 1 24.6029 37.0386 40.6538 12 10.8489430484 1.7668188021 19.7049616001
6849 1 28.2858 35.2953 38.923 12 11.1380075961 1.8130935732 20.8504854805
6850 1 30.0596 37.0103 38.7546 12 11.0339224352 1.759960712 22.2657907017
6851 1 29.931 35.3842 40.5788 12 11.0568302232 1.7552209924 19.888968956
6852 1 28.1905 37.0875 40.5465 12 11.2049757673 1.7570615901 20.4457248965
6853 1 31.8372 35.3078 38.8599 12 11.0261392721 1.7542737615 21.8033568401
6854 1 33.5867 37.1069 38.7979 12 11.1642906446 1.7783486398 23.3724067683
6855 1 33.6089 35.4233 40.6433 12 11.2832762718 1.7713606291 21.112854085
6856 1 31.7491 37.0409 40.5955 12 11.2894868593 1.7492559115 21.3253519787
6857 1 35.3424 35.2858 38.8496 12 11.1989229798 1.7821238331 23.1745024735
6858 1 37.1353 37.0873 38.8786 12 11.2888095312 1.7810544097 24.8599509933
6859 1 37.0859 35.1773 40.6886 12 11.0360367336 1.7821238331 22.641728638
6860 1 35.446 37.125 40.5553 12 11.1234820525 1.7768686805 22.8762381299
6861 1 38.8997 35.4153 38.9426 12 11.1832746123 1.7821238331 24.9857681436
6862 1 40.6187 37.1988 38.8145 12 11.1503158397 1.7575533846 26.8562479726
6863 1 40.6634 35.3993 40.6356 12 11.1245396322 1.7585506291 24.8964721752
6864 1 38.8479 37.1214 40.6711 12 11.0924225532 1.7453191439 24.5697100294
6865 1 42.3866 38.8124 38.8969 12 11.2208543927 1.7662536771 28.6349770734
6866 1 1.72243 40.5947 39.0065 12 11.2366205408 1.7653910272 30.5687862243
6867 1 1.7373 38.784 40.7358 12 11.0989501433 1.7703371011 28.6925184109
6868 1 42.3768 40.6492 40.7245 12 11.1119529893 1.7659816801 28.5104617513
6869 1 3.50591 38.928 38.8437 12 11.3406717186 1.7715013861 29.3602549354
6870 1 5.27542 40.6899 38.8311 12 11.0492197524 1.7595105517 29.1918861672
6871 1 5.33952 38.9121 40.7926 12 11.0758990101 1.7715013861 27.0376267554
6872 1 3.53758 40.6313 40.7635 12 11.1786732811 1.7715013861 29.0650783609
6873 1 6.86165 38.9879 38.9762 12 11.1608423674 1.7523707267 27.3038603763
6874 1 8.78395 40.6999 38.9244 12 11.1749454094 1.76926105 27.168732253
6875 1 8.74338 38.9155 40.6598 12 11.1357880724 1.7697185683 25.1056113348
6876 1 6.97289 40.7192 40.7653 12 10.8188623672 1.7652485183 27.0389984146
6877 1 10.5306 38.9538 38.8918 12 11.0565405319 1.7661960185 25.3715880532
6878 1 12.3482 40.6847 38.94 12 11.2064337006 1.7699570581 25.4864646535
6879 1 12.2891 38.8374 40.6381 12 11.0817631322 1.7603339177 23.2691228662
6880 1 10.6371 40.6972 40.7055 12 11.4300873812 1.7697185683 25.0881497018
6881 1 14.1083 38.8196 39.0451 12 11.2563939927 1.7691744454 23.6514804433
6882 1 15.9173 40.6302 38.9668 12 11.4776200327 1.7805801457 24.1815329554
6883 1 16.0347 38.8818 40.6904 12 10.8470814955 1.7545010965 21.8143145983
6884 1 14.0325 40.666 40.68 12 11.0781002775 1.7691744454 23.6194863498
6885 1 17.6634 38.8225 38.8325 12 10.9053961896 1.7805801457 22.7480864713
6886 1 19.5345 40.6162 38.907 12 11.2738834872 1.7800269782 23.4386572048
6887 1 19.3555 38.9037 40.7684 12 11.093796972 1.762474441 20.9695196135
6888 1 17.7519 40.6633 40.682 12 11.0705515524 1.7805801457 22.4938407824
6889 1 21.2989 38.7863 38.8278 12 11.0064012596 1.762474441 22.1853866266
6890 1 22.961 40.5615 38.8917 12 10.9424908231 1.7397744349 23.1796312263
6891 1 22.9728 38.865 40.6632 12 10.8618675329 1.7668188021 20.7327456072
6892 1 21.2413 40.6162 40.6482 12 11.0539843175 1.7614958058 21.9598333159
6893 1 24.7109 38.8236 38.8801 12 10.9741666024 1.7674406736 22.1892865347
6894 1 26.5198 40.528 38.9361 12 11.1572100687 1.8160607717 23.413117024
6895 1 26.5051 38.793 40.6606 12 11.3033113863 1.7668188021 21.0088798089
6896 1 24.7118 40.605 40.6137 12 11.1061104878 1.7935106003 21.9972287624
6897 1 28.1705 38.7389 38.7556 12 11.1245798443 1.7647230313 22.790778279
6898 1 30.0344 40.6725 38.8463 12 10.9575486064 1.7647230313 24.355009026
6899 1 29.9661 38.8325 40.644 12 11.4598583078 1.7625406571 21.8651306059
6900 1 28.2536 40.5902 40.5596 12 11.2157541309 1.7647197933 22.6031221487
6901 1 31.8137 38.9189 38.8634 12 11.1858101346 1.7612957809 23.740371141
6902 1 33.4623 40.619 38.7842 12 10.9402000294 1.7664479641 25.3597197138
6903 1 33.6261 38.7871 40.541 12 11.3179148141 1.7755415299 23.0626445133
6904 1 31.7012 40.6706 40.6832 12 11.0979704893 1.7660963212 23.5176487654
6905 1 35.3722 38.9372 38.8302 12 11.0565641065 1.7783486398 25.060505364
6906 1 37.0874 40.7492 38.7475 12 10.7512162582 1.7478333886 26.9193027589
6907 1 37.0693 38.9431 40.6756 12 10.7067649428 1.7391690248 24.5912027201
6908 1 35.297 40.6082 40.5781 12 10.8476357709 1.7664479641 24.8431215886
