ITEM: TIMESTEP
5000
ITEM: NUMBER OF ATOMS
6870
ITEM: BOX BOUNDS abc origin pp pp pp
42.4209640885 0.0 0.0 -0.0184820443
0.0 42.4209640885 0.0 -0.0184820443
0.0 0.0 42.4209640885 -0.0184820443
ITEM: ATOMS id type x y z Coordination AtomicVolume CavityRadius SurfaceDistance
1 1 -0.00935441 0.0729453 2.19563e-04 12 10.8439029347 1.7334144958 26.3116426529
2 1 1.76553 1.81432 42.3499 12 11.0268211559 1.7595899452 24.408967028
3 1 1.77174 0.0723139 1.68758 12 11.0394481452 1.7694424166 24.3216804999
4 1 42.3938 1.8457 1.65421 12 10.7646215911 1.745954948 24.3162653992
5 1 3.52878 0.0670975 0.0214856 12 10.6796228272 1.7358500851 24.3820048267
6 1 5.32456 1.83735 0.0366749 12 10.7493705691 1.7452052319 22.4971060872
7 1 5.22973 42.3189 1.72309 12 10.7949258797 1.7378156012 22.5545049725
8 1 3.54329 1.81971 1.6632 12 10.9940936572 1.7670609669 22.3507219557
9 1 7.1119 42.3832 0.0238395 12 11.176959884 1.7442974636 22.8007894214
10 1 8.85191 1.67594 0.00367436 12 11.2289742871 1.760313554 21.1515593404
11 1 8.86044 42.3206 1.71693 12 11.0493507927 1.7689086611 21.0450779415
12 1 6.97838 1.67113 1.76346 12 11.0782135811 1.760313554 20.6456499485
13 1 10.6959 42.34 42.4226 12 11.1147396065 1.7622060178 21.6675167085
14 1 12.3209 1.72124 0.0479638 12 11.1233742481 1.8084158891 20.0158456525
15 1 12.3125 0.031077 1.78777 12 10.9570250459 1.762231696 19.9544107265
16 1 10.537 1.77512 1.75238 12 11.0154698298 1.7582507025 19.2760301645
17 1 14.1136 42.3363 0.0243514 12 11.1330526832 1.8090632516 20.8507838119
18 1 15.96 1.69096 0.0478844 12 11.0293000529 1.8090632516 19.3840394427
19 1 15.9715 0.0639618 1.8002 12 11.25849128 1.7646993685 19.2983161122
20 1 14.0752 1.7614 1.90992 12 11.0656442348 1.8090632516 18.2639324861
21 1 17.6706 42.3788 42.3748 12 11.0077812903 1.777347933 20.5653856695
22 1 19.4474 1.8302 -0.0118705 12 11.1236714074 1.7776120146 19.3437115974
23 1 19.4461 0.0259718 1.79242 12 11.2110089521 1.7776120146 19.3163607527
24 1 17.7383 1.77556 1.74076 12 10.9859991403 1.7464196594 18.0166772659
25 1 21.255 0.00337632 -0.00884814 12 10.9052712515 1.7776120146 20.590053178
26 1 23.0335 1.73079 42.35 12 11.1511231451 1.763241058 19.5253574053
27 1 22.945 0.111039 1.83638 12 10.9262665401 1.752290786 19.3106948427
28 1 21.2187 1.77894 1.66364 12 10.9000812202 1.7520504813 18.1524662327
29 1 24.7597 42.3199 0.0649739 12 11.3006884378 1.7769342077 20.8877799862
30 1 26.5436 1.77585 0.0606104 12 11.1591557115 1.763241058 20.0055211575
31 1 26.4689 0.0171422 1.74199 12 10.7026610167 1.7647306505 20.0380217169
32 1 24.7066 1.79265 1.81876 12 10.9253627779 1.7603656046 18.3374854736
33 1 28.2593 -2.1568e-04 0.116954 12 10.7540849018 1.7524985389 21.6285057432
34 1 29.9495 1.80413 0.0750734 12 10.7452397015 1.7561845204 21.1161579884
35 1 29.9257 0.00690855 1.78712 12 10.9032305779 1.7848946 21.1621289107
36 1 28.2398 1.75744 1.77393 12 10.8121138938 1.7634136157 19.3478243077
37 1 31.74 0.0170735 0.0975088 12 11.248209976 1.7880497338 22.9759892284
38 1 33.5078 1.69276 -0.017933 12 10.9139390509 1.7667738323 22.9158141255
39 1 33.5448 0.105343 1.82167 12 10.9841516904 1.7459954617 22.7836653494
40 1 31.7567 1.73955 1.75227 12 10.9368746503 1.7590371075 20.8808465531
41 1 35.3087 0.0547826 6.963e-04 12 11.0983494423 1.766190728 24.8260316943
42 1 37.0868 1.83649 42.3422 12 11.0084696462 1.7659191655 24.9579339361
43 1 37.1121 0.00890835 1.74942 12 11.1905214233 1.7680094841 24.9658541342
44 1 35.3258 1.77567 1.72629 12 11.0576798047 1.7659455694 22.8604927703
45 1 38.8388 0.0146398 42.4054 12 11.2132892355 1.766190728 26.996517605
46 1 40.5926 1.7341 0.00140931 12 10.9110258657 1.7611119682 26.39513124
47 1 40.7262 0.0492061 1.7649 12 10.8989609569 1.7504205658 26.2687800629
48 1 38.8518 1.79799 1.69676 12 11.1882964678 1.7659455694 25.1716120141
49 1 42.3679 3.52003 42.3459 12 11.1896400802 1.7717511962 24.4686948433
50 1 1.79652 5.28568 42.348 12 11.3751369471 1.773084931 22.5727285076
51 1 1.85282 3.55287 1.78877 12 11.1329986845 1.755091782 22.2118656114
52 1 42.3335 5.26421 1.69536 12 11.3732377279 1.773084931 22.4977642759
53 1 3.55456 3.6631 42.4088 12 10.9304371479 1.7431842693 22.4430782749
54 1 5.3387 5.3077 42.3282 12 10.751434501 1.7401641569 20.6930049355
55 1 5.29792 3.48497 1.83571 12 11.0634486591 1.7401641569 20.4064058924
56 1 3.60463 5.34486 1.81738 12 11.3027250649 1.7544748749 20.2949512612
57 1 6.99475 3.60739 42.4288 12 10.7154481978 1.747326307 20.7612500264
58 1 8.77841 5.29517 0.0168868 12 10.9060233219 1.7545217192 19.0528095749
59 1 8.73324 3.49833 1.66134 12 11.2057295729 1.760313554 18.930150978
60 1 7.06346 5.32131 1.77266 12 11.2677516634 1.7550676273 18.5590551447
61 1 10.6828 3.57245 0.0226059 12 11.0144505699 1.7413744469 19.4119435875
62 1 12.4304 5.18283 -0.0200594 12 10.7184494583 1.7672749823 17.9805433883
63 1 12.4994 3.54492 1.8517 12 10.7757018818 1.7677071251 17.5102505217
64 1 10.5614 5.31757 1.74273 12 11.5428261404 1.7682470902 17.1485386049
65 1 14.069 3.52682 0.00564178 12 10.8602349744 1.8090632516 18.5299455627
66 1 15.809 5.32097 0.0229019 12 11.0485561827 1.753980104 17.1889582255
67 1 15.764 3.52892 1.69081 12 11.072996446 1.7729178792 16.9696971933
68 1 14.0925 5.32659 1.81601 12 10.8046241622 1.7682470902 16.0544189476
69 1 17.5326 3.55035 42.4098 12 11.0450574892 1.7554384392 18.1769240193
70 1 19.3626 5.39601 0.061499 12 10.6707688085 1.7554384392 17.1016648796
71 1 19.5523 3.53532 1.73936 12 10.7664572545 1.7554384392 16.9268629001
72 1 17.68 5.29372 1.75503 12 11.0385334745 1.7612999465 15.720026929
73 1 21.2815 3.50119 -0.01288 12 11.0891531124 1.7477530965 18.2907392282
74 1 23.0669 5.33789 42.4141 12 11.2318592007 1.7492381298 17.3213058308
75 1 23.0063 3.61788 1.74103 12 11.0533632123 1.7502694171 16.9286864046
76 1 21.1772 5.34106 1.62365 12 11.0971017304 1.7671642208 15.883388954
77 1 24.7419 3.53062 42.3988 12 11.1259020492 1.7721872365 18.5877509162
78 1 26.4833 5.37035 0.0139952 12 11.2062708522 1.7573971853 17.9460321558
79 1 26.3792 3.51515 1.81573 12 11.1912656585 1.7573971853 17.5872573831
80 1 24.7359 5.39743 1.81884 12 10.9321643097 1.7573971853 16.046636303
81 1 28.2496 3.56862 0.0521788 12 11.2226948872 1.7563010346 19.4533808572
82 1 29.9634 5.36858 0.0656138 12 11.0350281585 1.7899786737 19.1901936339
83 1 29.9899 3.5757 1.77102 12 10.9097324765 1.7561397877 18.9288304315
84 1 28.242 5.33701 1.85017 12 11.0396835865 1.7573971853 17.1368289289
85 1 31.6828 3.52512 0.0359933 12 11.1298637734 1.7667738323 20.9488985012
86 1 33.5567 5.21836 0.120636 12 10.8862320221 1.7667738323 21.0734254682
87 1 33.5027 3.52763 1.79248 12 10.9907979418 1.767180496 20.7768716804
88 1 31.7524 5.37142 1.81128 12 10.8152378361 1.7561557901 18.829979624
89 1 35.2575 3.57626 0.108933 12 10.6529376346 1.7650252275 22.8494033742
90 1 37.0349 5.28737 -0.0200146 12 10.6141689804 1.7538440371 23.2622516065
91 1 37.0721 3.62393 1.74548 12 11.0297813928 1.7659455694 23.0234318605
92 1 35.2931 5.24712 1.81016 12 10.510468975 1.7832651262 21.0390275151
93 1 38.835 3.60037 42.366 12 10.7633181117 1.7579128929 25.2409527632
94 1 40.595 5.31963 42.4139 12 10.8638003596 1.7722784951 24.6345390751
95 1 40.5805 3.53734 1.70115 12 10.8617886935 1.7488204929 24.4558745362
96 1 38.844 5.26487 1.72442 12 10.906146131 1.7541801941 23.4816216798
97 1 42.3562 7.11038 42.3511 12 11.0003796645 1.773084931 22.8377771326
98 1 1.77406 8.77933 0.00402419 12 11.2355154083 1.769502882 21.0712549165
99 1 1.74411 7.04749 1.71855 12 11.4181102231 1.7679419363 20.5568644685
100 1 42.3626 8.78767 1.65899 12 11.0135177542 1.7679419363 21.0367571793
101 1 3.60488 7.03438 -0.0490248 12 11.1715886763 1.7573858648 20.7635774405
102 1 5.26983 8.74494 0.0290317 12 11.0435319247 1.7692163695 19.0601575386
103 1 5.23478 7.09672 1.877 12 10.9575242138 1.7545179425 18.500173153
104 1 3.51731 8.80958 1.79836 12 10.9900131417 1.7910723405 18.7548470513
105 1 6.99435 7.04036 42.3935 12 11.0666972438 1.7626170694 18.9394776378
106 1 8.81327 8.79234 42.3417 12 11.1725931968 1.764862738 17.3175890315
107 1 8.79198 7.15166 1.80904 12 11.2249178801 1.7550676273 16.7208607736
108 1 7.03921 8.69856 1.79854 12 10.9907927931 1.7545707118 16.8255139778
109 1 10.6484 7.02422 0.0204464 12 10.9553271803 1.7545217192 17.4172431013
110 1 12.2324 8.75382 42.4038 12 10.8641665879 1.7491641426 15.9650855403
111 1 12.2903 7.13126 1.91479 12 11.0208706699 1.7682470902 15.3986596373
112 1 10.5206 8.75039 1.84972 12 11.1882504998 1.7905037292 15.1581640903
113 1 13.9577 7.08457 0.0265407 12 11.0373169206 1.74846726 16.3696040762
114 1 15.8899 8.76095 42.3984 12 10.8908282121 1.7404671528 15.1283276619
115 1 15.9546 7.09428 1.71114 12 10.9735236582 1.7375603767 14.7462223735
116 1 14.0675 8.76739 1.72845 12 11.0462595769 1.7573557819 14.038910668
117 1 17.6787 7.04216 42.337 12 10.5517167187 1.744261848 16.0679742837
118 1 19.4435 8.82247 42.396 12 10.7812252382 1.7631995809 15.1083449456
119 1 19.4025 7.08888 1.69218 12 10.8321095729 1.7696431843 14.773848945
120 1 17.7237 8.74752 1.68994 12 10.8331535621 1.755584233 13.6249480344
121 1 21.1296 7.19097 -0.0134431 12 10.8104409885 1.7673893021 16.2785819888
122 1 22.9026 8.81423 42.3853 12 11.1717010419 1.7588087969 15.7431553904
123 1 22.9596 7.11282 1.79928 12 10.985434436 1.7673893021 14.8578914067
124 1 21.1428 8.89935 1.72935 12 11.0726867262 1.7673893021 13.9169896508
125 1 24.7294 7.15199 0.0793451 12 11.0617134016 1.7554700937 16.606946343
126 1 26.5016 8.80568 42.2427 12 11.2656079012 1.7586398949 16.632122215
127 1 26.5315 7.11329 1.80578 12 10.9936706623 1.7586398949 15.6418456963
128 1 24.6949 8.8275 1.79888 12 10.9301667838 1.7586398949 14.3778974833
129 1 28.2726 7.07524 0.0164983 12 11.0574685293 1.7485006399 17.7506653933
130 1 29.9975 8.90829 42.3204 12 11.0991000823 1.7682545242 17.8981011454
131 1 29.9301 7.06607 1.76332 12 10.9535129788 1.7682545242 17.1190470419
132 1 28.2694 8.81853 1.7826 12 10.931315027 1.7584342931 15.6127626304
133 1 31.8548 6.98446 0.114098 12 11.1170024193 1.7537457602 19.3852023066
134 1 33.7234 8.77573 0.00798264 12 11.0908137531 1.7768120692 19.7947481852
135 1 33.653 7.05739 1.75639 12 10.6229975903 1.7534864967 19.2228929113
136 1 31.9144 8.67783 1.6253 12 10.9876529626 1.7682545242 17.6168101625
137 1 35.3497 6.95639 0.0659297 12 10.5986729626 1.7537457602 21.4278835936
138 1 36.9711 8.77732 0.111631 12 10.7786766739 1.744101601 21.7892169788
139 1 36.9689 6.89326 1.84227 12 10.6975012287 1.7541801941 21.3955205852
140 1 35.4104 8.71985 1.85758 12 10.8340190165 1.7813797573 19.6109405933
141 1 38.741 7.09544 42.4089 12 11.1471791194 1.760453813 23.6695742242
142 1 40.5806 8.67509 42.2296 12 11.1472713953 1.749395537 23.4983009278
143 1 40.5451 7.04681 1.69898 12 11.1902171386 1.7675437693 22.8806742251
144 1 38.7393 8.81921 1.79191 12 11.1299908819 1.7535952949 22.0104940979
145 1 -0.0259876 10.6911 42.355 12 11.0284403201 1.7620176824 21.6002240136
146 1 1.71537 12.3087 42.3833 12 10.9492374395 1.7617849946 19.9705842854
147 1 1.62858 10.5753 1.73324 12 11.0521156452 1.7910723405 19.3113837461
148 1 42.3923 12.397 1.67324 12 10.9698545534 1.7581870532 19.9711939461
149 1 3.49087 10.5239 42.3696 12 11.3852310378 1.7910546433 19.4737115508
150 1 5.28905 12.3381 42.3712 12 11.1742782239 1.7707824631 17.7935821962
151 1 5.26372 10.5478 1.81247 12 11.1968711909 1.7881191793 17.0877907499
152 1 3.56354 12.3811 1.67542 12 11.195225275 1.7910723405 17.5460726521
153 1 7.02484 10.5153 42.3829 12 11.209011286 1.7707418106 17.4000452731
154 1 8.83576 12.3024 42.4176 12 11.3801830745 1.7709280236 15.7688790232
155 1 8.76177 10.4904 1.85123 12 11.4092526032 1.7904523288 15.1070604735
156 1 7.04999 12.2505 1.75143 12 11.1601892355 1.7786568327 15.4383821891
157 1 10.5969 10.5882 0.0135764 12 11.2993275717 1.7905037292 15.6615862344
158 1 12.3517 12.3483 0.0986112 12 10.8647411563 1.7443841425 14.2777794323
159 1 12.352 10.6164 1.77312 12 11.1252809207 1.7905037292 13.5890790528
160 1 10.5743 12.3255 1.93339 12 11.2527330262 1.7905037292 13.3867113707
161 1 14.0422 10.5441 -0.0133501 12 11.0783868352 1.7571661008 14.5873172231
162 1 15.7131 12.3248 -0.00770016 12 11.1036645948 1.7646163777 13.5723033087
163 1 15.9063 10.5263 1.66393 12 11.1769702652 1.7640866989 12.7864234465
164 1 14.0999 12.2788 1.7647 12 10.8555374469 1.7678599425 12.3153527622
165 1 17.6481 10.49 0.0407819 12 10.9738782856 1.7631995809 14.1174015566
166 1 19.4438 12.3468 42.316 12 11.1222631849 1.7631995809 13.6441838748
167 1 19.3984 10.5717 1.70152 12 10.9264940284 1.7630327478 12.7403573667
168 1 17.6265 12.3268 1.69124 12 11.2758129749 1.764651814 11.8506943872
169 1 21.1899 10.6394 42.3967 12 11.081190574 1.7628323304 14.5535497379
170 1 22.9684 12.2727 42.3621 12 10.965264738 1.757940895 14.4698926988
171 1 23.1195 10.5618 1.65938 12 11.0102392821 1.7445701908 13.5858572419
172 1 21.2549 12.3259 1.666 12 11.0547616386 1.7482339956 12.4180162907
173 1 24.8654 10.5434 42.3727 12 11.0818585846 1.7559675259 15.5474579657
174 1 26.6067 12.439 42.3061 12 10.7987282601 1.7565096521 15.5993002846
175 1 26.52 10.5998 1.78152 12 11.0993803941 1.7586398949 14.3295856285
176 1 24.8561 12.2901 1.76437 12 10.8498421814 1.757940895 13.4157662803
177 1 28.2408 10.5622 42.3629 12 11.1289864812 1.7485006399 16.5797325352
178 1 30.1636 12.358 42.3122 12 10.9962555644 1.7374169886 16.9793815038
179 1 29.9724 10.5758 1.70195 12 11.0790979778 1.7682545242 15.8416624219
180 1 28.3404 12.3813 1.66295 12 10.9986528834 1.7374169886 14.6165222383
181 1 31.8336 10.5032 42.3652 12 11.0801129081 1.7766236245 18.2305979327
182 1 33.5963 12.3616 0.100021 12 11.3500334711 1.7832616464 18.6888223069
183 1 33.565 10.4706 1.72415 12 11.1981339927 1.7813797573 17.9121750937
184 1 31.7329 12.3675 1.71276 12 11.1149829237 1.7486058379 16.3158577933
185 1 35.4519 10.6433 0.00751444 12 11.0970474133 1.7813797573 20.3099934854
186 1 37.1376 12.2538 0.132644 12 10.665188975 1.7832616464 21.0458268338
187 1 37.2108 10.584 1.77576 12 10.7242980616 1.7811291136 20.3747837694
188 1 35.3788 12.3869 1.78602 12 11.3843039608 1.7815803979 18.6449768074
189 1 38.8588 10.568 42.2997 12 10.761636219 1.747746047 22.7921677656
190 1 40.5071 12.2729 0.0106681 12 10.8848040514 1.7707474111 22.4410946523
191 1 40.6382 10.4275 1.69602 12 11.3771795049 1.7639327791 21.7033845235
192 1 38.908 12.3444 1.73683 12 10.6902677145 1.7361302745 21.3363978177
193 1 42.3535 14.066 42.3319 12 11.1981616344 1.7572435751 20.8178570133
194 1 1.65397 15.9289 42.2435 12 11.0592196893 1.7527069181 19.4688438242
195 1 1.70315 14.105 1.65088 12 11.1962656104 1.7578289002 18.3694692105
196 1 0.064908 15.9067 1.67894 12 11.1254471503 1.7581870532 19.2824391852
197 1 3.50188 14.222 42.3503 12 11.1379422002 1.7480563258 18.4574268215
198 1 5.26836 15.8411 42.3295 12 10.7754662868 1.7475089018 17.1361102247
199 1 5.34958 14.0716 1.66182 12 10.8846825108 1.7475089018 16.0478865376
200 1 3.55928 15.8269 1.74492 12 11.0573674077 1.7527069181 16.7902194647
201 1 7.0991 14.1316 -0.00880896 12 10.8062852261 1.7709280236 16.2033345912
202 1 8.88432 15.7792 42.3945 12 10.9038217184 1.7553093409 14.9615480823
203 1 8.76277 14.0767 1.78209 12 11.0714794439 1.7668219668 13.8558220274
204 1 7.04711 15.8926 1.76296 12 11.1418084659 1.7594919594 14.5789247494
205 1 10.6649 14.0561 -0.00679725 12 10.9378663071 1.7456574653 14.4392214692
206 1 12.3961 15.8522 0.00612432 12 10.7163472851 1.7480585365 13.4685744429
207 1 12.3733 14.109 1.72474 12 10.9142160705 1.7513190967 12.2463186869
208 1 10.556 15.8031 1.71538 12 10.8762199137 1.755540477 12.6361626539
209 1 14.1751 14.0649 0.0958097 12 10.9141679467 1.7448954246 13.2897311389
210 1 16.0395 15.9669 42.3006 12 11.0952683206 1.7485666826 12.8923744403
211 1 15.9697 14.1109 1.78706 12 11.0179744869 1.764651814 11.3195847807
212 1 14.2536 15.8026 1.65444 12 10.883156178 1.7513190967 11.4245711373
213 1 17.637 14.1182 42.2522 12 11.298821861 1.7534599044 13.1023111867
214 1 19.5257 15.7867 42.3784 12 11.4464765973 1.7735941153 12.8707802683
215 1 19.3908 14.0566 1.6955 12 11.4016220543 1.7573249629 11.4383755788
216 1 17.6542 15.853 1.69531 12 11.0315714901 1.7471451111 10.9961237371
217 1 21.2407 14.0016 42.2691 12 10.8756604048 1.7480670763 13.5798830416
218 1 23.0039 15.8446 42.2152 12 10.9408270024 1.7477172194 13.7336540227
219 1 23.0308 14.0385 1.56413 12 11.0494751177 1.7445701908 12.4749120697
220 1 21.3726 15.7999 1.62747 12 11.35067735 1.7558750722 11.5436563435
221 1 24.8412 14.0996 -0.0121471 12 11.1037041829 1.757940895 14.5577468185
222 1 26.5077 15.963 42.3587 12 11.0864268576 1.7478857471 15.0745285534
223 1 26.5485 14.0265 1.63775 12 10.8525943651 1.7492749185 13.6710666179
224 1 24.7847 15.8777 1.69873 12 10.9577562876 1.7478857471 12.7104733299
225 1 28.2748 14.2021 42.3842 12 11.0681400983 1.7504698496 15.822705806
226 1 30.0712 15.9963 0.0541943 12 11.0762645955 1.7427326352 16.4336088937
227 1 29.9662 14.1752 1.7289 12 11.0128815892 1.7395529589 15.0355457686
228 1 28.3686 16.0777 1.69451 12 11.0764640347 1.7427896392 14.1789450951
229 1 31.9112 14.193 0.0257585 12 10.9098362157 1.7582252066 17.5098575233
230 1 33.6513 15.9142 -0.0418454 12 10.6765397868 1.7579234268 18.5296349955
231 1 33.6572 14.2125 1.7019 12 11.0055329939 1.767254635 17.2689922685
232 1 31.8517 15.901 1.70914 12 10.8179483948 1.746688674 16.0413739053
233 1 35.3162 14.2409 42.3803 12 10.987123501 1.7832616464 19.6640378069
234 1 37.1363 16.0173 42.3506 12 11.327417045 1.7683237757 20.8994706105
235 1 37.2217 14.1129 1.65199 12 11.1219892041 1.7989785881 19.869338053
236 1 35.4383 15.9193 1.75326 12 11.0952909945 1.7678647533 18.4105698192
237 1 38.8194 14.0447 42.3779 12 10.8491738209 1.7695143351 22.183901983
238 1 40.7055 16.006 42.372 12 11.375720386 1.7696758076 21.7444741273
239 1 40.6038 14.1672 1.6565 12 11.1596189016 1.7581870532 20.9568149644
240 1 38.8928 15.9532 1.67617 12 11.2613397354 1.787914162 21.0928486911
241 1 0.0712426 17.7487 0.0443602 12 10.9277084209 1.7436485775 20.3187809265
242 1 1.87409 19.4557 -0.0113795 12 11.0929002718 1.7852654672 19.2116363552
243 1 1.81818 17.5893 1.79806 12 11.3248802936 1.7852654672 17.8431654438
244 1 42.3784 19.4834 1.68464 12 11.1341655604 1.7852654672 19.3479190324
245 1 3.43738 17.6193 42.3908 12 11.1425656699 1.7477123053 18.1473809482
246 1 5.28473 19.3263 0.0634377 12 11.2850988832 1.7393850775 17.0094108072
247 1 5.25577 17.5917 1.65993 12 11.2380775441 1.7594919594 15.7053265509
248 1 3.51037 19.4964 1.93477 12 11.0737454234 1.7852654672 16.6874156155
249 1 7.0682 17.4834 42.3158 12 11.2201065451 1.7617255317 15.9269744684
250 1 8.78852 19.4559 0.138248 12 11.0392033642 1.7400611871 14.8790241536
251 1 8.86405 17.5985 1.71243 12 10.943069419 1.7590451783 13.402693547
252 1 7.09098 19.4034 1.7357 12 10.7302035044 1.7594919594 14.5858530365
253 1 10.5274 17.6397 42.3678 12 10.866177424 1.7416391943 14.1012656857
254 1 12.3535 19.309 0.0630908 12 10.67169266 1.7428058948 13.426635674
255 1 12.2334 17.5774 1.71252 12 11.0530090534 1.7539435294 11.8039388632
256 1 10.5885 19.3922 1.83522 12 10.8130343446 1.7298758168 12.5199110829
257 1 14.0283 17.5356 42.3541 12 10.9948488236 1.7489627041 13.0165928259
258 1 15.9798 19.3862 -0.0115234 12 11.0187225388 1.7489627041 12.7513062639
259 1 15.8593 17.5746 1.65184 12 10.8710602613 1.7416778442 11.0651164114
260 1 14.0384 19.3923 1.71829 12 11.0630614092 1.7489627041 11.4114173694
261 1 17.6646 17.6725 42.2648 12 10.9274153206 1.7735941153 12.7591855402
262 1 19.4715 19.3304 42.3776 12 11.0029045966 1.7735941153 12.8214848148
263 1 19.5537 17.584 1.75083 12 10.9414411568 1.7735941153 10.9942302674
264 1 17.6598 19.291 1.68897 12 10.9233896934 1.7448801937 10.9506393884
265 1 21.2783 17.5502 42.2963 12 11.1212459466 1.7722290419 13.1017251183
266 1 22.9092 19.3591 42.3414 12 11.1159544751 1.7653652794 13.6019822491
267 1 22.9984 17.7224 1.72238 12 11.144769939 1.73454174 11.8167588604
268 1 21.2011 19.3545 1.7528 12 10.7421102561 1.742166178 11.3965577121
269 1 24.7399 17.6715 42.3924 12 10.9549263783 1.7602378772 14.1177161432
270 1 26.4261 19.515 42.3312 12 10.9713932949 1.7602085811 15.0428449514
271 1 26.4406 17.6746 1.74162 12 10.956538751 1.7556721467 13.2577721004
272 1 24.6198 19.4125 1.72938 12 10.8045437091 1.7600813423 12.6355496884
273 1 28.211 17.7863 0.0118443 12 11.1631856335 1.7618966139 15.541552077
274 1 30.059 19.4365 42.3635 12 11.1825299484 1.739085655 16.5244027339
275 1 30.1237 17.7779 1.76387 12 11.0065631525 1.7740648094 14.9671548885
276 1 28.1484 19.4779 1.73944 12 11.1733446161 1.7554776808 14.037237327
277 1 31.8964 17.7369 -0.00726004 12 10.9362259602 1.7370378627 17.436446343
278 1 33.5167 19.5685 0.0525097 12 10.7422988027 1.7449490851 18.4001913063
279 1 33.4595 17.6987 1.75278 12 10.7136271464 1.75127129 17.0706760009
280 1 31.8582 19.529 1.86384 12 10.7217782925 1.7401457519 15.9551711315
281 1 35.2052 17.7413 -0.0213958 12 11.2531865044 1.7707241323 19.5561558376
282 1 36.9834 19.4825 0.024189 12 10.8908234608 1.7403448455 20.6548723455
283 1 37.1758 17.736 1.77498 12 10.9497847462 1.7551706468 19.6524411333
284 1 35.334 19.4307 1.76714 12 10.9353958203 1.7551641579 18.2556264345
285 1 38.8925 17.8085 42.3001 12 11.1884612295 1.7696758076 22.1842045865
286 1 40.7515 19.4515 42.2903 12 10.7315813109 1.7683883951 21.7699042817
287 1 40.6651 17.6541 1.65265 12 11.343514747 1.7762764194 20.6201832296
288 1 38.8448 19.4046 1.69785 12 11.208184771 1.7762764194 20.8759246326
289 1 0.0606484 21.2132 0.0409655 12 10.7726384966 1.7464629954 20.6009107785
290 1 1.74701 22.9476 0.0669814 12 11.0871275815 1.7666438752 19.6455544164
291 1 1.76812 21.1571 1.808 12 10.7756058547 1.7852572085 18.1586952376
292 1 -0.00586161 22.9772 1.73483 12 11.0640301671 1.787862118 19.6351614292
293 1 3.53987 21.2712 0.095978 12 11.0323203283 1.7579044593 18.3418095038
294 1 5.25579 23.0902 0.106218 12 11.0330677138 1.7700744537 17.5340685404
295 1 5.23675 21.1437 1.84814 12 10.5902320007 1.7437340854 15.9292552708
296 1 3.57501 22.9615 1.78472 12 10.8287041642 1.7413115551 17.166332371
297 1 6.99686 21.1487 0.244223 12 11.0688558133 1.7672908898 16.0850158504
298 1 8.81433 22.97 0.15354 12 10.8739215546 1.7693151616 15.6271598066
299 1 8.85498 21.2198 1.74686 12 10.7197624126 1.7599011075 13.8530327421
300 1 6.99528 23.0035 1.8425 12 10.5697623783 1.7700744537 15.1409597008
301 1 10.6069 21.0617 -0.0243551 12 11.0449449485 1.7305725196 14.4651417043
302 1 12.3012 22.9669 42.3585 12 11.4078289419 1.7735996015 14.4757020231
303 1 12.3883 21.1522 1.63933 12 10.9578415599 1.7718356821 12.3433395372
304 1 10.6685 22.9784 1.71836 12 11.021192005 1.7696655759 13.485241654
305 1 14.1957 21.15 0.0317088 12 11.0592533583 1.7691980817 13.3214594011
306 1 15.9329 22.8561 0.124207 12 11.2570179134 1.7706398795 13.3889277243
307 1 15.9662 21.0622 1.67729 12 10.891624936 1.7412472114 11.3817167155
308 1 14.1079 22.9837 1.78356 12 11.2068882622 1.772975339 12.2935172359
309 1 17.799 21.1563 42.3493 12 10.8621699843 1.7448801937 12.9925257265
310 1 19.3624 22.9135 42.2775 12 10.9822840761 1.7642734658 13.6784581552
311 1 19.3775 21.1362 1.7854 12 10.9344692632 1.7612169323 11.3286924945
312 1 17.6133 22.8601 1.82184 12 11.0202111848 1.7642734658 11.7129712182
313 1 21.0589 21.1258 0.0503214 12 10.9533587366 1.7646613245 13.3293498112
314 1 22.9614 22.9418 42.3171 12 11.0512533717 1.7645714495 14.4868943747
315 1 22.9059 21.1786 1.71151 12 11.0319446121 1.7653652794 12.3329490046
316 1 21.1233 22.9207 1.62721 12 11.4781701693 1.7642734658 12.4061908716
317 1 24.7155 21.1893 42.4171 12 10.9494299795 1.7653652794 14.5474080494
318 1 26.4394 22.9298 42.3523 12 10.9335246203 1.7587404865 15.4475589853
319 1 26.376 21.1793 1.65711 12 10.8874356137 1.7587715916 13.5975707944
320 1 24.55 22.9729 1.75969 12 10.900541475 1.7614819135 13.1685165565
321 1 28.2466 21.1989 42.2412 12 10.9558045737 1.7352838028 16.0025210911
322 1 29.9366 22.9961 -0.00883594 12 10.8096357068 1.7588316424 16.8624756933
323 1 29.912 21.1766 1.77997 12 11.0103042607 1.7593831814 15.0935866848
324 1 28.2192 22.925 1.72663 12 11.0242083364 1.7594430066 14.5191175724
325 1 31.6745 21.2306 0.0588072 12 10.9493364168 1.7449490851 17.4673690516
326 1 33.6065 23.0282 0.0761283 12 11.2882857222 1.7581764572 18.7658597047
327 1 33.5567 21.2279 1.75142 12 11.1279969001 1.7778493972 17.1688664571
328 1 31.7347 22.9581 1.67092 12 11.2790454747 1.7641187602 16.4150053793
329 1 35.3144 21.1992 -0.00235095 12 10.8203505206 1.7532072476 19.6283557111
330 1 37.1608 23.0386 -0.0342567 12 11.1063220023 1.7593437263 21.1032267724
331 1 37.0623 21.2127 1.74341 12 11.0400181617 1.7578040611 19.5702376464
332 1 35.4038 22.9917 1.72728 12 11.1129613425 1.7529622787 18.6450557292
333 1 38.8532 21.184 -0.00371335 12 11.3062355011 1.7611127458 22.0616844192
334 1 40.6837 22.9487 42.2576 12 11.3111361665 1.7611127458 22.1766558054
335 1 40.6373 21.203 1.65089 12 11.3213425508 1.775916933 20.7627220618
336 1 38.8216 22.9106 1.92665 12 11.2354034588 1.7611127458 20.9767921177
337 1 42.3838 24.7282 42.3672 12 11.2959667275 1.7886352566 21.1347727844
338 1 1.78452 26.5461 42.3762 12 11.4730688594 1.7966075294 20.3137001796
339 1 1.80702 24.8723 1.75367 12 11.3092609535 1.7886352566 18.6178598479
340 1 -0.0365818 26.5705 1.75526 12 11.3183324253 1.7886352566 20.2774938114
341 1 3.53994 24.7474 0.0382708 12 11.0643978203 1.764548386 18.8035660666
342 1 5.30386 26.4879 -0.0111675 12 11.2328301778 1.7734567177 18.2933873044
343 1 5.38179 24.7945 1.78299 12 10.6668129751 1.7389441201 16.3730406171
344 1 3.60314 26.6129 1.73515 12 11.0185289723 1.7632384114 17.89785129
345 1 7.13272 24.7943 0.0826119 12 11.1032006585 1.7700744537 16.9197894253
346 1 8.84908 26.6007 0.021416 12 11.4727256793 1.7686615181 16.6112003713
347 1 8.73356 24.6492 1.84214 12 10.937667527 1.7686615181 14.6285932341
348 1 6.98303 26.5673 1.85654 12 11.253783677 1.7903315157 15.9533226391
349 1 10.4141 24.7263 0.106086 12 11.2908245441 1.773683418 15.4705008195
350 1 12.48 26.4932 42.397 12 10.9912447765 1.773683418 15.4701377528
351 1 12.3374 24.8045 1.65262 12 11.1015214427 1.773683418 13.4851627127
352 1 10.6437 26.4953 1.78891 12 11.171854247 1.7704060406 14.3365759036
353 1 14.1677 24.8275 42.399 12 11.3834015449 1.772975339 14.6236539805
354 1 15.9177 26.5558 42.325 12 11.2690244158 1.7671859944 15.0782136081
355 1 15.9539 24.7235 1.76772 12 10.9900880466 1.7678093927 12.7125380214
356 1 14.1552 26.5693 1.72288 12 11.0241936941 1.7678093927 13.575505008
357 1 17.6637 24.7065 -0.0168436 12 11.2425672254 1.7570173483 14.1636559432
358 1 19.355 26.5219 -0.00374527 12 11.1288042349 1.7400788083 14.9991950235
359 1 19.2985 24.7519 1.77267 12 11.1694621551 1.7642734658 12.7248075532
360 1 17.5715 26.4994 1.76328 12 10.8666210619 1.7470367527 13.2252663598
361 1 21.1145 24.7133 42.2808 12 10.9392613094 1.7618052516 14.6663883616
362 1 22.8827 26.5062 42.2783 12 11.0239034349 1.7618052516 15.6322133411
363 1 22.965 24.6499 1.69036 12 10.941697029 1.7618052516 13.2952031227
364 1 21.2159 26.3396 1.59991 12 11.1996584145 1.7461273419 13.7621203291
365 1 24.6802 24.8201 42.3244 12 11.0418176366 1.7613615247 15.3652191022
366 1 26.4391 26.5689 42.3667 12 11.0774271961 1.789833398 16.3147136366
367 1 26.4065 24.69 1.77619 12 11.3975717162 1.789833398 14.0892334954
368 1 24.5532 26.453 1.67562 12 11.3822996797 1.789833398 14.2316342984
369 1 28.1628 24.6911 0.0734017 12 10.970296446 1.7603062879 16.2773634179
370 1 30.0226 26.4723 0.0445413 12 10.9664798502 1.7620599104 17.6319867114
371 1 29.9965 24.7146 1.70177 12 11.1926803665 1.7631587882 15.7830931959
372 1 28.2217 26.5021 1.8388 12 11.3399131379 1.7883838298 15.3374157317
373 1 31.7764 24.7924 -0.0271342 12 10.9464418888 1.7582563622 18.1726820214
374 1 33.5029 26.5576 0.121812 12 11.1641992418 1.7582394686 19.5310676275
375 1 33.5053 24.8336 1.84023 12 11.0872088451 1.7582606824 17.7781694236
376 1 31.7415 26.5729 1.86489 12 11.2019714025 1.7620599104 17.1897591989
377 1 35.2859 24.7788 0.152344 12 11.2375971443 1.7582394686 20.1067848418
378 1 37.2196 26.5471 42.3586 12 11.0064067162 1.7632289063 22.0014302158
379 1 37.1878 24.7259 1.73649 12 11.0374299296 1.7626509615 20.2617042608
380 1 35.3696 26.631 1.79442 12 11.1675694875 1.7626509615 19.5207506809
381 1 38.8898 24.684 42.4097 12 11.029854788 1.7696561343 22.617227657
382 1 40.6288 26.4598 42.3766 12 11.2644307341 1.7862328714 22.6883729644
383 1 40.6413 24.662 1.72024 12 11.1035440243 1.7885123487 21.195762365
384 1 38.8833 26.4333 1.64419 12 11.0831255607 1.7626509615 22.0059282872
385 1 42.3161 28.3324 0.0868664 12 11.4570750715 1.7966075294 21.9455154808
386 1 1.67798 30.1356 0.0424882 12 11.39248419 1.7966075294 21.5118026766
387 1 1.75088 28.3192 1.81011 12 11.1714390483 1.7966075294 19.5592050826
388 1 -0.0339481 30.1514 1.84673 12 11.027334097 1.7607377271 21.4182229503
389 1 3.53737 28.3846 0.0680005 12 11.2405507968 1.7961703396 19.7617566743
390 1 5.24365 30.1306 0.0590277 12 10.8825047779 1.7651337827 19.5350266217
391 1 5.28144 28.3472 1.77799 12 10.8466617644 1.7776122607 17.5191165356
392 1 3.525 30.1371 1.75344 12 10.727464975 1.7665473818 19.2588664603
393 1 6.97613 28.2996 42.4038 12 11.2952368555 1.7737491723 18.0132860195
394 1 8.89638 30.0958 42.4057 12 11.1287455524 1.7567782444 17.8817529976
395 1 8.81867 28.3388 1.71366 12 11.3496583716 1.7991005331 15.7767368302
396 1 7.10822 29.9448 1.81361 12 11.1645278216 1.7625703863 17.1907956533
397 1 10.7057 28.2387 42.3724 12 10.9397653226 1.7727364148 16.5246340982
398 1 12.3616 29.9968 42.3637 12 10.7522328272 1.7520793224 16.8486912508
399 1 12.4694 28.2963 1.7176 12 10.9702522279 1.7792697833 14.524378413
400 1 10.7008 29.9676 1.71733 12 10.9520097351 1.7586510702 15.7828048752
401 1 14.0915 28.3748 42.3531 12 10.964915499 1.7619368402 15.8924682533
402 1 15.9237 30.0735 42.4361 12 11.0313715341 1.7619368402 16.4360657043
403 1 15.8879 28.2639 1.77376 12 11.1811589422 1.7619368402 14.0324300778
404 1 14.1503 30.1343 1.74762 12 11.1627515311 1.760272336 15.0993510184
405 1 17.6806 28.3468 -0.00672402 12 11.1488158932 1.760576695 15.5820050001
406 1 19.37 30.1393 0.0640887 12 11.0174651515 1.7340908999 16.4668838364
407 1 19.3795 28.3227 1.76662 12 11.1396985259 1.7498458217 14.1072901466
408 1 17.6576 30.1462 1.91148 12 10.9807593125 1.760272336 14.8150832538
409 1 21.1383 28.2385 -2.4656e-04 12 11.2502950092 1.7655295973 15.9355793599
410 1 23.0 30.0 -0.0225426 12 11.118458041 1.7561159673 17.0403946479
411 1 22.9309 28.2274 1.71308 12 11.353557917 1.755392872 14.6936358563
412 1 21.188 30.0244 1.70347 12 11.1907621601 1.7553734608 15.2744421424
413 1 24.6955 28.3483 42.3271 12 10.8274966499 1.7547503364 16.6207240219
414 1 26.4026 30.0071 0.0378652 12 10.8247259211 1.7276112923 17.7172849848
415 1 26.4263 28.2659 1.74235 12 11.1934654427 1.789833398 15.4725243741
416 1 24.7291 30.1389 1.73645 12 11.2091796233 1.7664444696 16.0028757855
417 1 28.2398 28.2056 0.082743 12 10.9561697784 1.7603062879 17.4548852211
418 1 29.9743 30.0901 0.0165442 12 10.9336121937 1.7729138568 19.0845339984
419 1 29.9752 28.3444 1.74965 12 10.9908899892 1.7728478587 16.9806326629
420 1 28.2155 30.0472 1.7652 12 11.0778762901 1.7750576346 17.0071515988
421 1 31.7492 28.356 0.0765086 12 10.959363259 1.7442413956 19.1596446756
422 1 33.5405 30.01 0.0182815 12 11.0274080808 1.7743244568 20.8777181852
423 1 33.5461 28.3076 1.90443 12 11.0051012464 1.7411639988 18.8536418549
424 1 31.7535 30.0336 1.80909 12 10.9945903762 1.7750576346 18.650900736
425 1 35.3654 28.26 0.0625936 12 11.2497082306 1.7743244568 21.2552422037
426 1 37.1115 30.1164 0.0507436 12 11.0700457281 1.774107057 22.9910308775
427 1 37.2026 28.326 1.84956 12 11.3107655764 1.7634510787 21.2203140802
428 1 35.345 30.0255 1.86863 12 11.2253306285 1.7743244568 20.6293294759
429 1 38.9567 28.3572 0.0605721 12 11.0165907906 1.7623501186 23.6115226407
430 1 40.7598 30.0361 0.0498942 12 11.0535576654 1.7649006564 23.5985635998
431 1 40.6565 28.3012 1.92912 12 11.0241118674 1.7607377271 21.9192066484
432 1 38.9389 30.0747 1.7208 12 10.9798338448 1.7621054377 23.1206514523
433 1 42.3911 31.881 42.3346 12 11.0499934622 1.7738983972 23.3801923878
434 1 1.74207 33.6874 42.4025 12 11.2203243687 1.7830072678 23.1877312639
435 1 1.69501 31.8937 1.74857 12 10.7523923352 1.7673384275 21.1672808075
436 1 0.0588038 33.5812 1.72373 12 10.6825181936 1.7735354938 23.0503026483
437 1 3.63391 31.9022 0.046743 12 10.9965252583 1.7797674982 21.2029421689
438 1 5.33372 33.6039 0.0373388 12 10.9652489575 1.7830528729 21.1648296245
439 1 5.35916 31.8477 1.83422 12 10.6628724246 1.7402073688 19.0170112723
440 1 3.52734 33.5517 1.76745 12 10.8660544823 1.7830528729 20.9896892345
441 1 7.11881 31.8766 0.0816564 12 11.1239038874 1.7541975341 19.3913241313
442 1 8.85597 33.5181 42.3647 12 10.980093036 1.7546775978 19.6897552611
443 1 8.90338 31.8465 1.77125 12 11.3838600774 1.7728268092 17.3805481812
444 1 7.09897 33.7111 1.77241 12 10.7999308018 1.7411768753 19.2281806431
445 1 10.6122 31.7441 42.2994 12 10.9706706791 1.7546775978 18.1989888611
446 1 12.3592 33.6415 42.3541 12 11.250362027 1.7562492517 18.8347711739
447 1 12.2769 31.7727 1.72536 12 11.2235177186 1.7546290153 16.3392217652
448 1 10.6588 33.6531 1.69123 12 11.2134771575 1.7546513715 17.9301206591
449 1 14.1998 31.7775 -0.0279922 12 11.1680861325 1.7546290153 17.4669031761
450 1 15.879 33.6226 42.4305 12 10.9719015974 1.7655717015 18.4520925586
451 1 15.9976 31.8317 1.78468 12 10.7887071745 1.7576542191 15.9473669151
452 1 14.1549 33.543 1.75429 12 11.0871176003 1.7575247801 17.1448088919
453 1 17.6078 31.7809 42.4168 12 10.9643733457 1.7655717015 17.3220627713
454 1 19.4046 33.5334 0.0502547 12 11.5556882007 1.7801318298 18.4430896797
455 1 19.4145 31.7608 1.89387 12 11.1197758042 1.7487687997 15.904049319
456 1 17.6663 33.5674 1.76628 12 11.0833097885 1.7837581451 17.1001860352
457 1 21.2476 31.8048 42.3353 12 11.1087258942 1.7801318298 17.7229618204
458 1 22.9958 33.5661 42.3023 12 11.1225757535 1.7799873237 19.0029930481
459 1 22.8909 31.863 1.76262 12 11.058510755 1.7561159673 16.505802923
460 1 21.229 33.5437 1.76184 12 10.9891902349 1.7801318298 17.2827612442
461 1 24.7576 31.822 42.3516 12 11.1794095726 1.7575804304 18.3803544137
462 1 26.507 33.6177 42.3499 12 10.9736846927 1.7575774015 19.8950628761
463 1 26.5165 31.8962 1.79934 12 11.19373532 1.7367932847 17.4750891315
464 1 24.7396 33.6066 1.76821 12 10.958551355 1.7575804304 18.0168156448
465 1 28.1978 31.8215 0.127096 12 10.9070493402 1.7383783838 19.2012751967
466 1 29.973 33.556 0.0292085 12 10.9995511033 1.7388662036 20.9642086356
467 1 29.9868 31.928 1.8409 12 11.125918237 1.7750576346 18.7717443918
468 1 28.2558 33.669 1.83398 12 11.0744909389 1.7388662036 19.1670017111
469 1 31.7728 31.8114 0.0619255 12 11.1046299322 1.7514849107 20.7704794507
470 1 33.694 33.4772 0.0567664 12 11.0294025404 1.7514686917 22.6065520819
471 1 33.5828 31.7578 1.79824 12 10.9950259448 1.7651072789 20.4631928569
472 1 31.8444 33.4718 1.79861 12 10.9912052168 1.7529423711 20.5461304961
473 1 35.316 31.8058 0.0150564 12 11.062954468 1.7743244568 22.6557002298
474 1 37.0971 33.6273 42.2645 12 10.9642461194 1.7596911765 24.6586694942
475 1 37.1267 31.8485 1.78424 12 11.1920165506 1.765405159 22.6039606677
476 1 35.4148 33.5669 1.83072 12 10.963609904 1.765405159 22.4020258415
477 1 38.8327 31.8138 0.0111113 12 11.1109711181 1.7649006564 24.7971803905
478 1 40.6019 33.5572 0.0214434 12 11.2891131939 1.7996491119 25.2241251763
479 1 40.5907 31.9686 1.77075 12 11.1504753762 1.7644921337 23.4740359807
480 1 38.7764 33.7141 1.70162 12 11.1387347668 1.7690223029 24.6179646794
481 1 42.3341 35.426 42.4258 12 11.0964374617 1.7738983972 25.1518263923
482 1 1.69954 37.1841 42.3049 12 10.9860707492 1.7519581674 25.2245486211
483 1 1.70942 35.3523 1.69781 12 10.8576070454 1.7517947834 23.0968781154
484 1 0.0698689 37.1091 1.61894 12 11.0693950909 1.7512468109 25.1349171473
485 1 3.55865 35.5093 0.104195 12 11.0110502962 1.7830528729 23.0977168032
486 1 5.21685 37.1483 0.0465569 12 10.8573565216 1.7623353143 23.3234109052
487 1 5.23214 35.3725 1.72791 12 10.8852590264 1.7274809803 21.1631170302
488 1 3.45095 37.1796 1.83213 12 10.8333023625 1.7223816606 23.1721474526
489 1 7.07476 35.3157 -0.0223758 12 11.2156419183 1.7628323513 21.4150443535
490 1 8.93733 37.2089 -0.0409505 12 11.3468459677 1.7628323513 21.9944771422
491 1 8.77218 35.2997 1.78873 12 10.9255161666 1.7530682718 19.5559739398
492 1 7.07889 37.1428 1.78878 12 11.4135059943 1.7628323513 21.4678487893
493 1 10.533 35.3746 42.3388 12 11.27375733 1.7562492517 20.3423937331
494 1 12.3811 37.1447 -2.38138e-04 12 11.1888021102 1.7565943187 21.1079493623
495 1 12.4491 35.358 1.80197 12 11.113380738 1.7562492517 18.5957943833
496 1 10.5722 37.0589 1.87023 12 11.2236086633 1.7565943187 20.1961170284
497 1 14.1517 35.2882 -0.0141626 12 10.9361248156 1.7549939547 19.6177810997
498 1 16.1066 37.0779 0.0863719 12 11.2378519327 1.7936461841 20.7312410427
499 1 15.826 35.3469 1.82075 12 11.1963304835 1.7934234499 18.2785965439
500 1 14.1368 37.0783 1.81296 12 11.3152199357 1.7936461841 19.6382219928
501 1 17.6918 35.3154 42.3878 12 11.2466228562 1.7842108879 19.6088637916
502 1 19.3799 37.0848 42.4308 12 11.1480716728 1.7800024454 20.875874655
503 1 19.4126 35.315 1.89659 12 10.9186234751 1.7829228562 18.2932774256
504 1 17.7249 37.1262 1.75788 12 11.1428484466 1.7931729828 19.6804146017
505 1 21.1674 35.3625 -0.0194158 12 11.3179767833 1.7812903748 19.8034666824
506 1 22.9795 37.043 42.1803 12 11.1757184961 1.7814980671 21.3262390899
507 1 22.9419 35.2565 1.64871 12 11.1732374583 1.758700259 18.7596874802
508 1 21.1483 37.0652 1.68424 12 11.2277376461 1.7814980671 19.7928267125
509 1 24.7477 35.3283 42.2751 12 11.1915550315 1.7575804304 20.494267347
510 1 26.3923 37.1808 5.71074e-04 12 11.0407265331 1.7687995405 22.0742249514
511 1 26.4128 35.3175 1.82804 12 11.0171277883 1.7650646571 19.6201360091
512 1 24.6437 37.1183 1.69988 12 11.1583389235 1.7642895502 20.4169772592
513 1 28.1911 35.3787 -0.0287763 12 11.1844847905 1.7496260259 21.5149045115
514 1 30.0689 36.9852 42.2868 12 11.3684531005 1.7674274232 23.3106643532
515 1 30.0935 35.314 1.72307 12 11.172648032 1.7625351155 21.022397039
516 1 28.2131 36.9922 1.75575 12 11.3501134701 1.7650646571 21.4126257613
517 1 31.8511 35.1716 0.00956566 12 11.2905192693 1.7661184242 22.7643039799
518 1 33.5862 37.043 42.3906 12 11.1399581994 1.7674274232 24.7002335907
519 1 33.5926 35.3014 1.83551 12 11.0102041228 1.7659812247 22.4435091753
520 1 31.722 37.1066 1.80254 12 11.3647801132 1.772028309 22.8044090784
521 1 35.2894 35.2723 42.4017 12 10.9813557242 1.7429131439 24.447346855
522 1 37.1264 37.0951 0.00464823 12 11.0028082756 1.7449942219 26.4664825115
523 1 37.0931 35.336 1.695 12 10.890702464 1.7474899599 24.4402274561
524 1 35.2833 37.1144 1.7427 12 10.8826632642 1.7641773918 24.4886581287
525 1 38.8196 35.2956 42.3764 12 11.0548157421 1.7716258002 26.4705927727
526 1 40.4512 37.1615 42.2497 12 11.2462618217 1.7701130318 27.3462114594
527 1 40.6214 35.4041 1.79278 12 11.5410824063 1.7603426214 25.1806893826
528 1 38.8028 37.1943 1.7007 12 11.0508905249 1.7662834141 26.5437520071
529 1 42.3533 38.8937 42.3579 12 11.130334975 1.7705586602 27.2252214136
530 1 1.75008 40.6713 42.3177 12 10.8608433095 1.7491626122 26.4522146425
531 1 1.68725 38.9533 1.76841 12 11.0125072864 1.79133288 25.2820280881
532 1 42.3943 40.6877 1.68056 12 11.0458943183 1.7490060852 26.4114179023
533 1 3.4784 38.8973 -0.0163221 12 10.8577811378 1.7486538961 25.3185601691
534 1 5.20123 40.6903 0.112888 12 10.9165273307 1.7614906286 24.5972646687
535 1 5.25148 38.8614 1.66213 12 10.9632810862 1.7495995283 23.5302947305
536 1 3.44026 40.6115 1.82295 12 10.8473026828 1.7422242679 24.4669450415
537 1 7.05291 38.9353 0.0353442 12 11.0197350838 1.7589578205 23.7869500091
538 1 8.84168 40.482 0.0231288 12 11.0080039628 1.7275714631 23.4110721505
539 1 8.91653 38.8409 1.8687 12 10.7338028595 1.7555483996 22.0041650016
540 1 7.01736 40.6354 1.85186 12 11.0048460783 1.7518372586 22.7843372867
541 1 10.6089 38.964 42.3759 12 11.0753208668 1.7555483996 22.8004550694
542 1 12.4165 40.6578 0.0527508 12 10.7414007863 1.7491062789 22.3661982005
543 1 12.415 38.9221 1.66692 12 11.1922194013 1.7905293163 21.3637261228
544 1 10.5741 40.5832 1.87968 12 10.8526189538 1.7542669472 21.6298493341
545 1 14.2154 38.9336 0.0295899 12 10.9531251888 1.7587886282 22.1937545685
546 1 15.8511 40.6911 42.3774 12 11.1579062744 1.7678457843 21.864848011
547 1 15.9785 38.9367 1.74768 12 11.1248022479 1.7936461841 21.0338418063
548 1 14.1417 40.6637 1.78945 12 10.9160599511 1.7646993685 20.8560985626
549 1 17.7234 38.8575 42.3113 12 11.2425257724 1.7700444011 22.2190892975
550 1 19.4578 40.6742 42.2556 12 11.1461464339 1.7772043001 21.9450037498
551 1 19.5157 38.9181 1.65487 12 11.3133033336 1.77134403 21.1399332703
552 1 17.665 40.692 1.7615 12 11.3705773781 1.7710877869 20.5593887372
553 1 21.2654 38.93 42.3764 12 10.9631917506 1.7814980671 22.3362643449
554 1 22.9332 40.711 -0.0167699 12 11.0151223097 1.7736809226 21.8945411205
555 1 22.8398 38.9321 1.764 12 11.2334897754 1.7600685922 21.3698433477
556 1 21.2496 40.6896 1.67309 12 10.8487812817 1.7701173396 20.7458299171
557 1 24.6993 38.7897 -0.0284735 12 11.4820237241 1.7769342077 22.7575900605
558 1 26.5906 40.7099 0.0467314 12 11.4332936644 1.7897797215 22.4129017011
559 1 26.4488 38.8766 1.80105 12 11.0518129107 1.7707510625 22.1551498933
560 1 24.7164 40.7166 1.79416 12 11.1616117199 1.7688603256 20.9378578932
561 1 28.3033 38.8702 0.0834034 12 11.2966187833 1.7687995405 23.806790189
562 1 29.927 40.6079 -0.0229499 12 11.0962860132 1.7846556899 23.5293898579
563 1 30.0083 38.8671 1.70842 12 11.3566326142 1.7848946 23.3508526584
564 1 28.1668 40.6534 1.85605 12 10.7464026282 1.7817484221 21.7679434831
565 1 31.7587 38.894 0.0324298 12 11.040470682 1.7701191245 25.1119377507
566 1 33.5573 40.5933 -0.00725414 12 11.1685400319 1.7626762153 25.0784570546
567 1 33.6015 38.8233 1.71802 12 11.1360928514 1.772028309 24.8390386253
568 1 31.8606 40.6417 1.7307 12 11.2170834199 1.7848946 23.2648094318
569 1 35.3255 38.8697 42.3803 12 10.9460168658 1.754535086 26.6801159096
570 1 37.1417 40.6396 -0.0289175 12 11.2099195666 1.7697996407 26.9857708879
571 1 37.0612 38.8233 1.71015 12 11.1053062252 1.7919867937 26.5549884571
572 1 35.4006 40.6244 1.72392 12 11.2802076349 1.7697996407 25.0751873433
573 1 38.7862 38.9531 42.3646 12 11.1625521297 1.7731689784 28.5451804016
574 1 40.6269 40.7373 42.3739 12 11.2356366499 1.7714003678 28.3776898588
575 1 40.6145 38.88 1.63435 12 11.4306704174 1.7714003678 27.3099945172
576 1 38.9283 40.7164 1.89618 12 11.5263272192 1.7697996407 27.0698607
577 1 -9.31699e-04 0.0664591 3.44687 12 11.0644563946 1.7680581657 24.3207867253
578 1 1.83072 1.83185 3.45037 12 11.237814867 1.7695569696 22.2377898903
579 1 1.69078 0.0125253 5.2436 12 11.1803394426 1.7695569696 22.3718251553
580 1 -0.00391145 1.89703 5.24902 12 11.2626033518 1.8132392464 22.2578865936
581 1 3.60481 -0.0180829 3.39362 12 11.1940081755 1.7695569696 22.3696447578
582 1 5.35729 1.77246 3.56466 12 10.9576655649 1.7670609669 20.225369669
583 1 5.43507 42.2671 5.23714 12 11.1386743595 1.751054578 20.4855916896
584 1 3.62206 1.62217 5.2835 12 11.3400908 1.7858046707 20.293507268
585 1 7.05404 42.3912 3.47743 12 10.9399449276 1.7692117746 20.5976367154
586 1 8.84663 1.67846 3.51487 12 11.3003536988 1.770068683 18.6971523473
587 1 8.79715 42.2365 5.2808 12 11.2704276951 1.7701130451 18.9502992836
588 1 7.07502 1.679 5.26715 12 11.2431587778 1.7701130451 18.4071123119
589 1 10.5961 42.3809 3.5504 12 11.05037282 1.7692384704 19.2627173148
590 1 12.2697 1.83747 3.48995 12 11.0182097801 1.7541741123 17.5504425236
591 1 12.3367 42.2674 5.34677 12 11.1530349666 1.758927655 17.7603569407
592 1 10.6065 1.71345 5.35349 12 11.431127969 1.7701130451 16.8741963673
593 1 14.0893 0.00117117 3.58297 12 11.1696484151 1.76373976 18.3950391425
594 1 15.9682 1.72599 3.53835 12 11.1954621021 1.7766586398 16.9144861815
595 1 15.8306 0.045491 5.40134 12 11.1654363919 1.7766586398 16.869292553
596 1 14.0915 1.81795 5.27476 12 11.1613746753 1.7766310879 15.9638781803
597 1 17.8144 -0.0435453 3.59375 12 11.2485802815 1.7651474086 18.0723014939
598 1 19.4968 1.86632 3.43963 12 10.9469635278 1.7309503565 16.8535378574
599 1 19.527 3.87396e-04 5.27069 12 11.0421299577 1.7891029488 16.9894846983
600 1 17.6383 1.86676 5.15457 12 11.1837338247 1.7766586398 15.6197593608
601 1 21.1935 42.365 3.5669 12 10.8255896356 1.7509914748 18.2480442635
602 1 22.8907 1.84314 3.50389 12 10.9037939108 1.7478293259 16.9131365975
603 1 22.9002 0.0899447 5.27023 12 11.3504881776 1.7655995198 17.2495760182
604 1 21.0881 1.80554 5.27282 12 10.9717357795 1.759743013 15.7258457874
605 1 24.7935 0.0659678 3.61835 12 10.9579845042 1.7655995198 18.4727024907
606 1 26.4231 1.84231 3.54872 12 10.854318148 1.7647306505 17.5577964329
607 1 26.5523 0.0542821 5.26905 12 11.0031575436 1.7647415175 17.9801250565
608 1 24.7326 1.845 5.27323 12 10.8675399135 1.7655995198 16.0926598363
609 1 28.3175 0.0366894 3.56347 12 11.0652708795 1.7647306505 19.4887402115
610 1 30.0389 1.76675 3.53967 12 11.0387303147 1.7602002481 18.9732996504
611 1 30.0794 42.3885 5.33462 12 10.8252893692 1.7496606759 19.3276732462
612 1 28.216 1.87977 5.34522 12 11.0206399818 1.7637819588 17.0964719258
613 1 31.7667 42.3216 3.52787 12 11.024942771 1.7590371075 21.0797612322
614 1 33.5484 1.77203 3.57951 12 11.0921296423 1.7698766834 20.7871937704
615 1 33.5978 0.00388134 5.24541 12 11.2526415186 1.7601551082 21.1610555388
616 1 31.6987 1.78396 5.31578 12 10.918373691 1.7583767311 18.842871951
617 1 35.3651 0.0188626 3.4601 12 11.1010469418 1.7518685986 23.0249398831
618 1 37.084 1.85916 3.54764 12 11.1154798824 1.7659455694 23.0038198141
619 1 37.0517 42.3916 5.20393 12 10.9697005423 1.7434427089 23.3487940907
620 1 35.3419 1.72583 5.37095 12 10.9019339993 1.7532604774 21.0715816662
621 1 38.9183 0.114423 3.47707 12 11.1305777659 1.7504205658 25.2707125947
622 1 40.723 1.81321 3.49356 12 11.1293480448 1.8138701254 24.321264953
623 1 40.6714 0.00547631 5.25178 12 11.3367897063 1.8138701254 24.4142230184
624 1 38.7674 1.73653 5.32055 12 11.43989112 1.8138701254 23.4036399576
625 1 -0.00659514 3.48305 3.4054 12 11.1012086967 1.7516506959 22.3746797798
626 1 1.69976 5.23515 3.49965 12 11.2542632088 1.7544748749 20.3232518038
627 1 1.84961 3.53526 5.23915 12 11.06341267 1.7573745968 20.2041857004
628 1 42.364 5.27113 5.43421 12 11.2099349983 1.7516506959 20.3555593823
629 1 3.57063 3.60168 3.68148 12 10.921015718 1.7669437447 20.0827289976
630 1 5.26975 5.28218 3.62071 12 10.9036233208 1.7644014233 18.2658865352
631 1 5.36242 3.47391 5.27064 12 10.9304210472 1.7644014233 18.21906088
632 1 3.43391 5.37587 5.32654 12 10.8416926274 1.7644014233 18.1599342174
633 1 7.07288 3.53009 3.5113 12 10.9426547299 1.7516996578 18.3586993997
634 1 8.86986 5.23533 3.62652 12 11.1733609911 1.7550676273 16.4892199085
635 1 8.78 3.48992 5.24963 12 11.204558524 1.7668269473 16.4462932991
636 1 6.99605 5.23739 5.30035 12 10.8093866401 1.7617660015 16.2886994932
637 1 10.5146 3.53998 3.45223 12 11.1269562779 1.755684386 16.9651569185
638 1 12.3543 5.23288 3.62242 12 10.9374017042 1.7682470902 15.233724665
639 1 12.3284 3.44465 5.35704 12 10.7463665331 1.7536931681 15.1540808441
640 1 10.6799 5.20521 5.35014 12 10.8815400382 1.755684386 14.5441910218
641 1 14.1113 3.55024 3.55161 12 10.7489935168 1.7765015168 15.884336603
642 1 15.8387 5.29693 3.47715 12 11.2805634112 1.7764141965 14.4729887584
643 1 15.8183 3.59439 5.36678 12 11.2159021623 1.7766586398 14.3409746331
644 1 13.9899 5.27558 5.37921 12 10.7878831111 1.7370273089 13.4762941002
645 1 17.653 3.4773 3.40651 12 11.0006339554 1.7765015168 15.6354429351
646 1 19.3556 5.17909 3.41913 12 11.1211413356 1.7696431843 14.5752317302
647 1 19.3892 3.56977 5.26455 12 10.8946659054 1.7595784373 14.3606105659
648 1 17.66 5.24979 5.3395 12 11.134750883 1.7645682144 13.0152984674
649 1 21.2778 3.64551 3.50662 12 10.9512290367 1.759743013 15.5292021425
650 1 22.986 5.31883 3.5798 12 10.8950861401 1.7502694171 14.4376529818
651 1 22.9221 3.50945 5.30065 12 10.6313915371 1.759743013 14.493699048
652 1 21.1788 5.32191 5.3306 12 11.0036234398 1.759743013 13.0548312723
653 1 24.6408 3.52091 3.58591 12 10.6885918139 1.7305799251 15.8997342116
654 1 26.4402 5.29519 3.63093 12 11.1510520306 1.7566822785 15.1930084783
655 1 26.5058 3.47775 5.35528 12 10.8479492529 1.777620781 15.2870941875
656 1 24.7069 5.2647 5.33964 12 10.8003024391 1.7376958816 13.505124411
657 1 28.2865 3.55549 3.52866 12 11.0219168217 1.7637819588 17.0413847231
658 1 30.0458 5.32759 3.56964 12 10.7833006133 1.7469536924 16.7661687286
659 1 29.9968 3.56598 5.2593 12 10.7540683949 1.7459443458 16.779206911
660 1 28.2503 5.2606 5.33047 12 11.0583969085 1.7426583059 14.7921169667
661 1 31.7925 3.49643 3.54016 12 10.9821771685 1.7700321404 18.7674481948
662 1 33.4829 5.30465 3.50647 12 11.2012109947 1.7832651262 18.8240319256
663 1 33.4455 3.42561 5.43243 12 11.1868326826 1.7700321404 18.7834585811
664 1 31.7035 5.32828 5.25538 12 10.459038824 1.7659699821 16.6841092072
665 1 35.3239 3.46023 3.6021 12 11.2879554153 1.7832651262 20.9214913347
666 1 37.0801 5.27991 3.60694 12 10.8763302358 1.7826723797 21.231319383
667 1 37.0929 3.55727 5.36464 12 10.988672363 1.7623874595 21.2284856079
668 1 35.3012 5.22278 5.37986 12 11.3088625005 1.7832637292 19.1069834611
669 1 38.9053 3.54853 3.55929 12 11.1550903695 1.7567411843 23.409723802
670 1 40.5837 5.26377 3.57573 12 11.0689348882 1.7516506959 22.5535721777
671 1 40.5976 3.62812 5.38652 12 11.2604558426 1.8138701254 22.4527220874
672 1 38.8455 5.26518 5.32006 12 10.8315187213 1.7574189228 21.7046940674
673 1 42.3272 6.95892 3.57907 12 11.1787118131 1.7679419363 20.5741459893
674 1 1.70662 8.65992 3.48604 12 11.0523898945 1.7466864358 18.725227571
675 1 1.74371 7.01635 5.31943 12 10.6790771997 1.7702994289 18.3136926331
676 1 0.0662818 8.70912 5.3494 12 11.1328960365 1.7729306736 18.7136393004
677 1 3.55501 7.09524 3.68517 12 10.8824794663 1.7544748749 18.1712877561
678 1 5.27535 8.78623 3.58649 12 10.8815966851 1.7716419609 16.4978030371
679 1 5.37016 7.02576 5.38984 12 11.0056866164 1.7716419609 16.1070726334
680 1 3.43822 8.8144 5.31827 12 10.9549897932 1.7716419609 16.3726426736
681 1 7.11577 7.02878 3.58651 12 10.9137022207 1.7546666826 16.3957070197
682 1 8.76053 8.76962 3.71195 12 10.7907649608 1.7530210103 14.5386751557
683 1 8.8114 6.92288 5.42195 12 10.9039540108 1.7507089367 14.353651004
684 1 7.02816 8.77577 5.32792 12 10.7489777678 1.7686955419 14.3481913564
685 1 10.6095 7.09297 3.75015 12 11.1275131905 1.7543266051 14.6240957223
686 1 12.3747 8.82332 3.56535 12 10.934520065 1.7492776362 13.1443668266
687 1 12.3901 7.01532 5.34585 12 10.8128368375 1.7357503983 12.8945928058
688 1 10.5615 8.86611 5.31766 12 10.7269019191 1.754355488 12.5158230335
689 1 14.1408 7.01554 3.50855 12 10.832672587 1.7490695215 13.7546764442
690 1 15.8643 8.63467 3.51797 12 10.9166104974 1.7642451418 12.4031671092
691 1 15.8346 6.96306 5.38709 12 10.9376953553 1.7642451418 11.9644231098
692 1 14.1211 8.81829 5.22648 12 10.9416642855 1.7724363868 11.3992885843
693 1 17.6244 7.03061 3.64592 12 11.2094970784 1.7696431843 13.1737992976
694 1 19.4093 8.85282 3.51806 12 11.1642901733 1.7687412868 12.2558609004
695 1 19.4257 7.06597 5.26884 12 10.9837159302 1.7670072127 11.9795700059
696 1 17.6427 8.7837 5.37369 12 10.7748683846 1.7642451418 10.7669092059
697 1 21.1492 7.01761 3.51494 12 11.3077664994 1.7696431843 13.3738147541
698 1 22.9262 8.88218 3.49113 12 10.9821454827 1.7413435446 12.5355355777
699 1 23.0276 7.15251 5.27436 12 10.6831418998 1.7425902902 11.9891474395
700 1 21.256 8.76119 5.16846 12 10.9194960479 1.7604435295 11.0351864032
701 1 24.6592 7.04048 3.50786 12 10.8362856095 1.7412061153 13.7626746787
702 1 26.5141 8.89924 3.52315 12 10.7919725444 1.7454680644 13.4256247241
703 1 26.4352 7.15564 5.33661 12 10.9294717875 1.7438352256 12.861556123
704 1 24.7382 8.85754 5.24371 12 10.6991514693 1.7320802689 11.4272464266
705 1 28.099 7.09229 3.59805 12 10.9053870077 1.7426583059 14.8687734982
706 1 30.101 8.7747 3.49456 12 11.0367907693 1.7671552794 15.2203503673
707 1 30.0636 7.03055 5.23371 12 10.8233175532 1.7654352276 14.8015338681
708 1 28.313 8.83098 5.20973 12 11.0026195321 1.7402515975 12.9749398506
709 1 31.7699 7.0847 3.5322 12 10.5868512166 1.7531379143 16.8962531895
710 1 33.5465 8.91869 3.50374 12 10.9528690927 1.7534864967 17.2331436448
711 1 33.377 7.03033 5.24315 12 11.1480239563 1.763804946 16.9383369037
712 1 31.7986 8.8102 5.30058 12 10.9278575365 1.7401603674 15.0142038782
713 1 35.2976 7.02536 3.59424 12 11.1086860231 1.7832651262 19.1692722666
714 1 37.117 8.79506 3.58937 12 10.9037241922 1.7512468618 19.7784461908
715 1 37.0266 6.99912 5.2974 12 11.0918025817 1.7574189228 19.5546764459
716 1 35.2379 8.97173 5.31526 12 11.1842364915 1.7423544214 17.3604233499
717 1 38.8196 7.03736 3.49102 12 11.1927350099 1.7574189228 21.7890841037
718 1 40.7535 8.74045 3.50758 12 11.333806117 1.7735396056 21.0215274246
719 1 40.5778 6.95824 5.31213 12 10.8523097179 1.7735116708 20.8793380534
720 1 38.838 8.77143 5.38237 12 11.0272394723 1.7735396056 20.2571117969
721 1 42.4235 10.5077 3.43249 12 11.1614946773 1.7630301207 19.288540725
722 1 1.75793 12.2565 3.45754 12 11.1001541164 1.7612961982 17.5656230279
723 1 1.64387 10.67 5.2682 12 10.9187067758 1.7187615132 16.9109142708
724 1 42.3243 12.3006 5.3236 12 11.2411138309 1.7716134951 17.7532213555
725 1 3.40307 10.4301 3.52771 12 11.193008219 1.7910723405 16.9788610346
726 1 5.21151 12.2809 3.43195 12 11.4388029922 1.7977506942 15.3019473458
727 1 5.30617 10.5587 5.34189 12 11.1931521876 1.7977506942 14.4929218728
728 1 3.39514 12.1996 5.34446 12 11.2481888691 1.7977506942 15.1837825999
729 1 7.04678 10.4996 3.56329 12 10.9963280433 1.7786884028 14.8092710788
730 1 8.77417 12.3294 3.66242 12 11.16884201 1.7784895468 13.0199472124
731 1 8.75482 10.6203 5.39544 12 10.7309989723 1.7406640685 12.4851602136
732 1 7.03526 12.3538 5.3108 12 10.9079907793 1.7947980866 12.846610264
733 1 10.5214 10.5226 3.60495 12 11.1056648897 1.7899374479 12.937409769
734 1 12.3593 12.2881 3.55143 12 11.1455553809 1.7691218206 11.3701837778
735 1 12.3303 10.5153 5.36732 12 10.9592679025 1.7407632389 10.8576376417
736 1 10.6856 12.2549 5.46474 12 11.1952240123 1.7876945415 10.6808014508
737 1 14.2287 10.5189 3.52519 12 11.126145875 1.7671196731 11.6075294407
738 1 15.9669 12.2951 3.51392 12 11.2040114318 1.7678599425 10.3367481309
739 1 15.844 10.5085 5.29005 12 10.8589143551 1.7640471052 9.8709765973
740 1 14.1189 12.2916 5.29423 12 11.138360092 1.7678599425 9.3306072945
741 1 17.5374 10.4023 3.60391 12 11.1842514885 1.7556304767 11.1037962604
742 1 19.3668 12.225 3.40328 12 11.313337503 1.7573249629 10.4803273148
743 1 19.4154 10.5334 5.31907 12 11.0765709398 1.7590383507 9.8173656331
744 1 17.6897 12.2795 5.24476 12 11.0882700812 1.7633699098 8.6972221055
745 1 21.2047 10.703 3.50042 12 11.2846482328 1.7604435295 11.5268717959
746 1 23.0591 12.3459 3.46217 12 11.0148868586 1.7484798949 11.3617851317
747 1 23.0189 10.6128 5.2906 12 10.9920089476 1.7604435295 10.2080831215
748 1 21.1881 12.4314 5.23665 12 11.0735839136 1.7545533613 9.2486018922
749 1 24.8036 10.6421 3.51209 12 10.6010827367 1.7378433385 12.2140697288
750 1 26.5639 12.3622 3.57059 12 11.0540987849 1.7530300587 12.2323942696
751 1 26.4426 10.652 5.30041 12 10.7355772999 1.7329070579 11.2554443108
752 1 24.7141 12.3261 5.23297 12 10.7175847334 1.7472230049 10.138995748
753 1 28.321 10.5651 3.44858 12 10.959625631 1.7329231998 13.6488738644
754 1 29.9524 12.3522 3.46309 12 10.8815212056 1.7488205056 13.9168667119
755 1 30.074 10.6878 5.19173 12 10.8251471094 1.7395377241 13.2124761184
756 1 28.3254 12.4386 5.30222 12 10.9460897673 1.7408063744 11.5407754199
757 1 31.769 10.5428 3.40282 12 11.1377972923 1.7488205056 15.5646146465
758 1 33.4445 12.4068 3.45488 12 11.3864507541 1.7516556997 16.1376265434
759 1 33.4926 10.7016 5.24061 12 11.1844897957 1.7615989098 15.479893598
760 1 31.7788 12.4489 5.22344 12 11.1003865655 1.7651088881 13.7617757696
761 1 35.3329 10.5731 3.55955 12 11.2208116104 1.7813797573 17.8888811239
762 1 37.1708 12.3639 3.44011 12 11.2720281373 1.7995720761 18.9565209013
763 1 37.0763 10.5377 5.32763 12 10.9466285377 1.753314941 18.2781293678
764 1 35.4517 12.4054 5.2034 12 11.3522265091 1.7326196771 16.5685808206
765 1 38.8337 10.4875 3.54286 12 11.1469126351 1.7641375234 20.6412956069
766 1 40.5669 12.2603 3.45999 12 11.4363467112 1.7641375234 20.2380966538
767 1 40.6599 10.5157 5.2875 12 11.2755295049 1.7735396056 19.5355662506
768 1 38.8724 12.3898 5.26131 12 11.0494612067 1.7649972626 19.403396618
769 1 42.3733 13.9977 3.48478 12 11.4410349157 1.7716134951 18.5068843705
770 1 1.81863 15.7793 3.60174 12 11.5183597405 1.7614089538 16.7234486477
771 1 1.77635 14.0484 5.33219 12 11.231065128 1.777809259 15.9658123266
772 1 42.3822 15.8387 5.279 12 11.2826489421 1.7928510474 17.1637921557
773 1 3.46425 13.9792 3.40381 12 11.1933010225 1.777809259 15.9661991252
774 1 5.21322 15.749 3.48784 12 11.0629612326 1.7562111194 14.4165579516
775 1 5.30827 14.1391 5.32997 12 11.3731366053 1.7977506942 13.3422656059
776 1 3.58246 15.7709 5.33066 12 11.3120336964 1.7778213906 14.2795344326
777 1 6.99247 14.055 3.48319 12 11.1350598426 1.7786884028 13.6884959645
778 1 8.8619 15.8282 3.52558 12 10.8352491808 1.755540477 12.0901748987
779 1 8.76591 14.0888 5.32898 12 11.0970281401 1.7873711002 11.2623922034
780 1 7.05097 15.9063 5.26694 12 11.1334184997 1.7561220077 11.8757048783
781 1 10.5247 14.1284 3.49478 12 11.0285884658 1.7876945415 11.5270372693
782 1 12.368 15.871 3.57074 12 10.9389896393 1.7539435294 10.1847011398
783 1 12.3709 14.1041 5.14233 12 11.1357275486 1.7872895767 9.3080111157
784 1 10.5909 15.8164 5.22614 12 11.0084004421 1.7876945415 9.7136860281
785 1 14.0645 14.0981 3.45786 12 11.1165527898 1.7678599425 10.1819242924
786 1 15.9157 15.8947 3.46504 12 10.7438042527 1.7468912714 9.3757225342
787 1 15.8481 14.096 5.23672 12 11.0779469913 1.7636327178 8.0999193489
788 1 14.2141 15.9227 5.20582 12 11.1007250563 1.7712077258 8.0246623398
789 1 17.6252 14.1308 3.51355 12 11.0552313986 1.7607033269 9.5279462312
790 1 19.4416 15.8413 3.39705 12 11.3237587262 1.7690626445 9.4687684837
791 1 19.4536 14.0434 5.20193 12 11.2499870984 1.7690626445 8.1629619153
792 1 17.548 15.9349 5.253 12 11.1038206333 1.7690626445 7.4497327145
793 1 21.266 14.0667 3.45884 12 11.3575962268 1.7573249629 10.2178610706
794 1 23.0265 15.836 3.54344 12 11.1305066476 1.7570409667 10.2967987946
795 1 23.0525 14.1015 5.234 12 10.8746704085 1.7531554201 9.2858814098
796 1 21.2022 15.7532 5.28715 12 11.134293085 1.7653892139 8.0485104171
797 1 24.7276 14.1501 3.35811 12 10.9609647303 1.7530300587 11.5023064395
798 1 26.4171 15.8495 3.29993 12 10.9964956216 1.7530156274 11.9204055735
799 1 26.5193 14.1188 5.28563 12 10.9378061275 1.7530300587 10.3008165242
800 1 24.8571 15.8649 5.22699 12 11.0312423173 1.7477798476 9.5793704353
801 1 28.2219 14.1744 3.46119 12 11.076656477 1.7530300587 12.6737557093
802 1 30.0054 15.9366 3.52685 12 10.8693671848 1.7741365753 13.4792915671
803 1 30.0185 14.2431 5.18231 12 10.9888365027 1.7591724388 12.2756848612
804 1 28.1858 16.0015 5.15687 12 11.1643503725 1.7549662712 11.0997155822
805 1 31.7031 14.1112 3.39848 12 11.0943503614 1.7616383515 14.7254986781
806 1 33.468 16.1217 3.44308 12 11.2913647777 1.7773692293 15.8230497733
807 1 33.5751 14.144 5.18822 12 11.4517803341 1.7773692293 14.82398095
808 1 31.7132 15.9347 5.22377 12 11.0621379205 1.7773692293 13.32042787
809 1 35.3019 14.2697 3.53346 12 11.4636213423 1.7995720761 17.185601293
810 1 37.2164 15.9554 3.39226 12 11.3171742404 1.7995720761 18.7228089486
811 1 37.0871 14.1489 5.27366 12 11.1260793723 1.7995720761 17.6347315445
812 1 35.3619 15.8326 5.38568 12 11.2554378697 1.7939177558 16.0557643412
813 1 38.9321 14.1964 3.50879 12 11.1633210309 1.798025333 20.1250885518
814 1 40.7774 15.8458 3.41509 12 11.2244152798 1.7884749652 19.5736012435
815 1 40.6119 14.1416 5.29345 12 11.1448021907 1.7702754327 18.7356188922
816 1 38.9519 15.9096 5.26166 12 11.4599151174 1.7947335096 19.1384486664
817 1 0.00721525 17.6766 3.49284 12 11.4076703679 1.7926987437 18.0949247367
818 1 1.71123 19.3655 3.55556 12 10.9760448046 1.7851778906 16.7868560971
819 1 1.84856 17.6903 5.29866 12 11.6059902735 1.7928510474 15.5332060169
820 1 -0.0153696 19.4288 5.28492 12 11.344975253 1.7928119585 16.9851920497
821 1 3.62913 17.5474 3.53333 12 11.084274478 1.7562111194 15.33568208
822 1 5.39907 19.3813 3.50652 12 10.8486611782 1.7525939987 14.2676350751
823 1 5.33213 17.596 5.20786 12 11.311418095 1.7966944921 12.9472425099
824 1 3.65485 19.4831 5.16215 12 11.4515270837 1.7888706912 14.2825730858
825 1 7.12576 17.6745 3.48085 12 11.1792348246 1.7567028603 13.1409375453
826 1 8.80742 19.438 3.50491 12 11.1139599561 1.7603589019 12.1544221176
827 1 8.85644 17.5593 5.28818 12 10.9801147682 1.7765929763 10.6726859197
828 1 7.1169 19.3987 5.3052 12 11.1047545728 1.7579399652 11.812420013
829 1 10.4932 17.5892 3.50136 12 11.0241891097 1.7765929763 11.0079493711
830 1 12.3918 19.3621 3.57513 12 11.191500639 1.7722526786 10.1815054791
831 1 12.4048 17.5764 5.27151 12 11.01241732 1.7765929763 8.502723376
832 1 10.6086 19.4357 5.26981 12 11.4424809465 1.7765929763 9.684005822
833 1 14.0588 17.5495 3.39762 12 10.9698256831 1.7505511131 9.6317349032
834 1 15.8566 19.3353 3.45669 12 10.8132370995 1.7416778442 9.3546721813
835 1 15.9347 17.696 5.21927 12 10.8119806641 1.7567423054 7.5073428825
836 1 14.1954 19.3504 5.1989 12 10.9738953805 1.7805278113 8.0580291023
837 1 17.6531 17.6182 3.36645 12 10.7240600373 1.7478079273 9.241593542
838 1 19.499 19.2485 3.40982 12 10.7882263317 1.765287805 9.4317983445
839 1 19.3958 17.5723 5.21476 12 11.0688696445 1.7690626445 7.5334942419
840 1 17.6343 19.2584 5.15349 12 11.0600546761 1.7653630543 7.5044601995
841 1 21.1931 17.5741 3.42261 12 10.8533238192 1.7652289781 9.6292372095
842 1 22.8617 19.5093 3.54027 12 10.7904017775 1.7426000181 10.2796205494
843 1 22.9183 17.6636 5.14287 12 10.9661508299 1.7652875166 8.6856735218
844 1 21.1566 19.3469 5.22575 12 10.7647564193 1.7653630543 8.0970066627
845 1 24.6852 17.6384 3.57652 12 10.9224741508 1.7407878345 10.9437899785
846 1 26.2669 19.5548 3.5348 12 10.9435037635 1.7556721467 11.627522834
847 1 26.3979 17.7756 5.26523 12 11.1629561957 1.7640719069 10.0318179805
848 1 24.6375 19.4197 5.30314 12 10.6959507448 1.7426756786 9.3882160478
849 1 28.1363 17.7374 3.47739 12 11.2358584425 1.7741365753 12.4487595282
850 1 29.9696 19.4803 3.46978 12 10.9112916268 1.7741365753 13.5443913377
851 1 29.9371 17.6515 5.30108 12 11.1313667181 1.7741365753 12.0740562604
852 1 28.2865 19.486 5.23384 12 11.2225115717 1.7832030578 11.1409002273
853 1 31.6951 17.7124 3.4726 12 10.8211698744 1.7736225533 14.6107042396
854 1 33.5916 19.3932 3.52811 12 11.3524246057 1.7778493972 15.7794064991
855 1 33.5614 17.6838 5.40951 12 11.455672803 1.7773692293 14.5717075124
856 1 31.789 19.4601 5.30867 12 11.6485016857 1.7762896856 13.2468349972
857 1 35.3617 17.6065 3.47177 12 11.2518406383 1.7551706468 17.1957463112
858 1 37.1062 19.4126 3.53837 12 10.7886408533 1.7548268536 18.3660561753
859 1 37.0316 17.7268 5.29715 12 11.364089663 1.7947335096 17.361396721
860 1 35.3882 19.4918 5.27002 12 11.2510025498 1.7758776791 15.9451116482
861 1 38.933 17.8234 3.60831 12 11.3276365158 1.7884749652 19.8643589486
862 1 40.6538 19.5684 3.63724 12 11.4560455512 1.7762764194 19.3793500309
863 1 40.6859 17.5961 5.24818 12 11.190046441 1.7928510474 18.3690169904
864 1 38.8364 19.4323 5.35 12 10.9954844897 1.7738586107 18.755418293
865 1 0.0446211 21.2487 3.48925 12 11.0909658297 1.7777323015 18.1942129188
866 1 1.85483 22.9854 3.531 12 10.9431091732 1.7423749129 17.070785107
867 1 1.75763 21.1151 5.22998 12 11.3513732228 1.7911803192 15.7600939481
868 1 0.11179 23.0057 5.25838 12 10.7837178575 1.7774560245 17.309042995
869 1 3.54043 21.2507 3.48737 12 10.741711259 1.7899062729 15.7518203876
870 1 5.29922 23.0069 3.52388 12 10.9103340203 1.7467767486 14.7475164527
871 1 5.32423 21.1882 5.33293 12 11.2594804247 1.7911803192 13.1931030527
872 1 3.54705 23.0815 5.27418 12 11.1313944416 1.7911803192 14.6781664642
873 1 7.0169 21.1667 3.45425 12 11.0268160731 1.7579399652 13.598614001
874 1 8.72484 22.9466 3.54536 12 11.2058154921 1.771727638 12.8102872767
875 1 8.83101 21.2261 5.3144 12 11.3856627211 1.7627182789 11.0344322991
876 1 7.03128 22.9789 5.36128 12 10.770751808 1.7623203539 12.2487270756
877 1 10.6523 21.1807 3.37619 12 11.2628459432 1.7722526786 11.5763308136
878 1 12.421 22.9003 3.52324 12 11.1971429366 1.7729553186 11.238916424
879 1 12.4069 21.1491 5.26618 12 11.272027851 1.7805278113 9.1679666173
880 1 10.6002 22.8989 5.3091 12 11.4021868369 1.771727638 10.3973573854
881 1 14.1942 21.1636 3.4368 12 11.1151966679 1.7804895146 10.1722429973
882 1 15.8563 23.0236 3.45369 12 10.8729417933 1.7369186694 10.4483685074
883 1 15.9693 21.0706 5.17558 12 10.9095662687 1.7805146093 8.0913131685
884 1 14.1951 22.9112 5.22969 12 11.1791467152 1.7805278113 9.2131186576
885 1 17.6524 21.117 3.48527 12 11.245658526 1.7426059242 9.5452915603
886 1 19.4223 22.919 3.5865 12 11.1815861303 1.7636749741 10.302788098
887 1 19.4965 21.1636 5.29512 12 11.238513387 1.7653630543 8.0871585385
888 1 17.5065 22.9656 5.27512 12 11.2556940848 1.7729117565 8.7025824927
889 1 21.0283 21.1373 3.52496 12 10.9263227948 1.7568281097 10.104714049
890 1 22.9166 22.9642 3.51918 12 11.1708486379 1.7631074073 11.0885593052
891 1 22.941 21.1907 5.23144 12 10.9716368476 1.7426756786 9.1414499967
892 1 21.1988 22.9338 5.28351 12 10.9600214019 1.7579479122 9.0840649541
893 1 24.6344 21.1767 3.40226 12 10.7188070913 1.763862125 11.3941734401
894 1 26.4681 22.8705 3.50402 12 11.0429198788 1.763862125 12.1656050792
895 1 26.3711 21.2202 5.30118 12 11.0586186573 1.7572621277 10.3093974122
896 1 24.673 22.9694 5.3258 12 11.2267464191 1.7875857854 9.8575155631
897 1 28.1222 21.1962 3.4842 12 11.0052823871 1.744123809 12.7342763051
898 1 30.001 22.9201 3.52611 12 11.3965997715 1.7662205704 13.9444352888
899 1 29.9853 21.2003 5.23954 12 11.1116012499 1.7673002237 12.2492944911
900 1 28.1709 23.0578 5.35615 12 11.0046055374 1.7648288237 11.4762412152
901 1 31.7431 21.229 3.54954 12 11.2566499987 1.7778493972 14.645237586
902 1 33.6187 23.125 3.52552 12 11.3206751778 1.7770238945 16.1895579322
903 1 33.562 21.3107 5.29967 12 11.1248022843 1.7778493972 14.6218475374
904 1 31.8082 22.9793 5.34846 12 11.2560855326 1.7969859059 13.6577501028
905 1 35.372 21.21 3.50581 12 11.1100474355 1.7776928852 17.1425578301
906 1 37.024 23.0359 3.66191 12 11.0624555029 1.7375796056 18.5470611221
907 1 37.0949 21.2032 5.28735 12 10.9696472328 1.7738586107 17.3942551747
908 1 35.1987 22.9601 5.26685 12 10.7323707425 1.75209071 16.1526566469
909 1 38.8349 21.1412 3.5341 12 11.1259223563 1.7731262074 19.8094298367
910 1 40.6949 22.978 3.51648 12 10.9212945736 1.7351240998 19.7822554576
911 1 40.6339 21.3613 5.33352 12 11.1924646042 1.784617711 18.5364679097
912 1 38.9133 22.987 5.17884 12 10.9638633832 1.7839744654 19.211888924
913 1 0.0386334 24.6626 3.51759 12 11.091891737 1.7886352566 18.6864257799
914 1 1.77309 26.5602 3.4801 12 10.9221534842 1.7796974116 17.8700306599
915 1 1.77177 24.7321 5.22067 12 10.7843873531 1.7373417766 16.3284166256
916 1 0.0035498 26.4585 5.30957 12 11.3450657701 1.7878926032 18.0898344396
917 1 3.56288 24.8467 3.50402 12 10.9595816703 1.7548872561 16.1850750015
918 1 5.34433 26.4335 3.60693 12 11.0141069645 1.7870913207 15.4181026798
919 1 5.30423 24.7882 5.31335 12 10.8426919256 1.7514565214 13.7285584096
920 1 3.46639 26.5053 5.33385 12 11.0153989703 1.7548872561 15.4776396838
921 1 7.00037 24.7221 3.63401 12 10.6620218006 1.7903315157 13.9808141571
922 1 8.97038 26.4362 3.53124 12 11.1881363561 1.7990779462 13.558562114
923 1 8.77203 24.745 5.2539 12 11.056397609 1.7627182789 11.757436689
924 1 7.12094 26.5202 5.42349 12 11.0587302324 1.7903315157 13.0937601545
925 1 10.654 24.7023 3.50898 12 11.2519665432 1.771727638 12.3388725044
926 1 12.4178 26.5409 3.51842 12 11.0738797008 1.7796130539 12.2526507206
927 1 12.263 24.686 5.3666 12 11.1444454836 1.7783527615 10.0638718338
928 1 10.6428 26.5401 5.1845 12 10.8282790738 1.7541716952 11.465424279
929 1 14.0953 24.6997 3.50796 12 11.0982983 1.7783527615 11.3497546195
930 1 15.8768 26.4284 3.51985 12 10.7975652475 1.752355661 11.6784171664
931 1 15.8166 24.7482 5.28089 12 10.9586080415 1.7783527615 9.4558176147
932 1 14.1406 26.4965 5.23522 12 10.9769554519 1.7780196387 10.3248930368
933 1 17.6534 24.7329 3.55846 12 10.9498375371 1.7738702822 10.958537819
934 1 19.4347 26.4041 3.45845 12 10.9582715255 1.7400788083 11.7772195344
935 1 19.3631 24.7644 5.41599 12 11.0772952213 1.7738684994 9.3596044289
936 1 17.6712 26.5531 5.29853 12 10.9492202384 1.7738702822 10.0382287164
937 1 21.0726 24.6401 3.51119 12 11.1673645151 1.7579051295 11.3407467417
938 1 22.81 26.3994 3.52374 12 11.0930904802 1.7618136762 12.2626555424
939 1 22.9239 24.7809 5.36546 12 10.9102489369 1.7579479122 9.9480438211
940 1 21.0476 26.4449 5.2796 12 10.8429398311 1.7579479122 10.4764730529
941 1 24.65 24.6936 3.49906 12 11.0083190821 1.763862125 11.9843374566
942 1 26.4524 26.4947 3.54291 12 11.5098032891 1.7896552945 13.2046205999
943 1 26.348 24.6726 5.27939 12 11.0571375258 1.7470426717 11.0257577381
944 1 24.6449 26.4654 5.19576 12 11.0717557455 1.7639539717 11.2253468121
945 1 28.14 24.6488 3.5385 12 11.2165453727 1.7631587882 13.3039184867
946 1 29.9099 26.4346 3.6277 12 11.318854472 1.7631587882 14.7801940617
947 1 29.9439 24.7239 5.41521 12 11.2604311689 1.7969859059 12.9387072861
948 1 28.1704 26.5063 5.28927 12 11.0302126472 1.7499639569 12.6395209083
949 1 31.7382 24.7396 3.56437 12 11.4596239841 1.7948587821 15.3988077652
950 1 33.5353 26.5485 3.64845 12 10.9058539242 1.7415956638 17.0067109636
951 1 33.6059 24.7455 5.35869 12 11.0024350163 1.7965336832 15.3721031287
952 1 31.7668 26.5671 5.32965 12 11.1906607681 1.7969859059 14.7127004758
953 1 35.3186 24.8903 3.49421 12 11.216775894 1.75209071 17.8360987442
954 1 37.1893 26.4872 3.53534 12 11.3581082249 1.7626509615 19.598127491
955 1 37.1358 24.768 5.30801 12 11.043489835 1.7666597589 18.0797041471
956 1 35.2807 26.5173 5.41647 12 11.0882123911 1.7517173505 17.0428695268
957 1 38.8981 24.7044 3.50495 12 10.6664353208 1.7345058412 20.4664168702
958 1 40.5864 26.3559 3.49456 12 11.3464382422 1.7801598576 20.5189186458
959 1 40.6534 24.697 5.33957 12 10.8173163425 1.7558691919 19.1198626029
960 1 38.9154 26.4426 5.31685 12 11.0769669396 1.7587019776 19.9163704285
961 1 42.4049 28.2443 3.62948 12 11.0358134371 1.7792644997 19.6112150181
962 1 1.78764 30.0906 3.51048 12 10.974841973 1.7614094029 19.1669217527
963 1 1.83818 28.2568 5.22097 12 11.116517172 1.763115852 17.350863306
964 1 42.3846 30.1407 5.16146 12 11.0586391281 1.763115852 19.5527686235
965 1 3.52874 28.3505 3.49552 12 11.0421630476 1.7776936946 17.3067220986
966 1 5.2915 30.0746 3.47874 12 10.8174437299 1.7742233805 17.0741777656
967 1 5.30887 28.2963 5.33854 12 11.2753305585 1.7776936946 14.9726322197
968 1 3.52829 30.075 5.27008 12 10.9212258511 1.7604078139 16.995342334
969 1 7.07504 28.2961 3.58735 12 11.3580162238 1.7990041052 15.1994094591
970 1 8.98024 30.0351 3.58 12 11.5366845121 1.7991005331 15.0510157301
971 1 8.93967 28.1186 5.30277 12 10.9599388645 1.7991005331 12.88351644
972 1 7.18686 29.9599 5.36649 12 11.4090167891 1.7844963452 14.7340992916
973 1 10.6992 28.2567 3.51527 12 10.9439890273 1.7991005331 13.5158523784
974 1 12.3894 30.0923 3.50511 12 11.2262138147 1.7796130539 13.9463177698
975 1 12.5057 28.2439 5.33142 12 11.0342794854 1.7796130539 11.4490500853
976 1 10.7336 29.9435 5.30513 12 11.2719911339 1.7672039199 13.0332738519
977 1 14.292 28.277 3.55178 12 11.1884595078 1.7796130539 12.5977924386
978 1 15.8935 30.1535 3.53624 12 11.0026958638 1.7600978626 13.5386812099
979 1 15.927 28.2504 5.41444 12 10.9854490208 1.752355661 10.9011818474
980 1 14.1131 30.0845 5.32877 12 10.8941831352 1.7558580267 12.2119831291
981 1 17.645 28.1595 3.52475 12 11.2292586099 1.7495048345 12.3785522969
982 1 19.4678 29.9657 3.57896 12 11.1807991554 1.7671300892 13.487800779
983 1 19.4069 28.1962 5.3945 12 11.0070830327 1.7667982759 10.98625504
984 1 17.6908 29.9487 5.31562 12 11.201352956 1.7670447037 12.035792309
985 1 21.0671 28.1765 3.47692 12 11.2292142642 1.7461273419 12.8271196869
986 1 22.9243 30.1147 3.48211 12 11.4530103041 1.7664444696 14.1610618949
987 1 22.8077 28.1709 5.16082 12 11.2066156718 1.7516763412 11.7229721396
988 1 21.236 30.0216 5.3301 12 11.324968523 1.7671300892 12.3233000037
989 1 24.6012 28.2724 3.52365 12 11.4420365416 1.7639539717 13.5161272895
990 1 26.4585 29.9355 3.46689 12 11.2845078214 1.7663558806 15.0455826614
991 1 26.4802 28.3335 5.42443 12 11.1964411493 1.7529121931 12.697442148
992 1 24.6857 30.049 5.26026 12 11.3867169557 1.7664444696 13.2741319512
993 1 28.2411 28.3884 3.58561 12 10.9378486717 1.755347961 14.8089183623
994 1 29.9417 29.959 3.64152 12 10.8518070424 1.7750576346 16.4177585858
995 1 29.971 28.127 5.3534 12 10.8801850501 1.7516572458 14.3113404872
996 1 28.2554 30.0336 5.30338 12 10.9964613953 1.7560191163 14.5594787738
997 1 31.7116 28.3369 3.5283 12 11.0407178175 1.7519403441 16.6470748222
998 1 33.4841 30.1047 3.65707 12 10.8766668964 1.7400841618 18.3575124035
999 1 33.4948 28.2247 5.3358 12 11.0558219562 1.7519403441 16.4488512499
1000 1 31.6627 30.0624 5.42163 12 10.9903136125 1.7519403441 16.1507813917
1001 1 35.2631 28.2896 3.55458 12 11.1209028882 1.7453034537 18.7858942949
1002 1 37.2035 30.021 3.59365 12 11.1655118273 1.7630050123 20.7696602995
1003 1 37.105 28.2006 5.3163 12 11.3736487888 1.7446680465 19.0224331859
1004 1 35.3415 30.0005 5.29847 12 11.1063362068 1.7552518779 18.494390853
1005 1 38.953 28.3511 3.62264 12 11.155133598 1.742125761 21.4168233405
1006 1 40.6896 30.0367 3.5413 12 10.6495412469 1.733191722 21.6067829686
1007 1 40.7109 28.2999 5.37444 12 11.171687004 1.7652551463 20.0094464099
1008 1 39.0048 30.1312 5.24467 12 11.1922921473 1.7615216909 21.2532171504
1009 1 42.3408 31.9402 3.43812 12 10.6314775911 1.730051379 21.3379386049
1010 1 1.8337 33.4674 3.46258 12 11.1511989741 1.7741426134 20.9189831471
1011 1 1.82191 31.771 5.2196 12 11.2325386228 1.7741426134 19.0323499209
1012 1 0.0721135 33.5425 5.34632 12 11.0389262445 1.7741426134 21.1380348034
1013 1 3.64767 31.8095 3.42931 12 10.7546062094 1.7498264536 18.9400834581
1014 1 5.28427 33.7027 3.48819 12 10.9735646165 1.7436102545 19.070010949
1015 1 5.30996 31.7452 5.30385 12 11.4381569614 1.7844963452 16.8552033259
1016 1 3.61426 33.6075 5.30885 12 11.5272332796 1.7878874139 18.9475543442
1017 1 6.98823 31.7995 3.51507 12 11.4299710323 1.7840591621 17.0262699134
1018 1 8.75877 33.5664 3.50964 12 11.0512034785 1.773002316 17.3022482713
1019 1 8.87282 31.8701 5.33662 12 11.3406124068 1.7844963452 15.0078019309
1020 1 6.98567 33.5457 5.3352 12 11.2781695478 1.7838107087 17.033548356
1021 1 10.5998 31.8393 3.48029 12 11.2317541882 1.7700161883 15.5287458298
1022 1 12.4586 33.5332 3.50351 12 11.0791023688 1.7512474394 16.1449228519
1023 1 12.386 31.9268 5.29125 12 11.1438334027 1.781081906 13.8257632041
1024 1 10.563 33.6096 5.32339 12 11.1132424395 1.7588731922 15.5548154766
1025 1 14.1728 31.832 3.60557 12 10.8904088215 1.7537909869 14.635201176
1026 1 15.9354 33.4841 3.58445 12 11.0087519951 1.7575247801 15.7142471369
1027 1 15.8788 31.721 5.32142 12 10.7389910667 1.7489744854 13.2390874845
1028 1 14.2528 33.6009 5.44341 12 10.861766073 1.7543088603 14.6584583511
1029 1 17.7037 31.8291 3.71537 12 10.8023548998 1.7407488773 14.4915701561
1030 1 19.3435 33.6374 3.52119 12 10.7799835523 1.7423837037 15.9569907555
1031 1 19.4682 31.8139 5.44206 12 10.8939649623 1.7671300892 13.3144042439
1032 1 17.7211 33.5166 5.37644 12 10.9295712698 1.7602905778 14.5727652749
1033 1 21.1665 31.8654 3.55782 12 11.0509073483 1.7488831957 14.8347298048
1034 1 22.9869 33.5421 3.52805 12 10.6133546442 1.7162988105 16.2781755254
1035 1 22.9522 31.929 5.2623 12 10.8627340056 1.7499553335 13.9677201276
1036 1 21.0663 33.5265 5.32045 12 10.8798337066 1.7489671967 14.7515418548
1037 1 24.7023 31.975 3.50051 12 10.9605477977 1.7664444696 15.7414410074
1038 1 26.4323 33.6968 3.61531 12 10.8852276686 1.7357199693 17.3703399887
1039 1 26.573 31.791 5.22138 12 11.0548777668 1.7402511937 15.0931970732
1040 1 24.783 33.5703 5.26472 12 10.8000683745 1.780443347 15.6561753743
1041 1 28.2581 31.9085 3.58612 12 11.0401898171 1.7564439254 16.8691597419
1042 1 30.0634 33.548 3.65671 12 10.663717987 1.7311163036 18.6101452577
1043 1 30.0372 31.756 5.29566 12 10.6776928974 1.7402511937 16.4004003678
1044 1 28.3406 33.5937 5.2926 12 10.7997882776 1.7510607459 16.9005897208
1045 1 31.7345 31.7036 3.58174 12 10.7997109178 1.7396797504 18.2849717371
1046 1 33.5489 33.5774 3.50438 12 10.8530812837 1.7456001682 20.357920912
1047 1 33.6022 31.7639 5.30312 12 10.9565790925 1.7460949326 18.2821532419
1048 1 31.873 33.5134 5.17406 12 10.9018449204 1.7446711269 18.475489472
1049 1 35.3187 31.7509 3.54397 12 11.0057026193 1.765405159 20.3487910929
1050 1 37.1333 33.5358 3.56967 12 10.9251647461 1.7674296136 22.4210690206
1051 1 37.0911 31.8305 5.33826 12 11.0851269279 1.7601036093 20.575795839
1052 1 35.3064 33.5307 5.31429 12 11.0642993801 1.7456001682 20.3429395051
1053 1 38.8933 31.8036 3.57709 12 11.0712630991 1.7690223029 22.7505062017
1054 1 40.698 33.6698 3.58558 12 11.0180536625 1.7690223029 23.2751025279
1055 1 40.7233 31.9422 5.25579 12 10.8658171093 1.7620209779 21.587433619
1056 1 38.9113 33.5861 5.22606 12 11.0934382688 1.7690223029 22.8284253175
1057 1 0.0293976 35.3026 3.43352 12 11.1600076014 1.7464417141 23.1211122921
1058 1 1.65278 37.1294 3.50986 12 10.983559288 1.7918499676 23.1994880778
1059 1 1.71146 35.3486 5.38142 12 11.2720723033 1.7879225258 21.1149040418
1060 1 0.0373563 37.1797 5.20867 12 10.7394260507 1.7475765242 23.3775198703
1061 1 3.48181 35.4577 3.49206 12 11.1191064768 1.7879225258 21.1482568977
1062 1 5.22964 37.1488 3.47201 12 10.9033253823 1.7344054656 21.3585577593
1063 1 5.28259 35.3811 5.21449 12 11.0690225394 1.7879225258 19.1826898558
1064 1 3.51238 37.1789 5.18391 12 11.0762863762 1.7879225258 21.3321555272
1065 1 7.08301 35.3588 3.58811 12 10.8380388536 1.7650704887 19.1858930702
1066 1 8.84991 37.0285 3.52835 12 10.6431558351 1.7491472618 19.7184007005
1067 1 8.82599 35.3283 5.32979 12 10.9822696947 1.7684078127 17.4722511404
1068 1 7.02103 37.0731 5.30688 12 11.008544613 1.7684078127 19.5197594566
1069 1 10.5592 35.2694 3.47125 12 10.8998838136 1.7336032501 17.8908995947
1070 1 12.375 37.0658 3.50783 12 11.0804105672 1.7905293163 18.8179721381
1071 1 12.4511 35.3582 5.17603 12 11.1998052032 1.7556075015 16.4863653725
1072 1 10.5814 36.9944 5.23235 12 11.0679697664 1.763818918 18.2360202346
1073 1 14.2099 35.2193 3.56076 12 11.0548270194 1.7547700155 17.0938330971
1074 1 15.9966 37.1393 3.66207 12 11.130541984 1.7936461841 18.432776975
1075 1 15.9477 35.3597 5.44496 12 11.0734862993 1.7602905778 15.9354872915
1076 1 14.1796 37.1809 5.29636 12 11.1137821767 1.7666135435 17.6547038515
1077 1 17.5898 35.3305 3.63077 12 11.161363563 1.7837581451 17.0876911467
1078 1 19.4498 37.0955 3.48556 12 11.2719292047 1.7434671794 18.571173692
1079 1 19.4634 35.3311 5.32473 12 10.9743619953 1.7602905778 16.0524433074
1080 1 17.7132 37.111 5.4107 12 11.2450330864 1.7589756941 17.3273731493
1081 1 21.2051 35.2375 3.47196 12 10.9947235612 1.7473462989 17.2555171249
1082 1 22.8037 37.1082 3.53136 12 11.3942594085 1.7525924508 18.8749355106
1083 1 22.9248 35.2913 5.26641 12 11.1130461727 1.7806033331 16.4504302312
1084 1 21.1229 37.0671 5.35291 12 10.9975760759 1.7362245037 17.5763330607
1085 1 24.6128 35.4015 3.4637 12 10.986103363 1.7806033331 18.0450956
1086 1 26.4015 37.0371 3.5257 12 11.2058210167 1.7707510625 19.7382270529
1087 1 26.4812 35.3894 5.34282 12 11.0822907728 1.7806033331 17.4460706464
1088 1 24.6464 37.145 5.32447 12 11.0448258627 1.7806033331 18.3017246522
1089 1 28.3559 35.3993 3.5452 12 11.2507187662 1.7512107785 19.2240492863
1090 1 30.1012 37.1563 3.55576 12 11.0997688535 1.7622319476 21.0830467283
1091 1 30.087 35.3296 5.31771 12 10.8717801551 1.7508825519 18.7975562894
1092 1 28.1587 37.1739 5.37731 12 11.1425288045 1.7581515918 19.2912272482
1093 1 31.7303 35.3315 3.56753 12 10.8474804638 1.7529423711 20.5511587322
1094 1 33.5499 37.0677 3.54024 12 10.9830120402 1.7653911808 22.5966466102
1095 1 33.5679 35.327 5.19248 12 11.1747571768 1.7523808109 20.5468036883
1096 1 31.6577 37.1228 5.34503 12 11.1385474451 1.7682404365 20.7659906151
1097 1 35.2817 35.3622 3.42918 12 10.6459208214 1.7456001682 22.4401648115
1098 1 36.9874 37.1184 3.49102 12 10.8785120593 1.7914270123 24.4954780097
1099 1 36.97 35.3501 5.17553 12 10.848947264 1.7444797544 22.5591033787
1100 1 35.3333 37.0551 5.28814 12 10.930734233 1.7773734333 22.6453473957
1101 1 38.7234 35.4014 3.59969 12 11.1429825853 1.7670531553 24.478139489
1102 1 40.6871 37.1346 3.50861 12 11.4680843881 1.7626331425 25.2972722162
1103 1 40.7214 35.3708 5.3061 12 10.9965556643 1.747262629 23.4318768503
1104 1 38.8438 36.9916 5.27615 12 11.0068825797 1.7459704814 24.7453197273
1105 1 -0.00390079 38.9165 3.48295 12 11.1537074588 1.7919027184 25.3116454671
1106 1 1.70361 40.7192 3.47573 12 11.076277189 1.7919027184 24.4194690638
1107 1 1.80239 38.9036 5.36984 12 11.0447068886 1.7919027184 23.3738323699
1108 1 0.0879519 40.6619 5.31562 12 11.0534174702 1.7475765242 24.3351129278
1109 1 3.57714 38.9205 3.55722 12 10.8451782768 1.7919027184 23.3305007619
1110 1 5.30032 40.5686 3.58847 12 10.9786470021 1.7515320553 22.5902126404
1111 1 5.2798 38.7743 5.35163 12 10.7639331153 1.751054578 21.5130253996
1112 1 3.546 40.6508 5.24996 12 11.2787369706 1.751054578 22.5501209311
1113 1 7.1956 38.8026 3.63028 12 11.0090345028 1.7518372586 21.6304862989
1114 1 8.7885 40.5629 3.4436 12 10.6868860457 1.7692384704 21.2291954405
1115 1 8.85359 38.821 5.35119 12 10.9876167824 1.762006915 20.1839809069
1116 1 7.04154 40.4767 5.3783 12 10.794731422 1.7515320553 20.9367487713
1117 1 10.5978 38.8607 3.55404 12 10.9985108909 1.7901302245 20.6177898888
1118 1 12.4411 40.6423 3.54211 12 11.0276319802 1.7905293163 20.0552588851
1119 1 12.4778 38.8269 5.25557 12 11.1881510409 1.7901792951 19.3288549421
1120 1 10.5709 40.6287 5.23356 12 11.102869414 1.7619507757 19.5939868274
1121 1 14.2429 38.8286 3.45882 12 10.9486102877 1.7905293163 20.0284140303
1122 1 15.8811 40.6334 3.54796 12 11.0963189767 1.7651474086 19.4518822588
1123 1 15.9084 38.8458 5.36284 12 10.8377609015 1.7559034485 18.8161451328
1124 1 14.2033 40.5911 5.24586 12 10.783811432 1.7315311132 18.6432238862
1125 1 17.6218 38.9351 3.54862 12 11.2685421423 1.77134403 19.8950655342
1126 1 19.4508 40.6729 3.55264 12 10.9088396808 1.7678257615 19.4205366555
1127 1 19.5645 38.7846 5.29378 12 11.1987944433 1.7833016269 18.9131365224
1128 1 17.6464 40.5508 5.30302 12 11.2613277491 1.7601813405 18.3196516428
1129 1 21.0912 38.9595 3.48556 12 11.0334935968 1.7434671794 20.1724026938
1130 1 22.9668 40.7312 3.47929 12 11.0288018171 1.7619029404 19.7227159476
1131 1 22.9875 38.9907 5.22377 12 11.2010182539 1.7630078526 19.5289289535
1132 1 21.1756 40.6708 5.30343 12 10.8068385884 1.7621099278 18.5305290739
1133 1 24.6397 38.8034 3.41991 12 11.2428825915 1.7707510625 20.6720411134
1134 1 26.4878 40.7046 3.4461 12 10.9621446443 1.7682437614 20.3542916202
1135 1 26.4311 38.9436 5.33517 12 11.253077413 1.7707510625 20.1709606822
1136 1 24.7657 40.6679 5.25296 12 11.1256641996 1.7651848302 19.0769392711
1137 1 28.1955 38.8254 3.47091 12 11.3111688999 1.7704574899 21.6321433806
1138 1 30.0396 40.6682 3.56157 12 11.112617592 1.7848946 21.4910988214
1139 1 29.8633 38.9646 5.28272 12 11.1797476114 1.7761911981 21.3388469851
1140 1 28.2406 40.6679 5.27242 12 11.0764008516 1.81245231 19.9802856294
1141 1 31.813 38.8898 3.62678 12 11.2766418511 1.772028309 22.9936572674
1142 1 33.5782 40.6594 3.42386 12 11.1581692648 1.7601551082 23.2174803112
1143 1 33.5772 38.8069 5.28504 12 11.1379131666 1.7587718073 22.9577633628
1144 1 31.8493 40.6624 5.27992 12 11.0850745451 1.7698817797 21.4902566223
1145 1 35.2564 38.8967 3.59475 12 11.0328072355 1.7919867937 24.6963170335
1146 1 37.0715 40.7127 3.59449 12 11.2189869915 1.7919867937 25.1199002713
1147 1 37.0591 38.8278 5.34231 12 11.1898480417 1.7917620767 24.8383181024
1148 1 35.3519 40.5087 5.35163 12 10.9881858159 1.7601551082 23.4773967244
1149 1 38.833 38.7987 3.46751 12 11.5040098119 1.7919867937 26.6913739208
1150 1 40.7254 40.6389 3.58178 12 11.3073337181 1.7626331425 26.31086695
1151 1 40.6089 38.83 5.35457 12 11.0416829403 1.7577123268 25.549524931
1152 1 38.9083 40.6833 5.18992 12 11.2711712903 1.7465279766 25.637956567
1153 1 0.050709 42.4005 6.98841 12 10.6796035989 1.7529811067 22.4163902862
1154 1 1.75839 1.73714 6.95954 12 11.0333020744 1.7858257607 20.3355645669
1155 1 1.73423 0.0388292 8.66334 12 10.9646158372 1.7721383082 20.5686055882
1156 1 0.0406644 1.63536 8.7736 12 10.7465689601 1.7520506742 20.5813906986
1157 1 3.59821 42.3718 7.05212 12 11.3785231996 1.7858257607 20.4073500138
1158 1 5.32353 1.77812 7.16584 12 11.4131043809 1.7858257607 18.2261278117
1159 1 5.30623 42.3034 8.89721 12 10.9375122743 1.7711483737 18.6878943868
1160 1 3.53659 1.73809 8.85712 12 11.3028754256 1.7858257607 18.3105285664
1161 1 7.04059 42.2484 7.13194 12 11.066162659 1.7359650676 18.7654289448
1162 1 8.7356 1.68988 7.10149 12 11.2439481275 1.7701130451 16.6223097891
1163 1 8.7845 42.3277 8.79135 12 10.6866691097 1.7642472614 17.1584548038
1164 1 7.05345 1.65854 8.86803 12 10.856441043 1.7642472614 16.5681343294
1165 1 10.4483 42.3416 7.13745 12 11.0101130172 1.7633684169 17.293302191
1166 1 12.3561 1.69415 7.02862 12 10.9579786337 1.7608757262 15.3640254003
1167 1 12.2834 0.00562366 8.85436 12 10.8593356094 1.758927655 15.7159203001
1168 1 10.5951 1.66129 8.87392 12 10.9429498256 1.7641542553 15.0141840861
1169 1 13.99 42.3666 7.0333 12 11.0026783091 1.7575386979 16.2461121098
1170 1 15.8384 1.77833 7.15263 12 10.867759268 1.7753529569 14.4294666371
1171 1 15.9505 42.3516 8.74362 12 10.9545482265 1.7759685131 14.9897502059
1172 1 14.1148 1.71213 8.83683 12 11.0158371054 1.7477408583 13.8035990038
1173 1 17.5466 0.0813664 6.91979 12 11.2047668185 1.7886732866 15.7881778633
1174 1 19.4401 1.87795 7.0803 12 11.3247170191 1.7891029488 14.390929864
1175 1 19.4273 0.0584209 8.85571 12 11.5123209425 1.789066011 14.8333956164
1176 1 17.6162 1.7154 8.74789 12 11.0531436747 1.7677946027 13.3919501978
1177 1 21.2252 42.3364 7.05365 12 11.2670777162 1.7891029488 16.1982483854
1178 1 22.9249 1.84565 7.06808 12 10.9987572753 1.7540356392 14.8216247133
1179 1 22.9878 42.3395 8.83116 12 11.0847692859 1.7721421465 15.6641502657
1180 1 21.1908 1.7526 8.85358 12 11.3443654687 1.772203571 13.7096549913
1181 1 24.6845 -6.27348e-04 7.14242 12 11.0985898362 1.7655995198 16.6644748725
1182 1 26.4573 1.79839 7.06107 12 11.2083434287 1.7769476326 15.6425674416
1183 1 26.437 0.068333 8.73134 12 10.9798409118 1.8034036566 16.4107488788
1184 1 24.6584 1.86628 8.76988 12 10.8332265624 1.7522316911 14.3243079589
1185 1 28.3071 0.0466792 7.01628 12 11.0150424112 1.8125370107 17.7573954369
1186 1 29.9641 1.7945 7.0494 12 10.8479828287 1.7465662231 17.1146705611
1187 1 29.969 42.3593 8.86735 12 10.8430616506 1.7651259908 17.8819288071
1188 1 28.354 1.89464 8.81491 12 11.0392927631 1.7659300791 15.5524300552
1189 1 31.8437 0.0410828 7.02056 12 10.9324147681 1.7693402397 19.4156436685
1190 1 33.5625 1.71591 7.13027 12 11.1230536747 1.7490236194 19.1918141694
1191 1 33.5686 42.3322 8.84867 12 11.0620171652 1.7490236194 19.8282009267
1192 1 31.6755 1.82413 8.70065 12 11.2805247015 1.7490236194 17.3829743104
1193 1 35.3875 42.3997 7.01815 12 10.9125799228 1.7454060358 21.5407299013
1194 1 37.0587 1.72776 7.10696 12 10.8746684427 1.762346526 21.4594028211
1195 1 37.0218 42.3941 8.75243 12 11.1661364557 1.7547829777 21.9579619355
1196 1 35.3437 1.82086 8.93544 12 11.0430190163 1.7547829777 19.5480331564
1197 1 38.8224 42.3702 7.04222 12 11.2897090783 1.7627622406 23.7904391421
1198 1 40.6629 1.67039 7.13208 12 11.3065165771 1.8137982513 22.5549238253
1199 1 40.7388 42.2767 8.81879 12 11.0803354816 1.7632554746 22.7961378708
1200 1 38.8485 1.68241 8.85975 12 10.9426681974 1.7624314119 22.1402903671
1201 1 42.3445 3.4769 7.14001 12 11.1257411194 1.7529811067 20.4447855072
1202 1 1.72708 5.32559 7.0186 12 10.9154593729 1.7703027547 18.312551103
1203 1 1.84507 3.48879 8.71413 12 11.2719566365 1.751967085 18.3459959893
1204 1 42.4146 5.28118 8.71965 12 11.3431817399 1.7649932852 18.7084861286
1205 1 3.59851 3.51933 6.93566 12 11.2459673811 1.7857810052 18.2371608694
1206 1 5.36102 5.26006 7.13835 12 11.2089287354 1.7657489993 16.0935703743
1207 1 5.31419 3.59304 8.9113 12 11.2339738646 1.7668555366 16.1084107072
1208 1 3.48094 5.30866 8.73021 12 11.3781623046 1.7646469873 16.2775454797
1209 1 7.07533 3.4623 7.17294 12 11.0552985862 1.7531775222 16.193912478
1210 1 8.74773 5.18806 7.09811 12 10.7240106726 1.7531587918 14.2630619209
1211 1 8.88758 3.4304 8.91453 12 10.7509718321 1.7642472614 14.3771346803
1212 1 7.12974 5.26943 8.9093 12 10.8300609408 1.7668555366 14.0699965743
1213 1 10.57 3.48795 7.09361 12 11.1364758759 1.7637771714 14.5685429339
1214 1 12.3632 5.24897 7.18527 12 10.7131847401 1.7369808523 12.6734260026
1215 1 12.4709 3.49253 8.85279 12 10.945480405 1.7481420326 12.9195934533
1216 1 10.5096 5.21398 8.74084 12 10.6461754649 1.7242465421 12.4294309206
1217 1 14.0432 3.48963 7.10217 12 10.5633473654 1.7443309076 13.559834994
1218 1 15.7505 5.26562 7.09972 12 10.7536927207 1.7485603086 11.9842711475
1219 1 15.9118 3.54583 8.69603 12 10.8499509238 1.7669927394 12.0946022965
1220 1 14.1333 5.31518 8.85978 12 10.8096086059 1.7801811575 11.0755775275
1221 1 17.669 3.53615 6.96271 12 10.9672618938 1.7661211931 13.1594859588
1222 1 19.4778 5.37929 7.04639 12 10.9718848411 1.7544297948 11.8304385916
1223 1 19.4338 3.63507 8.81082 12 11.3647605068 1.7682449376 11.9483872326
1224 1 17.6348 5.43317 8.68273 12 10.9957425733 1.7650747436 10.605223679
1225 1 21.2261 3.52573 7.04138 12 10.9197973972 1.7593602005 13.2915969252
1226 1 23.0234 5.36626 7.0307 12 10.8924983005 1.7548165738 11.991011735
1227 1 22.8641 3.62807 8.76246 12 10.8095639494 1.7373164528 12.4403655897
1228 1 21.3013 5.39504 8.85758 12 10.8797971045 1.7548165738 10.7201144308
1229 1 24.6265 3.562 7.0288 12 10.7244692841 1.7763557173 13.7133680667
1230 1 26.3773 5.39044 7.09421 12 11.0476520325 1.777620781 12.8334797088
1231 1 26.3257 3.6447 8.89774 12 11.0353023201 1.777620781 13.2479646507
1232 1 24.726 5.41404 8.82924 12 11.0923583171 1.7369790417 11.2940749404
1233 1 28.2585 3.70977 7.13306 12 11.1436096322 1.777620781 14.8353016485
1234 1 30.0868 5.41635 7.0265 12 10.8361761096 1.7635617979 14.7009543789
1235 1 29.9697 3.63679 8.77064 12 11.1018854947 1.8047358084 15.04999116
1236 1 28.0909 5.37492 8.90837 12 11.0469315105 1.7507218078 12.6983999187
1237 1 31.7091 3.5951 7.01053 12 10.7712374256 1.7337022019 16.8474583244
1238 1 33.4218 5.32463 7.02805 12 11.0433262534 1.7679799732 16.9312948742
1239 1 33.5232 3.58018 8.80715 12 11.1446634532 1.7610582537 17.2520594543
1240 1 31.8488 5.23346 8.95501 12 10.895304151 1.7616353822 15.0562033069
1241 1 35.3218 3.4562 7.09942 12 11.0932376525 1.7623874595 19.2523752864
1242 1 37.0846 5.34857 7.11105 12 11.0568748647 1.7623874595 19.5023255268
1243 1 37.1939 3.5231 8.88425 12 10.8838396797 1.7623874595 19.8346043343
1244 1 35.3581 5.31878 8.72744 12 11.2534668575 1.7616353822 17.5358354787
1245 1 38.853 3.46838 7.19028 12 11.1162308622 1.7627622406 21.7476943887
1246 1 40.5188 5.32753 7.11209 12 10.8326872939 1.7649932852 20.8422836203
1247 1 40.5933 3.40622 8.87745 12 11.1613674733 1.7649932852 20.9020969299
1248 1 38.8475 5.30525 8.91656 12 10.9352357288 1.76267749 20.2027423243
1249 1 42.3488 7.07925 7.1097 12 10.810327236 1.7703027547 18.6372636661
1250 1 1.73409 8.87942 7.08633 12 10.7840667192 1.7702471758 16.4843266294
1251 1 1.65147 7.15875 8.87876 12 10.9987482809 1.7703027547 16.4977797169
1252 1 42.3796 8.89994 8.84382 12 11.0561886627 1.7625707359 16.9868015849
1253 1 3.46769 7.13803 7.08883 12 11.0549503591 1.7703027547 16.1548700025
1254 1 5.29288 8.72296 7.12824 12 11.0075524884 1.7716347733 14.1450757917
1255 1 5.22322 7.11777 8.87676 12 11.2981319834 1.7668555366 14.0966629956
1256 1 3.50219 8.85647 8.91048 12 10.9496431495 1.7576888673 14.2965835591
1257 1 7.07555 6.96976 7.21242 12 10.7321664701 1.7510350401 14.0785396971
1258 1 8.79168 8.71211 7.01883 12 10.8345505726 1.7545342291 12.3375865626
1259 1 8.79986 7.02516 8.74805 12 10.5792392689 1.7377851467 12.1759254874
1260 1 7.10403 8.85125 8.92089 12 10.9817823786 1.7566090998 11.9621718804
1261 1 10.5937 6.87769 7.09791 12 10.8549408393 1.7545342291 12.3789201026
1262 1 12.2957 8.70886 7.00742 12 11.0846644147 1.7736420397 10.7029829241
1263 1 12.3442 7.08998 8.83002 12 10.9251906358 1.771959255 10.3529324228
1264 1 10.469 8.82086 8.80603 12 10.9686547839 1.7736420397 10.2213033799
1265 1 14.1668 7.07232 7.08386 12 10.8578500201 1.7724363868 11.0438089036
1266 1 15.9141 8.79501 7.04393 12 10.8286593032 1.7720660297 9.5482266699
1267 1 15.8796 7.2264 8.89774 12 11.0615973661 1.7713060774 9.3426610514
1268 1 14.0497 8.8875 8.80368 12 11.104563252 1.7732172422 8.699383603
1269 1 17.6567 7.05748 7.05524 12 10.9257586021 1.7485603086 10.5237340915
1270 1 19.4936 8.84649 7.00917 12 11.0881823432 1.7442305881 9.5450129181
1271 1 19.4513 7.13381 8.82685 12 10.89722127 1.744576689 9.3350645482
1272 1 17.6941 8.86499 8.85326 12 10.9872053503 1.7442850496 7.974288225
1273 1 21.2362 7.02791 6.9713 12 10.9544253243 1.7548165738 10.6879126197
1274 1 22.8902 8.93044 6.94561 12 11.0540904488 1.7305520715 9.5868630827
1275 1 22.9367 7.17419 8.90445 12 11.1489588805 1.7386653084 9.4261159596
1276 1 21.1789 8.85137 8.78695 12 11.0325290683 1.7442850496 8.1162123539
1277 1 24.6621 7.20183 6.99082 12 11.0130901851 1.7438352256 11.0517118593
1278 1 26.5372 8.9868 6.98242 12 10.9166034505 1.7438352256 10.7273344648
1279 1 26.4962 7.19438 8.81799 12 11.1952909826 1.7806741128 10.6458064967
1280 1 24.8479 8.86256 8.83915 12 11.104859133 1.7461286355 8.7847880268
1281 1 28.1892 7.089 7.02211 12 11.2762950716 1.7654352276 12.6083576952
1282 1 30.0518 8.95982 6.96407 12 11.0202221991 1.7654352276 12.8088699783
1283 1 29.9649 7.1274 8.7624 12 11.1594823433 1.7649321797 12.7486901916
1284 1 28.3167 8.96991 8.68044 12 11.3046662588 1.7477864115 10.6741273413
1285 1 31.6986 6.99937 7.1403 12 10.7673297803 1.7654352276 14.7883317802
1286 1 33.4553 8.88088 7.07242 12 11.148361515 1.7605768482 15.1647532346
1287 1 33.4671 7.10994 8.84049 12 10.9813102216 1.7616353822 15.1607661189
1288 1 31.7204 8.86732 8.77977 12 10.95468915 1.764149543 13.0640345291
1289 1 35.2085 7.07345 7.02986 12 11.3442277469 1.7603741782 17.3283962288
1290 1 37.0571 8.78539 7.0114 12 11.0177686241 1.7650978006 18.0768361382
1291 1 37.1571 7.09621 8.76392 12 11.0367933704 1.7820979502 18.0793953204
1292 1 35.377 8.85718 8.78257 12 11.0036289244 1.764997839 15.9136495342
1293 1 38.8974 7.10743 7.08271 12 10.7023535521 1.7545513007 20.1928654066
1294 1 40.5907 8.72238 7.04848 12 10.9482303509 1.7735396056 19.3142395368
1295 1 40.6237 7.01746 8.86339 12 11.031742677 1.7610727504 19.1512296651
1296 1 38.918 8.94817 8.80916 12 11.0539081245 1.7650978006 18.8882728201
1297 1 42.2903 10.5417 7.12672 12 10.9230488129 1.7614683247 17.2722128643
1298 1 1.68343 12.2381 7.09581 12 10.7024701878 1.7588502233 15.3522980858
1299 1 1.69107 10.5558 8.80716 12 10.8712491667 1.7792518515 14.9885978065
1300 1 0.00567675 12.4174 8.83535 12 11.0763290713 1.7625707359 15.7475756672
1301 1 3.485 10.4729 7.05053 12 11.0177715708 1.7586552924 14.586058594
1302 1 5.21023 12.2947 7.07796 12 11.04483823 1.7952630857 12.7494820707
1303 1 5.27471 10.6123 8.96604 12 11.2267467403 1.755596265 12.165710229
1304 1 3.32217 12.3353 8.85255 12 10.8341607415 1.7586552924 13.0678026728
1305 1 6.9372 10.4657 7.09141 12 10.9529543357 1.7510350401 12.3626116973
1306 1 8.72542 12.3091 7.01525 12 10.7337250422 1.7567939102 10.6534884243
1307 1 8.82226 10.5663 8.78289 12 11.0001462922 1.7571419119 10.1496856335
1308 1 6.96872 12.3104 8.7747 12 10.8685739962 1.7603789091 10.436335392
1309 1 10.4903 10.4981 7.07159 12 10.7846066707 1.7477044624 10.4648116905
1310 1 12.41 12.427 7.06455 12 11.0012609224 1.7656684773 8.5657067035
1311 1 12.2147 10.6619 8.77487 12 11.3500856288 1.7736420397 8.3636027628
1312 1 10.5598 12.466 8.84785 12 11.0133351659 1.7648072244 8.2329987404
1313 1 14.0552 10.6089 7.10358 12 11.2110142512 1.7724363868 8.9423316914
1314 1 15.9013 12.3354 7.03862 12 11.0632028149 1.7640471052 7.3992583675
1315 1 15.8384 10.5316 8.80094 12 11.1634860014 1.7639939907 7.1793277338
1316 1 14.1537 12.4309 8.91778 12 11.1122487651 1.7669700453 6.4771540978
1317 1 17.579 10.5623 7.0802 12 10.8964881133 1.7566233578 8.3945356103
1318 1 19.2984 12.3482 6.98164 12 11.0596503891 1.7523352432 7.4041668453
1319 1 19.4955 10.6256 8.78674 12 11.1589031575 1.7517687065 7.0728645132
1320 1 17.6315 12.3629 8.7594 12 11.0529226839 1.7463052751 5.9334765475
1321 1 21.1616 10.6555 7.00274 12 11.1443300234 1.7604435295 8.4848037786
1322 1 23.0758 12.3655 7.07423 12 10.9849413835 1.7557519318 7.9849149873
1323 1 22.9622 10.5855 8.8177 12 11.2101162094 1.7481936598 7.1591143289
1324 1 21.2618 12.3553 8.81282 12 11.1245419055 1.7493949985 6.0956576512
1325 1 24.7665 10.6011 7.05045 12 10.7733858163 1.7244517051 9.1407156213
1326 1 26.4414 12.3692 7.02003 12 10.890736726 1.7695828826 9.2355577953
1327 1 26.5299 10.6874 8.79528 12 10.9268522623 1.7728044484 8.6471153386
1328 1 24.7978 12.5098 8.70548 12 10.9781725917 1.7728044484 7.0644634178
1329 1 28.3737 10.7149 6.82021 12 10.9267512542 1.7450689171 11.0678605651
1330 1 30.077 12.4929 7.1095 12 10.9265268317 1.7653658073 11.3061513424
1331 1 30.0778 10.6989 8.81607 12 11.06440846 1.7714979744 10.9765232017
1332 1 28.3298 12.4511 8.65491 12 11.2556688372 1.7728044484 9.1108712949
1333 1 31.733 10.6824 6.9717 12 11.0374391594 1.7651088881 13.189471209
1334 1 33.6021 12.4729 6.98504 12 11.2814199972 1.7651088881 14.0840031417
1335 1 33.5985 10.6032 8.75712 12 11.1027397578 1.764149543 13.8048160556
1336 1 31.8517 12.4432 8.801 12 11.0707408841 1.7641772028 11.7286287716
1337 1 35.278 10.5785 7.08495 12 10.9724053513 1.760939629 15.9402645869
1338 1 37.1636 12.3694 7.01001 12 10.7581047494 1.7358997273 17.1222895833
1339 1 37.1146 10.6258 8.79213 12 11.0318874066 1.7650978006 16.8144973891
1340 1 35.3999 12.4237 8.65408 12 11.0570499607 1.7486838703 14.8678804129
1341 1 38.8734 10.6686 6.98296 12 10.9301585028 1.734879606 19.0331893724
1342 1 40.5502 12.3528 7.00886 12 10.9945261918 1.7598588249 18.2159079762
1343 1 40.5657 10.8028 8.79077 12 11.0974879708 1.7625707359 17.7991583946
1344 1 38.7526 12.3475 8.94132 12 10.9288498256 1.7409558048 17.806283049
1345 1 0.132972 14.11 7.06884 12 11.2966162691 1.7709530465 16.1687290643
1346 1 1.80355 15.9186 7.08366 12 11.0797937056 1.7778213906 14.5940435952
1347 1 1.84696 14.2082 8.86708 12 10.697771076 1.7329785714 13.7598606166
1348 1 42.3786 15.8676 8.92735 12 10.8508583074 1.7616247286 14.957927802
1349 1 3.47329 13.9976 7.09361 12 10.9274069799 1.7778213906 13.593887085
1350 1 5.35061 15.7237 7.18669 12 11.2082014737 1.7966944921 11.7712120395
1351 1 5.20174 13.9495 8.78379 12 10.6176217948 1.7363407409 11.2415090247
1352 1 3.65749 15.8207 8.93477 12 10.749559522 1.7778209105 12.0139670961
1353 1 7.09073 14.0359 7.04699 12 10.9037304422 1.7363407409 10.999739106
1354 1 8.7951 15.973 7.08169 12 11.0149244818 1.7749365915 9.3908331589
1355 1 8.8029 14.0753 8.74688 12 11.3074688741 1.7842882752 8.702768531
1356 1 6.92138 15.9771 8.86397 12 11.1181055254 1.7842882752 9.4941560121
1357 1 10.5445 14.0706 7.06594 12 11.0440703001 1.7876945415 8.9253507814
1358 1 12.3728 15.8871 7.00584 12 11.1559341346 1.7748189109 7.2569774981
1359 1 12.3777 14.1787 8.69897 12 10.9030849892 1.7669700453 6.6129749503
1360 1 10.5798 15.8632 8.77385 12 11.1139876022 1.7826016804 7.0465889176
1361 1 14.1877 14.1214 6.99769 12 11.1995468917 1.7712077258 7.0718391685
1362 1 15.9837 15.9294 7.03345 12 11.117962002 1.7712077258 5.8896045397
1363 1 15.8251 14.054 8.85738 12 11.0770738193 1.7690865013 5.0372645081
1364 1 14.0879 15.9392 8.78733 12 11.1273329476 1.7699583418 4.9025762723
1365 1 17.5609 14.157 7.0223 12 11.1468881576 1.7607033269 6.2341661936
1366 1 19.432 15.8297 6.9789 12 11.0789370101 1.7683551595 6.0016203515
1367 1 19.3839 14.0178 8.84688 12 11.1416282065 1.7510155438 4.988257553
1368 1 17.7633 15.8279 8.80335 12 11.0409050785 1.7690865013 3.9782022421
1369 1 21.2366 13.9991 6.93975 12 11.104454171 1.7561012672 7.1686830669
1370 1 22.9465 15.89 6.993 12 11.0937681393 1.7561012672 7.3282222871
1371 1 22.9989 14.1913 8.81821 12 11.0542798316 1.7561012672 5.8782187395
1372 1 21.0828 15.8241 8.68686 12 11.2772701932 1.7775750126 4.9848815582
1373 1 24.7365 14.1708 6.97353 12 10.8411567627 1.7561012672 8.0810394905
1374 1 26.4731 15.9689 7.04646 12 11.049046217 1.763084543 8.5865182937
1375 1 26.5865 14.248 8.82501 12 11.2861063682 1.7825153496 7.3417582744
1376 1 24.674 15.8595 8.82726 12 11.3681935169 1.8085958221 6.1676999675
1377 1 28.1542 14.2924 6.93346 12 11.2330458728 1.7653658073 9.7538255918
1378 1 30.0099 16.0059 7.01743 12 11.2147041383 1.7816090646 10.851962256
1379 1 30.1568 14.1606 8.9021 12 10.9240008496 1.7802412914 9.8983000955
1380 1 28.3234 15.8699 8.91315 12 11.2479449621 1.7816090646 8.3250283375
1381 1 31.6697 14.2471 7.01996 12 11.0768424288 1.764944408 12.1979757454
1382 1 33.5771 15.8543 7.00672 12 11.0836650395 1.7763197547 13.6704725491
1383 1 33.62 14.092 8.75906 12 10.9596710434 1.7486838703 12.9413173331
1384 1 31.8774 15.9017 8.85083 12 11.0417551284 1.7816090646 11.2404221867
1385 1 35.4854 14.0931 7.04046 12 10.7326366849 1.7373455448 15.3764538205
1386 1 37.1565 15.8798 7.12926 12 11.1120943038 1.7928383508 16.6405026709
1387 1 37.1561 14.2091 8.92234 12 10.884321408 1.7411964723 15.9986305373
1388 1 35.2944 15.8889 8.79105 12 10.9250400639 1.7411964723 14.2025748976
1389 1 38.8596 14.0608 7.1412 12 11.0659273595 1.7650015265 18.303895337
1390 1 40.6451 15.8096 7.09453 12 11.1002811303 1.7624401837 17.4023345224
1391 1 40.6605 14.1112 8.88862 12 11.0322798158 1.7454560006 16.7322054528
1392 1 38.9549 15.8193 8.92882 12 10.8856847077 1.7561674236 17.4032309008
1393 1 -0.00744554 17.5122 7.08709 12 11.2344691747 1.7928510474 15.8755608715
1394 1 1.81472 19.3141 7.19933 12 11.3649408885 1.7754082008 14.3730779095
1395 1 1.78419 17.5156 8.81569 12 10.8619391651 1.7536700999 13.4033304619
1396 1 42.3594 19.4434 8.77238 12 11.0767167799 1.7569112338 15.0511217522
1397 1 3.53207 17.6415 7.16017 12 11.3713305122 1.7966944921 13.0730448152
1398 1 5.35906 19.3068 7.009 12 11.1848683255 1.7966944921 11.7690029089
1399 1 5.28761 17.738 8.83199 12 11.0184481661 1.7947112004 10.6698645037
1400 1 3.51119 19.4634 8.86922 12 10.876470853 1.7643630916 12.0290459078
1401 1 7.12035 17.591 6.99893 12 10.665142549 1.7965401132 10.4163278168
1402 1 8.80365 19.3987 7.08215 12 11.2862685941 1.7614162346 9.404963386
1403 1 8.76008 17.6119 8.73743 12 11.0167566203 1.7842882752 8.0277063734
1404 1 7.11351 19.336 8.79232 12 10.949053782 1.7566214502 9.2760872683
1405 1 10.703 17.6623 7.05877 12 11.3263827566 1.7765799402 8.1147646804
1406 1 12.4116 19.3603 7.0542 12 11.1278857698 1.7580469627 7.2106039415
1407 1 12.3015 17.7201 8.82618 12 10.9226346552 1.7557936 5.7401676897
1408 1 10.5772 19.5006 9.07653 12 11.2846572529 1.7614162346 6.8017090931
1409 1 14.1263 17.6571 7.09914 12 11.0386772294 1.7712077258 6.1013977133
1410 1 15.7994 19.458 7.02901 12 11.0611880091 1.7567423054 5.9503529219
1411 1 16.012 17.6481 8.72582 12 11.0938892622 1.7710396919 4.0152645106
1412 1 14.1648 19.3878 8.85308 12 10.9763983841 1.7448723753 4.8362326773
1413 1 17.7362 17.7167 7.01919 12 10.7837081614 1.754391583 5.5897689027
1414 1 19.4495 19.3675 6.99376 12 11.0226096341 1.7779423027 5.9930662042
1415 1 19.433 17.4991 8.69956 12 10.9671091848 1.7779470574 4.0871658814
1416 1 17.6512 19.3759 8.76236 12 11.0031251917 1.7779470574 3.9901622152
1417 1 21.2316 17.6653 6.95674 12 11.0035187957 1.7652875166 6.3051978432
1418 1 22.9248 19.4298 7.02998 12 10.8758009814 1.7526969698 7.2253763342
1419 1 22.8493 17.5642 8.81056 12 11.1252351442 1.764376414 5.4398359665
1420 1 21.1979 19.4141 8.82709 12 11.1048175252 1.7779470574 4.9171538422
1421 1 24.6172 17.6607 7.05537 12 11.2174357908 1.7640719069 7.6517919939
1422 1 26.4344 19.518 7.02147 12 10.8844066903 1.7831461151 8.6496165516
1423 1 26.526 17.7326 8.88385 12 11.2896630242 1.7797761291 7.1310529216
1424 1 24.6901 19.3773 8.70796 12 11.0457888334 1.7527175939 6.3092849273
1425 1 28.1381 17.6793 7.13043 12 11.2616807473 1.7832030578 9.5113288588
1426 1 30.0015 19.3611 7.069 12 11.2932300535 1.7832030578 10.7425834759
1427 1 30.0508 17.7553 8.82563 12 11.3124793139 1.7911483977 9.7223391328
1428 1 28.1834 19.5247 8.80371 12 11.041686969 1.7831037398 8.234992839
1429 1 31.8374 17.5885 7.09932 12 11.0674061014 1.7659257128 12.2002891572
1430 1 33.6184 19.5249 7.07398 12 11.3407816179 1.7762896856 13.4468903893
1431 1 33.5363 17.6618 8.91904 12 11.0331952717 1.7581165915 12.4899208671
1432 1 31.7553 19.4147 8.73975 12 11.2626388854 1.7732349138 10.9642647028
1433 1 35.3457 17.6077 7.12192 12 11.2127268697 1.7728850184 14.9716910064
1434 1 37.0897 19.4226 7.13168 12 10.9636221454 1.7728850184 16.3536383548
1435 1 37.1352 17.5932 8.87189 12 11.1650633802 1.771971488 15.6903111107
1436 1 35.3282 19.4742 8.84634 12 10.8983443846 1.7548606331 13.9998884357
1437 1 38.8933 17.6164 7.08088 12 11.4555276683 1.7728830783 18.0557774556
1438 1 40.6432 19.4468 7.00116 12 11.382565557 1.784617711 17.4413744223
1439 1 40.7044 17.6423 8.78952 12 11.0745614973 1.7657574208 16.358668967
1440 1 38.8643 19.4749 8.88385 12 10.9391782398 1.7625034774 17.233723571
1441 1 0.013635 21.1966 7.07525 12 11.2257513403 1.7822241189 16.0790813089
1442 1 1.77587 22.8894 6.99917 12 11.0512959356 1.7651121056 14.9634354867
1443 1 1.77023 21.2276 8.7839 12 10.883372381 1.7663502516 13.7233914613
1444 1 -0.0273912 22.9759 8.85766 12 11.0782871603 1.7663502516 15.5648736759
1445 1 3.48068 21.1639 7.13421 12 11.2861941237 1.7911803192 13.2454126752
1446 1 5.22743 22.951 7.02829 12 11.1104726258 1.7925192535 12.2611680427
1447 1 5.31311 21.026 8.82958 12 11.3154202681 1.7926730689 10.7631969191
1448 1 3.52501 22.9191 8.8584 12 11.1589121796 1.7926730689 12.5393582985
1449 1 7.03994 21.242 7.05767 12 11.0608859189 1.7571725928 10.7801346231
1450 1 8.82123 22.9695 7.13704 12 10.8001021396 1.7627182789 9.7828778116
1451 1 8.82309 21.1725 8.81946 12 10.9931206301 1.7571725928 8.2866009643
1452 1 7.09785 22.9943 8.78931 12 10.9542861086 1.7926730689 9.7298169161
1453 1 10.6394 21.1371 7.05594 12 11.2821429115 1.7614162346 8.5708817429
1454 1 12.3906 22.954 7.08676 12 11.1443779429 1.7728817322 8.0600813115
1455 1 12.4356 21.1262 8.74024 12 11.4267855971 1.7671053991 6.2107899846
1456 1 10.5573 22.9005 8.82492 12 11.2016873285 1.7594306039 7.4429864617
1457 1 14.1834 21.1607 7.00674 12 11.1813618418 1.7805278113 7.0088698518
1458 1 15.8534 22.8693 7.03102 12 11.2851921269 1.7692315575 7.260532411
1459 1 15.8958 21.1618 8.96063 12 11.0212426716 1.7618184922 4.8316622325
1460 1 14.0666 22.9114 9.02098 12 11.7030901325 1.7845441645 5.6971753595
1461 1 17.6562 21.1783 6.94962 12 11.3258357333 1.7691747894 6.3551757067
1462 1 19.3885 22.8912 7.08368 12 11.1810538331 1.7692315575 7.1451079739
1463 1 19.3988 21.1072 8.67094 12 11.3033494142 1.774956351 4.9986200132
1464 1 17.4885 22.9434 8.85622 12 11.40015415 1.7692315575 5.3755410748
1465 1 21.2997 21.1314 6.99989 12 10.9201540309 1.7430599924 6.9891003145
1466 1 22.8661 22.9919 7.1219 12 10.9392689393 1.7887590479 7.7069818183
1467 1 22.8651 21.2792 8.91627 12 10.8547460717 1.7527175939 5.6614021957
1468 1 21.1159 22.9162 8.81815 12 10.7305236715 1.7507616608 5.8400926158
1469 1 24.6665 21.1368 7.09447 12 11.0574850186 1.7887590479 7.9569442157
1470 1 26.4344 23.059 7.07134 12 11.1028484643 1.7887590479 9.1307397526
1471 1 26.512 21.1174 8.7988 12 10.8130594751 1.7572621277 7.3961666848
1472 1 24.6874 22.7922 8.94681 12 11.3950140458 1.7982918338 6.6259586467
1473 1 28.2581 21.2388 6.9599 12 11.0399411507 1.7832030578 9.8775428505
1474 1 29.9942 22.9195 7.07557 12 10.9592067683 1.7666581426 11.2353318709
1475 1 30.0164 21.2311 8.85762 12 11.2371821918 1.7732349138 9.6500809163
1476 1 28.1325 22.9159 8.75258 12 11.1938963808 1.7576539316 8.8585353802
1477 1 31.7764 21.3199 7.08104 12 11.1491064562 1.7719903688 12.1264238938
1478 1 33.6483 22.823 7.15657 12 10.8031632144 1.7522594562 13.8066261192
1479 1 33.5612 21.1822 8.89644 12 10.8923590384 1.7732349138 12.5130807948
1480 1 31.8109 22.952 8.9495 12 11.0733245533 1.7732336887 11.3807122433
1481 1 35.3253 21.1971 7.14283 12 10.8884712947 1.7428758816 14.910844104
1482 1 37.1242 22.9364 6.93573 12 11.186533316 1.7840150772 16.814500776
1483 1 37.1698 21.1083 8.83502 12 10.5803359653 1.7484755444 15.7528670119
1484 1 35.5046 22.956 8.91823 12 11.0122161736 1.7543563073 14.5151272647
1485 1 38.7829 21.1155 7.13306 12 11.0933595686 1.784617711 17.920688822
1486 1 40.685 23.0326 6.99344 12 11.1825307256 1.7843242684 17.9239348084
1487 1 40.6795 21.171 8.89166 12 11.2260123026 1.784617711 16.6847465651
1488 1 38.8154 22.937 8.77253 12 11.1689688454 1.7840150772 17.5478151835
1489 1 0.0100746 24.6872 7.02119 12 11.038143628 1.7856505078 16.7855282855
1490 1 1.82237 26.5081 7.12578 12 10.8358528506 1.7878926032 15.7080782442
1491 1 1.7926 24.7537 8.85803 12 11.2916301335 1.7663502516 14.4296716431
1492 1 42.3846 26.4267 8.87843 12 11.3241486889 1.7878926032 16.4782241463
1493 1 3.41816 24.7302 7.07646 12 10.9126231964 1.744485801 13.9583159351
1494 1 5.28641 26.4845 7.10002 12 11.1385851884 1.7618599164 13.1069162421
1495 1 5.27721 24.6995 8.79016 12 11.1544310031 1.7878821349 11.532275284
1496 1 3.4779 26.4846 8.79246 12 10.9515530522 1.7716177112 13.5679277981
1497 1 7.11165 24.5816 7.0207 12 10.8641695701 1.7621372181 11.282247388
1498 1 8.99892 26.4259 6.98301 12 11.135596523 1.7621372181 10.8997796239
1499 1 8.84935 24.7341 8.75501 12 11.1635149253 1.7414723013 9.0150074276
1500 1 7.06707 26.4385 8.92027 12 11.453991609 1.7621372181 10.7956938887
1501 1 10.669 24.6966 7.06994 12 11.0061375318 1.7592450269 9.3120308675
1502 1 12.4601 26.4437 7.06438 12 11.187391265 1.774400006 9.1661027958
1503 1 12.2967 24.6615 8.90442 12 10.9297904905 1.7830504189 7.0098212597
1504 1 10.7246 26.5164 8.87436 12 11.1574087602 1.7378989468 8.6936050928
1505 1 14.0766 24.6887 7.09589 12 11.4434105969 1.7845441645 7.9671657431
1506 1 15.916 26.5404 7.02202 12 10.9883820375 1.752355661 8.6194513396
1507 1 15.8931 24.8113 8.85843 12 11.4842275708 1.7845441645 6.1732521307
1508 1 13.9611 26.4678 8.89382 12 11.2368956188 1.7845441645 7.2727772049
1509 1 17.5255 24.7097 7.10178 12 11.2438615517 1.7738702822 7.6053860107
1510 1 19.3751 26.3966 7.16996 12 10.9344887525 1.7457465071 8.5267735064
1511 1 19.4424 24.5894 8.89013 12 11.2410724292 1.7649993295 6.1872704813
1512 1 17.5902 26.5742 8.83154 12 11.032595611 1.7649993295 7.1621800047
1513 1 21.1066 24.6123 7.06071 12 10.6704674886 1.7579479122 8.1252184576
1514 1 22.874 26.4719 6.93663 12 11.1249721012 1.8057369308 9.3830162664
1515 1 22.8477 24.5989 8.85837 12 11.2732380474 1.8057369308 6.8103622064
1516 1 21.0953 26.4044 8.75696 12 11.2092267447 1.8057369308 7.4642710252
1517 1 24.6011 24.7898 7.1299 12 11.2787965571 1.7982918338 8.8327334004
1518 1 26.4842 26.5401 7.0109 12 11.1159873905 1.7450286518 10.5763183111
1519 1 26.48 24.7344 8.79591 12 11.2755680294 1.7982918338 8.4396727808
1520 1 24.7004 26.51 8.84369 12 11.1202083391 1.8057369308 8.541749356
1521 1 28.2837 24.7469 7.0751 12 10.8773585029 1.7576539316 10.7244127624
1522 1 29.9434 26.4241 7.20888 12 11.0173751491 1.7674732486 12.2379652885
1523 1 30.0828 24.7075 8.93422 12 11.0398425704 1.7576539316 10.5512729356
1524 1 28.149 26.4735 8.87088 12 10.8844381982 1.7573039534 10.0975912148
1525 1 31.7798 24.6498 7.22259 12 11.2987892686 1.7969859059 12.8418821658
1526 1 33.4976 26.3956 7.14943 12 10.9357541026 1.7667170961 14.6576853938
1527 1 33.6565 24.6725 8.84166 12 11.161031149 1.7699396077 13.3465684656
1528 1 31.8699 26.3844 8.94961 12 10.9651024584 1.7687887628 12.4354636444
1529 1 35.2632 24.6037 6.9798 12 10.9720242496 1.7666597589 15.6248409012
1530 1 37.1367 26.4662 7.10313 12 10.9041475759 1.7664033912 17.5617263744
1531 1 37.0848 24.752 8.83444 12 10.8544550288 1.7666597589 16.3050085556
1532 1 35.3829 26.4627 8.81897 12 10.9339636539 1.7526648405 15.3035286433
1533 1 38.8181 24.725 7.12433 12 10.981714363 1.7818413722 18.5643996095
1534 1 40.6362 26.408 7.07856 12 11.3340266886 1.7873128334 18.7136329376
1535 1 40.7249 24.6327 8.8818 12 11.1103693934 1.7441648329 17.3863185719
1536 1 38.918 26.4971 8.84038 12 11.1712462132 1.7540261761 18.3480260575
1537 1 0.0817731 28.3239 7.02871 12 11.2494655386 1.7878926032 17.8056150425
1538 1 1.86522 30.0115 7.0669 12 11.0427456373 1.763115852 17.1716408722
1539 1 1.71734 28.1978 8.83536 12 10.9095323372 1.7332447727 15.670282966
1540 1 0.0916682 30.0012 8.79063 12 10.901030451 1.7505884744 17.8284680065
1541 1 3.52771 28.1929 7.11653 12 10.7504826076 1.7406001805 15.0684128212
1542 1 5.29962 29.9368 7.06202 12 10.9788350336 1.7665718747 14.8113197358
1543 1 5.2813 28.3199 8.721 12 11.0575936179 1.7778600615 13.0762821974
1544 1 3.43187 30.04 8.84416 12 10.924261151 1.7775372112 15.2792087527
1545 1 7.06867 28.2375 7.09172 12 10.8334051128 1.7606667393 12.7915521292
1546 1 8.85498 29.9444 7.10154 12 10.8868981283 1.7672039199 12.7528087861
1547 1 8.82956 28.1679 8.81926 12 11.1761584092 1.7606667393 10.7294408494
1548 1 7.12158 29.9357 8.7813 12 11.0137839165 1.7852791754 12.8005701012
1549 1 10.6577 28.2751 7.09753 12 10.9828917322 1.774400006 10.8528635737
1550 1 12.4238 30.048 7.12188 12 10.9581912296 1.7820043216 11.289193262
1551 1 12.3821 28.287 8.93716 12 10.6821805135 1.774400006 8.9240857345
1552 1 10.6038 29.8743 8.79312 12 10.8728404858 1.7251975796 10.880426223
1553 1 14.1947 28.3646 7.05879 12 10.7369515215 1.774400006 9.7933858926
1554 1 15.8231 30.0426 7.16517 12 10.9616609319 1.7586240618 10.753182205
1555 1 15.7682 28.1801 8.7869 12 11.001146086 1.76847826 8.2846804467
1556 1 14.0764 29.9627 8.90081 12 10.8007053064 1.7792070725 9.7416136216
1557 1 17.7018 28.2768 7.0978 12 10.7571976368 1.7585818511 9.5926121996
1558 1 19.4341 30.0312 7.11079 12 10.9309383488 1.7672112988 10.8727960633
1559 1 19.3999 28.2813 8.80645 12 10.9743747899 1.7523494647 8.4360309708
1560 1 17.5961 30.0697 8.82679 12 10.9266595967 1.7586240618 9.6975521651
1561 1 21.2169 28.3167 7.04059 12 11.4574658511 1.7678390723 9.9513043978
1562 1 23.0184 30.2519 7.00529 12 11.3440864222 1.7678390723 11.6614591882
1563 1 22.9694 28.2121 8.83181 12 11.3332676629 1.8054380113 9.0692307915
1564 1 21.2985 30.105 8.93901 12 11.0535426686 1.7678390723 9.9007464237
1565 1 24.6572 28.2286 7.02121 12 11.3935122917 1.7529121931 10.8741541446
1566 1 26.4608 30.0503 7.11869 12 10.9529476302 1.736782589 12.6628926617
1567 1 26.4077 28.2518 8.7603 12 10.9073001942 1.7447555422 10.4087725854
1568 1 24.8012 30.0865 8.79358 12 10.9051307089 1.7616466673 10.9835532679
1569 1 28.3314 28.2283 7.11648 12 10.854127686 1.7497764748 12.3170472764
1570 1 29.9863 30.0721 7.06344 12 10.9083607043 1.7391616629 14.2359611112
1571 1 29.9995 28.2288 8.84521 12 11.0136612391 1.7687887628 12.1172672602
1572 1 28.2747 30.0371 8.72545 12 10.8031615671 1.7383989159 12.4104550357
1573 1 31.7652 28.177 7.06109 12 11.205151444 1.7687887628 14.2380969746
1574 1 33.5792 30.0613 7.11008 12 11.4178154632 1.7569503597 16.3454812357
1575 1 33.5328 28.2038 8.89818 12 10.9956747478 1.7687887628 14.4935787219
1576 1 31.8086 29.9429 8.80792 12 11.3088489619 1.7678767706 14.2620002347
1577 1 35.2588 28.2366 7.08476 12 11.2515924306 1.7569503597 16.7002179419
1578 1 37.0824 30.1072 6.99346 12 11.4726330749 1.7841733998 18.9395823746
1579 1 37.0491 28.2528 8.78656 12 11.2252809591 1.7822165945 17.350334955
1580 1 35.374 30.0878 8.88433 12 11.224416902 1.7864569775 16.815023643
1581 1 38.8052 28.2287 7.09001 12 11.4475726376 1.7652551463 19.5085732693
1582 1 40.7932 30.0079 6.98752 12 11.2045807444 1.7621487643 19.8951748574
1583 1 40.7585 28.2621 8.88199 12 11.3829353613 1.7652551463 18.5201910066
1584 1 38.9291 29.9943 8.75177 12 11.5962848674 1.7864569775 19.6453348602
1585 1 0.0551112 31.811 7.06474 12 11.3216354101 1.7620209779 19.4390573502
1586 1 1.87618 33.6134 7.11944 12 11.2539493484 1.7762538133 19.1627932981
1587 1 1.81585 31.7961 8.86031 12 10.9329168245 1.7762538133 17.4455746571
1588 1 0.044615 33.5285 8.83325 12 11.2648527047 1.7761375063 19.7484811454
1589 1 3.53242 31.7566 7.05955 12 11.1555491196 1.7649444642 16.9997568104
1590 1 5.36587 33.6396 7.08981 12 11.2467205923 1.7709733718 16.9986963601
1591 1 5.25298 31.7324 8.82244 12 11.2667963536 1.7709733718 15.0260028617
1592 1 3.60807 33.6091 8.88218 12 11.0728616037 1.7762538133 17.2398277968
1593 1 7.19766 31.7394 7.15111 12 11.3033983832 1.7844963452 14.7513287252
1594 1 8.7848 33.6015 7.11102 12 11.0658587742 1.7456465906 15.2658238031
1595 1 8.9041 31.7976 8.84193 12 11.0896778019 1.7450349696 12.9927503013
1596 1 7.04561 33.5365 8.90942 12 10.8624262244 1.7451311456 15.1233609562
1597 1 10.5715 31.7025 6.99023 12 11.2161946323 1.7820043216 13.1940140967
1598 1 12.3083 33.6084 7.06876 12 11.0336027613 1.7820043216 14.0718859024
1599 1 12.2998 31.7514 8.91817 12 11.3594146636 1.7820043216 11.6179090475
1600 1 10.5973 33.5434 8.7688 12 11.2892949909 1.7664556005 13.6701132415
1601 1 14.1274 31.8349 7.05136 12 11.1125025152 1.781953736 12.3085123254
1602 1 15.9653 33.5293 7.06524 12 10.9327865217 1.7489744854 13.4991673197
1603 1 15.9816 31.8538 8.82809 12 10.9696512477 1.7780101948 11.1064538909
1604 1 14.0781 33.598 8.81474 12 11.2515182676 1.7793459051 12.8319782995
1605 1 17.7412 31.7853 7.0643 12 10.8428968948 1.7586240618 12.1559926898
1606 1 19.5504 33.5712 7.20198 12 10.6356882344 1.7319600648 13.5314077058
1607 1 19.5039 31.7177 8.86239 12 10.8018013056 1.7179002662 11.0649387548
1608 1 17.7539 33.4802 8.79454 12 11.0953118093 1.7725307126 12.4293353898
1609 1 21.2106 31.8459 7.17644 12 10.6616546304 1.7678390723 12.310875536
1610 1 23.0063 33.56 7.04719 12 10.7900752915 1.7319600648 14.0903870202
1611 1 23.0456 31.8418 8.85985 12 10.5444812696 1.7564999129 11.7307086224
1612 1 21.3513 33.4922 8.80847 12 10.5690517264 1.7384305648 12.8002166191
1613 1 24.8141 31.7642 6.94078 12 10.8633243982 1.7548071835 13.3347437512
1614 1 26.5529 33.5369 6.94218 12 10.9060938772 1.7326352743 15.1498771
1615 1 26.5364 31.8965 8.87978 12 10.862348141 1.7548071835 12.8258730792
1616 1 24.68 33.6354 8.69781 12 10.8236123669 1.7548071835 13.6517908926
1617 1 28.2236 31.8825 7.13687 12 10.8403545291 1.7402511937 14.569089763
1618 1 30.0602 33.5172 7.03487 12 11.1035772062 1.74993547 16.5837704983
1619 1 30.0023 31.7529 8.88743 12 11.1239573968 1.74993547 14.3752537156
1620 1 28.3128 33.6026 8.75598 12 11.1875572408 1.77040345 14.9056974735
1621 1 31.794 31.8082 7.12959 12 11.2322494292 1.7477437732 16.2571118491
1622 1 33.5743 33.5312 7.08465 12 11.2262266411 1.7747406107 18.4249761949
1623 1 33.637 31.8543 8.93988 12 11.1723191936 1.7747406107 16.5708706102
1624 1 31.8036 33.5836 8.89848 12 11.0667648956 1.7713189218 16.6534405516
1625 1 35.3542 31.8386 7.10486 12 11.0758252464 1.754481812 18.5205147596
1626 1 37.2501 33.6991 7.00993 12 11.0414546079 1.7345426496 20.9417857961
1627 1 37.0781 31.9468 8.79017 12 10.9540943657 1.7864569775 19.1287621693
1628 1 35.4606 33.6332 8.87576 12 10.7518231179 1.7747406107 18.9490565718
1629 1 38.9593 31.8765 7.09616 12 11.2986509694 1.7620209779 21.1759410691
1630 1 40.6823 33.6916 7.06502 12 11.303353101 1.7700002382 21.8023511044
1631 1 40.6461 31.7513 8.82407 12 11.3147948681 1.7895795798 20.188952926
1632 1 38.8798 33.5239 8.8266 12 10.9508561428 1.7698423482 21.360185206
1633 1 0.0147473 35.4099 6.96227 12 10.9124818209 1.7499449325 21.5616707787
1634 1 1.7166 37.1569 7.02548 12 10.9906526953 1.775601624 21.5214260071
1635 1 1.7949 35.3559 8.81521 12 10.942700921 1.7761109872 19.595178794
1636 1 0.0533 36.9473 8.85208 12 10.9988936706 1.743343429 21.802735768
1637 1 3.56179 35.439 7.07371 12 11.2758085543 1.7878582994 19.2334691393
1638 1 5.30428 37.1344 7.16036 12 11.2674085439 1.7734968596 19.4342851156
1639 1 5.27991 35.2837 8.88527 12 10.7680558879 1.7440269129 17.3563225509
1640 1 3.49651 36.9583 9.06054 12 11.1103811886 1.775601624 19.5373198268
1641 1 7.01299 35.3244 7.20196 12 10.9210857456 1.7684078127 17.2544735401
1642 1 8.8321 37.0775 6.99266 12 10.9930022966 1.7658698318 17.9716744582
1643 1 8.72134 35.3641 8.86226 12 11.085040275 1.7456465906 15.7638914294
1644 1 6.97086 37.0933 8.8379 12 11.0165692772 1.7657333443 17.9091123184
1645 1 10.6596 35.3043 7.03299 12 11.0072621921 1.7605393028 15.9392466214
1646 1 12.3775 37.1134 7.02091 12 11.2629668868 1.7924135338 17.0439511818
1647 1 12.3541 35.3215 8.8585 12 10.9513066761 1.7924135338 14.654532086
1648 1 10.5331 36.9943 8.83284 12 11.3247478435 1.7918206094 16.5352545734
1649 1 14.1041 35.3563 7.11634 12 10.91253024 1.7580416243 15.1717209546
1650 1 15.9443 37.0337 7.1194 12 11.08493585 1.7666135435 16.3539604319
1651 1 15.8894 35.3005 8.84247 12 11.2255752853 1.7646247083 14.0064026433
1652 1 14.1621 37.0442 8.80902 12 11.280805829 1.7924135338 15.797510501
1653 1 17.8491 35.2889 7.14661 12 11.0391421805 1.7707682707 14.8482528164
1654 1 19.556 36.9958 7.19003 12 10.8732033219 1.7833151824 16.4162825808
1655 1 19.6324 35.346 8.91212 12 10.9822641514 1.7725307126 14.171235217
1656 1 17.633 36.9988 8.90653 12 11.324193494 1.7725307126 15.4539747073
1657 1 21.2692 35.3187 7.08488 12 10.7045647612 1.7329997506 15.207073304
1658 1 22.9966 37.1644 6.98735 12 10.9698810278 1.7362245037 17.1156334225
1659 1 22.9412 35.3859 8.80882 12 10.6373463067 1.7392402749 14.7117502464
1660 1 21.299 37.1445 8.80222 12 10.7899195497 1.7382841471 16.0656448929
1661 1 24.6256 35.424 7.06349 12 10.8758676454 1.7795741477 15.9661912658
1662 1 26.4252 37.1702 7.05243 12 10.7217231792 1.7575051901 17.8353680345
1663 1 26.4783 35.3424 8.66712 12 11.0858166569 1.7413471406 15.5651139134
1664 1 24.6128 37.1723 8.83198 12 11.0640145446 1.7495176067 16.5461503537
1665 1 28.2328 35.3614 7.04177 12 10.81982512 1.7512107785 17.0543153854
1666 1 30.0231 37.0991 7.03331 12 11.102566431 1.7761911981 19.1274859051
1667 1 30.0524 35.4043 8.78025 12 11.1173930442 1.7611226306 17.0759374289
1668 1 28.2666 37.0281 8.76945 12 10.8575289246 1.763547518 17.5424207323
1669 1 31.8021 35.2173 7.0686 12 11.2034537709 1.7524450839 18.6365399312
1670 1 33.5193 36.9859 7.10636 12 11.3240759177 1.7773734333 20.8060333294
1671 1 33.5152 35.3915 8.91981 12 11.1130622502 1.7747406107 18.9334044376
1672 1 31.7879 37.1659 8.88229 12 11.1642111466 1.7833780412 19.2653853033
1673 1 35.3277 35.1838 7.10113 12 11.0459617646 1.7773734333 20.5733816844
1674 1 37.0738 37.0071 7.05597 12 11.027983123 1.7773646843 22.9085142798
1675 1 37.1949 35.3191 8.83044 12 10.7664361683 1.7327746923 21.2385109343
1676 1 35.2869 36.9545 8.83994 12 11.1248900866 1.7773734333 21.1487016768
1677 1 38.9394 35.4619 7.13042 12 10.9660730091 1.7277862619 23.1297785506
1678 1 40.6338 37.1359 6.96217 12 10.8055394575 1.7432300703 23.8553191424
1679 1 40.6221 35.4635 8.86718 12 10.9840133039 1.7634850315 22.222682782
1680 1 38.931 37.2467 8.82404 12 10.818355602 1.7286900263 23.7044093738
1681 1 42.3982 38.8301 7.02724 12 11.0211220683 1.7516603173 23.7405942362
1682 1 1.74196 40.6842 7.08896 12 11.0429882799 1.7516603173 22.5118391418
1683 1 1.80418 38.707 8.85463 12 11.3312110978 1.7706230747 21.8933222195
1684 1 -0.0341643 40.5902 8.76097 12 11.088854755 1.7660998424 22.8486868846
1685 1 3.57118 38.9611 7.12103 12 11.4080453885 1.775601624 21.7053457091
1686 1 5.36962 40.5301 7.09274 12 10.7518358497 1.751054578 20.843390423
1687 1 5.32462 38.9223 9.05019 12 11.1546722673 1.7706230747 20.0755434563
1688 1 3.58463 40.6178 8.84115 12 11.1120356086 1.7721383082 20.7934320085
1689 1 7.01751 38.8489 7.12763 12 10.7000085278 1.7658698318 20.0108891431
1690 1 8.87603 40.5781 7.09829 12 10.7965983177 1.7375167618 19.2916977909
1691 1 8.77593 38.754 8.70696 12 11.2192350243 1.7653866514 18.6397924284
1692 1 7.04837 40.5753 8.95543 12 10.8902887972 1.7448034955 19.2012596359
1693 1 10.6754 38.8198 7.07247 12 11.1333124652 1.7645111697 18.852119023
1694 1 12.3235 40.6021 7.12918 12 10.9359464938 1.7588715788 18.0346428524
1695 1 12.2944 38.904 8.8015 12 11.0123129457 1.7924135338 17.8449233102
1696 1 10.5121 40.5802 8.91565 12 10.7445128024 1.763995314 17.8145138385
1697 1 14.0895 39.0512 7.05094 12 11.1228075361 1.7666135435 18.3532035758
1698 1 15.9132 40.6809 7.0771 12 10.9075941337 1.7543888078 17.2800303389
1699 1 15.8956 38.891 8.86694 12 11.2005029944 1.7559034485 17.2307266189
1700 1 14.1181 40.6857 8.84253 12 10.956314059 1.7370197497 16.6760929426
1701 1 17.6458 38.8283 7.1958 12 11.5046702685 1.7833151824 17.8531839333
1702 1 19.3189 40.7253 7.05501 12 11.5522995599 1.7891029488 17.248739437
1703 1 19.5571 38.7605 8.89688 12 11.2477342684 1.7833151824 17.2379824017
1704 1 17.6534 40.6376 8.91213 12 11.1164248754 1.7700431979 16.3089163238
1705 1 21.1982 38.9238 6.98125 12 11.1169457761 1.7833151824 18.4023112566
1706 1 23.0643 40.6091 7.06628 12 10.9515714198 1.7630078526 17.978823
1707 1 23.016 38.9887 8.86892 12 10.9047621636 1.7382841471 17.9186786555
1708 1 21.1836 40.615 8.76945 12 11.215801104 1.7716341976 16.7720058907
1709 1 24.7729 38.9475 7.05066 12 10.7653113742 1.7297675926 18.9385690641
1710 1 26.4514 40.7949 7.01997 12 10.9142820107 1.8125370107 18.5551435675
1711 1 26.6145 38.8716 8.75161 12 11.0041698446 1.7675504166 18.5495823787
1712 1 24.82 40.606 8.86152 12 10.8043035283 1.7459113785 17.6232743593
1713 1 28.2576 38.8448 7.10246 12 10.9896508038 1.8125370107 19.7585499917
1714 1 30.0735 40.7342 7.01867 12 11.1781347622 1.8124672868 19.9042466754
1715 1 29.9162 38.9816 8.8067 12 11.6559872038 1.7852949139 19.8117434867
1716 1 28.1103 40.7926 8.89162 12 11.1972996936 1.8125370107 18.4180202008
1717 1 31.8623 38.9016 7.13769 12 11.4667339759 1.7831721056 21.3164606298
1718 1 33.6414 40.6854 7.04167 12 11.0531684029 1.7698817797 21.7307113449
1719 1 33.4708 38.85 8.82649 12 11.0992678529 1.7852949139 21.4820815255
1720 1 31.7732 40.7825 8.81316 12 11.0124633582 1.7852949139 20.0781630576
1721 1 35.3117 38.7898 7.09783 12 11.0576497913 1.7768448045 23.1212578863
1722 1 37.0894 40.6392 7.07564 12 11.0233528531 1.7483619349 23.7771340395
1723 1 37.1197 38.757 8.6873 12 11.0338309113 1.7483619349 23.6269062948
1724 1 35.3023 40.573 8.7988 12 11.0485116524 1.7460803526 22.1570440561
1725 1 38.8742 38.8834 6.95003 12 10.9473472135 1.7459704814 25.3722218295
1726 1 40.5864 40.6488 7.03532 12 11.0782167672 1.7453412302 24.666235913
1727 1 40.7518 38.8683 8.83479 12 11.0035547484 1.7439610931 24.2601387083
1728 1 38.8881 40.5049 8.79642 12 11.2423193765 1.7563502161 24.4754420899
1729 1 0.0209951 0.0157645 10.583 12 11.0170480035 1.7660998424 20.8771621603
1730 1 1.74164 1.75116 10.5892 12 11.0230600816 1.7604128994 18.6121266096
1731 1 1.66819 0.0492147 12.4006 12 10.9603531859 1.7424819141 19.1921816256
1732 1 3.02113e-05 1.74849 12.3206 12 10.7778920858 1.759191216 19.2067061223
1733 1 3.49494 42.3907 10.6269 12 11.0593376475 1.7720539733 18.7748286323
1734 1 5.27998 1.63006 10.559 12 11.0627121864 1.7602615288 16.6330226011
1735 1 5.31859 42.4205 12.3787 12 10.9380084549 1.751662742 17.1304204488
1736 1 3.5122 1.7174 12.3691 12 11.1762449821 1.7604128994 16.8576184197
1737 1 7.16789 0.0133421 10.5896 12 10.8459245388 1.7464588573 16.9724224158
1738 1 8.85305 1.75401 10.6562 12 10.8437898627 1.7642472614 14.8492286439
1739 1 8.80721 42.3419 12.4191 12 10.8886085154 1.7565773745 15.5420101299
1740 1 7.01914 1.70307 12.3081 12 11.0715624066 1.7567993691 14.993328108
1741 1 10.4953 42.3739 10.6481 12 10.8863813652 1.7517653015 15.5665842055
1742 1 12.2696 1.71168 10.5278 12 10.9958797205 1.773404404 13.5590978782
1743 1 12.4684 42.3786 12.2527 12 11.1318090248 1.7729034801 14.2248491091
1744 1 10.615 1.78032 12.4126 12 11.1954392672 1.769818687 13.2568811079
1745 1 14.0514 42.347 10.568 12 11.0158528337 1.7759685131 14.4995605421
1746 1 15.9418 1.73805 10.4807 12 11.249671318 1.7759685131 12.5786614746
1747 1 15.9657 42.3999 12.2853 12 10.9471933222 1.7759685131 13.4792125566
1748 1 14.2808 1.76227 12.2819 12 11.4127141063 1.773404404 12.1501719455
1749 1 17.6433 0.0372834 10.6012 12 10.8360525069 1.7730677193 13.9316326942
1750 1 19.3289 1.81683 10.6133 12 11.3570448484 1.7682449376 12.4445730294
1751 1 19.3981 0.0324603 12.3612 12 11.1655683325 1.76078848 13.408825646
1752 1 17.5985 1.82463 12.4674 12 11.1752660265 1.7550537636 11.5687134034
1753 1 21.2022 42.321 10.5948 12 11.3221090001 1.772203571 14.4920042493
1754 1 22.9763 1.87624 10.5638 12 10.9186695547 1.741884686 13.2118987783
1755 1 22.899 0.0138937 12.3925 12 10.9587969688 1.7631913076 14.0370288693
1756 1 21.1856 1.72639 12.2836 12 11.0667708899 1.7470030688 12.167762735
1757 1 24.6463 0.137446 10.5589 12 11.3256115027 1.8041746146 15.2228715424
1758 1 26.5341 1.79796 10.4669 12 11.0374720517 1.8041746146 14.3517147472
1759 1 26.6289 0.126361 12.3684 12 11.1992393207 1.8041746146 15.3543435654
1760 1 24.7028 1.84899 12.3109 12 11.0131729008 1.7448475153 13.1347305966
1761 1 28.2855 0.184772 10.54 12 10.7538222925 1.8030433171 16.4394750177
1762 1 30.0923 1.6311 10.5616 12 11.0112025351 1.8047358084 16.0619257936
1763 1 29.9484 -0.0422103 12.2476 12 11.317894716 1.7900039963 16.9293141823
1764 1 28.3521 1.82791 12.3787 12 10.8878622608 1.7586826485 14.5870381541
1765 1 31.8277 42.2964 10.496 12 11.042535241 1.7900039963 18.3842426133
1766 1 33.5126 1.77601 10.6128 12 11.0190802372 1.750833303 17.8553918184
1767 1 33.5737 -0.0207569 12.3465 12 11.1296804086 1.7886214359 18.837956711
1768 1 31.7799 1.76775 12.4011 12 11.3635198314 1.7900039963 16.3699789042
1769 1 35.2535 0.0867606 10.5801 12 10.9685471188 1.7526483033 20.1895406884
1770 1 37.0854 1.75558 10.6165 12 10.6542541968 1.7547700294 20.2954953079
1771 1 37.0682 -0.00260522 12.2507 12 11.3214932604 1.782157377 21.1132125322
1772 1 35.2704 1.84355 12.2111 12 10.8688885583 1.7832550656 18.5858021315
1773 1 38.8668 -0.00267897 10.5329 12 11.2414171626 1.7623865337 22.7401268144
1774 1 40.6128 1.68237 10.5799 12 11.1619347847 1.7632554746 21.1361747832
1775 1 40.7056 0.0176573 12.3717 12 11.0112619281 1.7687514743 21.5263243338
1776 1 38.7483 1.65523 12.3533 12 11.0431658402 1.757150075 21.2450268893
1777 1 0.0320206 3.40003 10.4884 12 11.2756192639 1.7536928837 18.8493534698
1778 1 1.62289 5.30946 10.5565 12 11.2503318248 1.7536928837 16.6398927307
1779 1 1.6771 3.51302 12.3935 12 11.0255144809 1.7536928837 16.8854853297
1780 1 0.041432 5.28315 12.3049 12 11.1074654361 1.7667260357 17.1819095977
1781 1 3.52323 3.6088 10.5826 12 11.3169807779 1.7604128994 16.2892458949
1782 1 5.28575 5.29159 10.7214 12 11.1132238217 1.7668555366 14.0937210893
1783 1 5.16143 3.49726 12.3285 12 11.0482444774 1.751662742 14.6125915134
1784 1 3.43382 5.30131 12.3568 12 11.0921601342 1.7623832981 14.5728567126
1785 1 7.1232 3.46009 10.6084 12 11.1576184345 1.7290183246 14.3702118625
1786 1 8.87179 5.29242 10.5554 12 10.8546691884 1.7424391463 12.2365348615
1787 1 8.87457 3.47407 12.3342 12 11.046999828 1.7699426135 12.7478991673
1788 1 7.07844 5.29423 12.3516 12 11.2133210064 1.7822629737 12.245074391
1789 1 10.6617 3.58459 10.505 12 10.7472093307 1.7623943372 12.7069845985
1790 1 12.2762 5.39731 10.5718 12 10.9706405344 1.7801811575 10.6046581155
1791 1 12.3943 3.54824 12.1828 12 11.4930978325 1.78352475 11.2629566495
1792 1 10.5523 5.31306 12.2389 12 11.1554414197 1.781182123 10.629479214
1793 1 14.221 3.57357 10.5374 12 11.1382814931 1.7790674891 11.3799035939
1794 1 15.8557 5.32855 10.4255 12 11.1247580082 1.7798344834 9.6610186164
1795 1 15.9109 3.5937 12.2939 12 11.0759887485 1.7552008335 10.1432394651
1796 1 14.0514 5.33609 12.4159 12 11.1292814036 1.7801811575 9.1080809854
1797 1 17.6438 3.70708 10.5664 12 11.4795865509 1.7669927394 10.7239825816
1798 1 19.4507 5.34478 10.5055 12 10.9811808489 1.7534004992 9.5793585576
1799 1 19.4177 3.52558 12.3692 12 11.2494529748 1.7552008335 10.180237132
1800 1 17.6771 5.34239 12.4298 12 11.0618739302 1.7552008335 8.3649736164
1801 1 21.1408 3.54062 10.5911 12 10.9796342524 1.7534004992 11.3263925438
1802 1 22.9866 5.30687 10.5943 12 10.8213620227 1.7528103287 10.1658916108
1803 1 22.8582 3.54809 12.2789 12 10.7926662135 1.7448475153 11.0241360092
1804 1 21.2076 5.39353 12.3556 12 10.8133346269 1.7534004992 8.9508146668
1805 1 24.6643 3.5486 10.5686 12 10.7956610248 1.7448475153 12.1562303942
1806 1 26.4398 5.41904 10.6091 12 11.048957195 1.780710787 11.1642126963
1807 1 26.4497 3.48672 12.2914 12 11.2409691795 1.7599627968 12.3779940089
1808 1 24.7165 5.33126 12.3638 12 10.7154328925 1.752383813 10.0476893846
1809 1 28.2361 3.53759 10.5763 12 11.2802053692 1.8047358084 13.5725728593
1810 1 29.938 5.40053 10.5644 12 11.1203599806 1.8032551049 13.0965675772
1811 1 30.0511 3.55607 12.3747 12 11.4315480658 1.8046754604 13.9798057255
1812 1 28.2846 5.39532 12.3084 12 11.263064275 1.7788001326 11.5820983393
1813 1 31.8422 3.46853 10.581 12 11.2423041004 1.8047358084 15.6113105852
1814 1 33.6078 5.40446 10.5804 12 10.8109568974 1.7607188914 15.5125164968
1815 1 33.5445 3.58223 12.3105 12 11.1095837343 1.7512027399 16.1671691357
1816 1 31.6924 5.38458 12.2987 12 11.4271632709 1.763172905 13.6581035473
1817 1 35.3152 3.55985 10.6157 12 10.7497560416 1.7546604469 17.8710556951
1818 1 36.9601 5.23596 10.5934 12 11.169969579 1.7841453948 18.1783081495
1819 1 37.0346 3.49957 12.3716 12 10.8794484203 1.7489738301 18.7934329979
1820 1 35.2506 5.3349 12.3612 12 10.9368980285 1.7497188182 16.3173916495
1821 1 38.808 3.52635 10.6502 12 11.0064156599 1.7520229762 20.5574161719
1822 1 40.5908 5.25999 10.6258 12 11.2743267479 1.7649932852 19.2650660404
1823 1 40.6644 3.56188 12.3381 12 11.3082651541 1.7488684357 19.4802609301
1824 1 38.9015 5.30684 12.3141 12 10.9124393365 1.7489738301 19.3574588612
1825 1 42.432 7.21058 10.665 12 10.9562953875 1.7443026339 16.8773914219
1826 1 1.73296 8.90284 10.6253 12 10.9967917604 1.7804259222 14.7951466231
1827 1 1.66862 7.04246 12.377 12 11.1690999122 1.7651456643 14.9864005669
1828 1 42.306 8.88112 12.4394 12 10.9776210963 1.7735553062 15.4592238043
1829 1 3.4085 7.09159 10.5299 12 11.1912766777 1.7635280649 14.4655549293
1830 1 5.29155 8.79606 10.8 12 11.2167939666 1.7576888673 12.1317306873
1831 1 5.18804 6.97399 12.3031 12 11.1936050993 1.7637318313 12.4090356728
1832 1 3.34516 8.85899 12.4145 12 11.5704433529 1.7637318313 12.7888309389
1833 1 7.11534 7.03022 10.5813 12 11.0188652377 1.7566090998 12.0761396565
1834 1 8.79943 8.78888 10.621 12 10.9751763391 1.7566090998 10.0601044225
1835 1 8.79209 7.05526 12.4455 12 10.9420960671 1.781182123 10.0880909477
1836 1 7.10076 8.69707 12.4422 12 11.0519835286 1.7563924612 10.1120566445
1837 1 10.5859 7.10423 10.5344 12 11.0749185684 1.781182123 10.1350321828
1838 1 12.2726 8.84013 10.5438 12 11.1099055851 1.7736420397 8.1562443912
1839 1 12.3949 7.11398 12.351 12 10.8733735643 1.7807247258 8.3727913202
1840 1 10.5899 8.9007 12.4203 12 11.0292411323 1.7807699737 7.9489815416
1841 1 14.0351 7.17151 10.6728 12 10.9373807699 1.7801811575 8.6021919859
1842 1 15.875 8.86464 10.6447 12 10.9945021336 1.763220357 7.0017660976
1843 1 15.8111 7.0174 12.2783 12 11.137623168 1.7225565404 7.2607846848
1844 1 14.1154 8.87871 12.3953 12 11.0448429084 1.7578965215 6.2934137913
1845 1 17.7388 7.06936 10.5359 12 10.9647862642 1.7450621833 8.1352610085
1846 1 19.419 8.82956 10.6319 12 10.9425694841 1.7478751906 6.8657906462
1847 1 19.4259 6.98766 12.3638 12 10.7522127504 1.7454109525 7.194825918
1848 1 17.6264 8.73069 12.3146 12 11.1295328868 1.7414916011 5.7012240857
1849 1 21.2371 7.04998 10.5603 12 10.7282270552 1.753130488 8.3953916505
1850 1 23.0653 8.8894 10.5685 12 10.9622102726 1.7472003622 7.1307616646
1851 1 22.9268 7.05097 12.399 12 10.5699214219 1.7410717211 7.9169193466
1852 1 21.161 8.74373 12.2491 12 11.2717425618 1.7732525975 6.0779393391
1853 1 24.7066 7.12345 10.7344 12 10.9888231043 1.7799871018 8.9942477123
1854 1 26.5533 8.97693 10.5922 12 11.3001109201 1.780710787 8.5812793501
1855 1 26.5224 7.13719 12.3922 12 10.9270403411 1.780710787 9.2526598321
1856 1 24.6215 8.85276 12.3845 12 11.2125179247 1.7651018282 6.9087158097
1857 1 28.3304 7.16944 10.6079 12 11.0694419114 1.780710787 10.8759992727
1858 1 30.0591 8.96584 10.6364 12 11.1204306553 1.7723578114 10.9143451411
1859 1 29.997 7.16265 12.3781 12 10.9374410526 1.7631728015 11.2772909752
1860 1 28.2592 8.80877 12.4464 12 10.8319945905 1.7513497539 9.0002200476
1861 1 31.7569 7.12408 10.493 12 10.9952257067 1.763172905 13.2002036196
1862 1 33.4269 8.98425 10.5599 12 11.0588984071 1.7561878722 13.5293680304
1863 1 33.5154 7.0333 12.2676 12 10.9273295635 1.763172905 14.0062162636
1864 1 31.7875 8.9048 12.3774 12 10.9473655115 1.763172905 11.6003493582
1865 1 35.2454 7.12261 10.499 12 11.2868930458 1.7841453948 15.8769437125
1866 1 37.1121 8.84955 10.5413 12 10.8650971596 1.7819292568 16.7360537996
1867 1 37.1291 6.99696 12.3856 12 11.0347107919 1.7841453948 17.0218770456
1868 1 35.3637 8.74711 12.3562 12 11.2772073918 1.7561878722 14.728567101
1869 1 38.8021 7.13224 10.5239 12 10.7772485569 1.7841453948 18.871185789
1870 1 40.5837 8.77588 10.6131 12 10.9493994447 1.77174849 17.6338802464
1871 1 40.6161 7.06511 12.2495 12 10.9094516093 1.7731724769 17.7493279115
1872 1 38.7747 8.75314 12.214 12 11.0250690796 1.7735553062 17.8421285445
1873 1 42.3626 10.6567 10.6772 12 11.4142320085 1.7785059824 15.4703432254
1874 1 1.72942 12.4568 10.5912 12 11.0357318264 1.7804259222 13.4792982831
1875 1 1.65597 10.7356 12.4555 12 11.143007687 1.7804259222 13.2327851709
1876 1 42.3919 12.5061 12.4937 12 10.8214525293 1.7688829581 14.1125297468
1877 1 3.5903 10.614 10.6569 12 11.2940575756 1.7804259222 12.595320911
1878 1 5.202 12.456 10.6337 12 10.9360324173 1.7639019715 10.6198555502
1879 1 5.35109 10.6494 12.3736 12 11.3971197986 1.7599075024 10.4491951109
1880 1 3.46939 12.4664 12.4092 12 11.0695144763 1.7595961939 11.1781064141
1881 1 7.04021 10.5406 10.5994 12 11.0445000726 1.7639019715 10.1206920837
1882 1 8.71235 12.3319 10.558 12 11.1797816871 1.7639019715 8.1508621832
1883 1 8.79311 10.5927 12.3076 12 11.2212087729 1.749300732 8.0509928679
1884 1 7.04332 12.3303 12.4848 12 11.1773376359 1.7758230729 8.3365109189
1885 1 10.4986 10.6978 10.5745 12 11.0292871385 1.7505812998 8.0236798201
1886 1 12.2955 12.402 10.6185 12 10.8703101905 1.7669700453 6.1449737869
1887 1 12.3353 10.6277 12.352 12 11.0344056693 1.7579967806 5.9742291034
1888 1 10.6197 12.3728 12.3226 12 11.1439693319 1.7600146891 5.9356293385
1889 1 13.993 10.6385 10.6087 12 11.2768973737 1.7639939907 6.3489052375
1890 1 15.8648 12.4041 10.638 12 11.1338489518 1.7639939907 4.6813384239
1891 1 15.9312 10.6098 12.3143 12 11.2650070725 1.7767697219 4.6180540631
1892 1 14.1056 12.3868 12.4027 12 11.1218150369 1.7561979423 4.0292917759
1893 1 17.6504 10.6282 10.5134 12 11.2464140483 1.7593900792 5.5542601808
1894 1 19.4541 12.4588 10.5775 12 10.9319917649 1.7526780226 4.5504949482
1895 1 19.3819 10.714 12.3371 12 11.3165881895 1.7732525975 4.3262491491
1896 1 17.6523 12.369 12.3586 12 10.9561000455 1.7536017954 3.0179378353
1897 1 21.143 10.5374 10.5802 12 11.0459088498 1.7635341037 5.6581105449
1898 1 22.9419 12.3433 10.566 12 11.1244300589 1.7526780226 4.8279977714
1899 1 22.8889 10.6525 12.2745 12 11.2648508988 1.7732525975 4.7657874918
1900 1 21.1208 12.3579 12.4399 12 10.8762455488 1.766337789 3.0587508716
1901 1 24.826 10.695 10.4581 12 11.2543579623 1.7651018282 6.6048815914
1902 1 26.6454 12.4034 10.5991 12 11.111139023 1.7825153496 6.8139553021
1903 1 26.58 10.6372 12.3874 12 11.2186400714 1.7651018282 6.775772507
1904 1 24.8081 12.3613 12.3117 12 10.9067574786 1.7651018282 4.6496012452
1905 1 28.3078 10.6542 10.4836 12 11.143713985 1.7728990374 8.8978785319
1906 1 30.0223 12.5209 10.5588 12 10.9554829197 1.7728990374 9.3798942076
1907 1 30.0345 10.6026 12.4052 12 10.9665442111 1.7728990374 9.3551800076
1908 1 28.3127 12.4019 12.3576 12 11.0263038373 1.755172739 7.2459842085
1909 1 31.8429 10.6842 10.6473 12 11.1120795443 1.7728990374 11.5247013874
1910 1 33.6446 12.3785 10.6143 12 11.0882702027 1.7486838703 12.5943094882
1911 1 33.7086 10.6286 12.3763 12 10.8501773 1.7536895253 12.5517060768
1912 1 31.797 12.4406 12.2959 12 11.117049248 1.7483221179 10.3297257539
1913 1 35.2446 10.5693 10.5066 12 10.9247720883 1.7330975842 14.5463348717
1914 1 36.9715 12.3437 10.6611 12 11.0430626521 1.7406367249 15.6029467398
1915 1 37.0547 10.5674 12.2434 12 11.1096357523 1.7543976461 15.6924622413
1916 1 35.2841 12.383 12.307 12 10.6684272449 1.7483221179 13.5487339893
1917 1 38.8931 10.5753 10.5861 12 10.6854377598 1.7496760068 17.8324604505
1918 1 40.6901 12.3618 10.6542 12 10.8358524875 1.7687205801 16.3854349122
1919 1 40.5446 10.6296 12.3897 12 11.1932020599 1.7833774187 16.3072709207
1920 1 38.869 12.2614 12.2968 12 11.1829389765 1.7745537077 16.9376572057
1921 1 42.3585 14.1451 10.6356 12 10.8190886245 1.7580975292 14.4711396033
1922 1 1.78513 15.8985 10.5834 12 10.9151475635 1.7616247286 12.5542349444
1923 1 1.69826 14.1739 12.3422 12 10.7707592959 1.7255444136 12.2255582945
1924 1 42.361 15.8215 12.4377 12 11.1639334735 1.7616247286 13.4654753619
1925 1 3.4594 14.1322 10.5718 12 10.5343841445 1.7489226345 11.5630837556
1926 1 5.36199 15.8398 10.5946 12 10.7102296631 1.7477003969 9.6659832477
1927 1 5.25672 14.2227 12.2878 12 10.869807464 1.7758678978 9.2211632242
1928 1 3.55546 15.9031 12.4268 12 10.9996109399 1.7492498161 10.1529573087
1929 1 6.93149 14.0818 10.4903 12 11.1892270186 1.7758678978 8.8523505432
1930 1 8.76943 15.8019 10.7466 12 11.3742218785 1.7842882752 6.9508509541
1931 1 8.79265 13.965 12.4114 12 11.3170529633 1.7758678978 6.3559172
1932 1 7.10247 15.8661 12.4825 12 10.8653291386 1.7758678978 7.1728373839
1933 1 10.6348 14.1413 10.5803 12 11.1285223421 1.7509621657 6.2748439008
1934 1 12.3337 15.9833 10.5169 12 11.0842716291 1.755770997 4.6885016759
1935 1 12.3113 14.201 12.355 12 10.7999021425 1.7454019894 4.0233160669
1936 1 10.4998 15.8008 12.3905 12 10.8776600988 1.7376226857 4.6146657406
1937 1 13.9888 14.1944 10.6003 12 10.9428786271 1.7455732209 4.3455179583
1938 1 15.7844 15.7926 10.5552 12 11.4286552728 1.7710625968 2.8542195997
1939 1 15.832 14.1304 12.4544 12 11.041102012 1.7536430169 2.318308419
1940 1 14.0875 15.8415 12.4144 12 10.9254336163 1.7429239497 2.3206055987
1941 1 17.6158 14.0793 10.6764 12 10.864475765 1.7543135214 3.3908729513
1942 1 19.2906 15.8126 10.6268 12 11.1019463785 1.7775750126 2.6662006888
1943 1 19.3162 14.0372 12.4227 12 10.9074804891 1.7466619495 2.1300140885
1944 1 17.6736 15.9143 12.3103 11 11.8783885515 2.3881256812 0.949645793
1945 1 21.2488 14.0632 10.5974 12 11.0689856362 1.7775750126 3.8129777251
1946 1 22.8699 15.828 10.6359 12 11.2247631409 1.8085958221 3.8563413317
1947 1 22.9183 14.1441 12.3483 12 10.8556603838 1.7482052942 2.6530127656
1948 1 21.1272 15.8166 12.3722 12 11.3444771273 1.7766565771 1.7231875237
1949 1 24.7555 13.9942 10.6178 12 11.2756643896 1.8085958221 4.9710093871
1950 1 26.4934 15.9777 10.6909 12 11.475479693 1.8085655523 5.7812017899
1951 1 26.4877 14.1647 12.3867 12 11.1380334884 1.7825153496 5.0831531483
1952 1 24.7017 15.8457 12.4428 12 11.3368408071 1.8085958221 3.2809589941
1953 1 28.3556 14.1787 10.6129 12 10.8922881481 1.7825153496 7.4908411598
1954 1 30.1379 15.9452 10.6394 12 11.2638813649 1.7890655243 8.8217200175
1955 1 30.0187 14.1956 12.2954 12 10.7808117041 1.7596734794 8.2819754432
1956 1 28.2765 15.9073 12.4704 12 11.12471698 1.7659640097 6.3152607947
1957 1 31.9421 14.13 10.6032 12 10.6911383332 1.7322034783 10.6571001254
1958 1 33.5539 15.821 10.6001 12 10.8432846964 1.7362426811 11.8313272863
1959 1 33.6154 14.212 12.4687 12 10.9064946735 1.7483221179 11.4900351344
1960 1 31.9088 15.7884 12.4406 12 10.8587437682 1.7346716826 9.5987236586
1961 1 35.3602 14.2195 10.5938 12 10.9674043988 1.7421497018 13.7185104277
1962 1 37.1239 15.8746 10.6699 12 10.927296441 1.7599441719 15.0544131345
1963 1 37.0904 14.1952 12.3664 12 11.0864497734 1.7555272749 14.7701427269
1964 1 35.4364 15.976 12.3565 12 11.0372340194 1.7406010707 12.9215024236
1965 1 38.8996 14.0651 10.6743 12 11.0553444387 1.7599441719 16.9650209635
1966 1 40.6321 15.8925 10.6035 12 11.0470333189 1.760123495 15.7171425761
1967 1 40.578 14.1691 12.4594 12 11.0987259676 1.7688829581 15.4141362968
1968 1 38.7908 15.997 12.5108 12 11.3430453123 1.7599441719 16.1244666587
1969 1 0.0244996 17.728 10.5666 12 11.1347790377 1.7616247286 13.9872019386
1970 1 1.74661 19.4018 10.5418 12 11.1724581193 1.7541846592 12.6014666017
1971 1 1.70678 17.6105 12.3529 12 10.9723260808 1.7541846592 11.7150742844
1972 1 0.0656443 19.3725 12.4593 12 10.9084824869 1.7417710766 13.3189760395
1973 1 3.59872 17.6432 10.5533 12 11.106269381 1.7541846592 10.9140036506
1974 1 5.32866 19.4987 10.7101 12 10.9157215044 1.7485814175 9.4995102051
1975 1 5.39419 17.5882 12.2967 12 10.9734252138 1.741324915 8.4531231303
1976 1 3.52931 19.2688 12.3531 12 11.1239533734 1.7485814175 10.1791051231
1977 1 7.09666 17.6319 10.6929 12 11.0874115306 1.7483694116 8.1130942338
1978 1 8.81111 19.4272 10.5851 12 11.0363361326 1.7483694116 6.8226092895
1979 1 8.86469 17.531 12.4352 12 11.048261702 1.7628533674 5.6555887852
1980 1 7.14623 19.3606 12.4905 12 10.9584463713 1.7520098024 7.0109656047
1981 1 10.4748 17.5953 10.4807 12 11.2537857333 1.7352452713 5.5829515409
1982 1 12.3911 19.3833 10.7131 12 11.21654772 1.7671053991 4.406929482
1983 1 12.2953 17.6667 12.3522 12 11.306241734 1.7376226857 2.9741016149
1984 1 10.5278 19.4615 12.4439 12 11.1451615918 1.7336459535 4.3063270139
1985 1 14.1305 17.6763 10.6049 12 11.2014111635 1.7710625968 3.1904826308
1986 1 15.9309 19.3821 10.5997 12 10.7839524025 1.7690227212 2.6674078723
1987 1 15.9172 17.5898 12.3747 11 11.8941903985 2.3809904747 0.6951598635
1988 1 14.1246 19.4307 12.3292 12 10.8515766452 1.7528761471 2.1078225323
1989 1 17.6634 17.6343 10.4885 12 11.1182363562 1.7710625968 2.1257604465
1990 1 19.4475 19.3763 10.5835 12 11.1885473251 1.7779470574 2.6900715783
1991 1 19.3498 17.6594 12.4029 11 12.1816126617 2.4795046676 0.7371009768
1992 1 17.6255 19.2989 12.4159 11 11.8275598253 2.4758075292 0.7852270916
1993 1 21.0985 17.6 10.5666 12 11.2959424424 1.7775750126 3.2477328907
1994 1 22.9212 19.3713 10.5318 12 11.0966963125 1.7643500267 3.9230903891
1995 1 22.8835 17.6356 12.3364 12 11.3756155216 1.7692756945 2.1576579159
1996 1 21.1941 19.4027 12.3495 12 11.17658221 1.7688151968 1.6713435333
1997 1 24.6884 17.6536 10.5445 12 11.5379393407 1.8078707138 4.6720190006
1998 1 26.494 19.5333 10.6016 12 11.3100904715 1.7801009372 5.7699218978
1999 1 26.5724 17.6569 12.46 12 11.3079826803 1.7801009372 4.7859084707
2000 1 24.7731 19.2968 12.4198 12 11.3359884989 1.7704645492 3.2756742083
2001 1 28.3392 17.6988 10.5727 12 11.5095573839 1.7911664899 7.3205886677
2002 1 30.0799 19.5809 10.6197 12 11.0901602623 1.7911664899 8.5349208733
2003 1 30.0828 17.6853 12.4626 12 11.0100640812 1.7911664899 7.784753748
2004 1 28.3991 19.4201 12.4024 12 11.0117895362 1.7721916273 6.2168163173
2005 1 31.9129 17.6912 10.7185 12 11.3717174606 1.7911664899 10.1933880993
2006 1 33.5692 19.516 10.5439 12 11.0569373724 1.7556261655 11.6983203533
2007 1 33.6477 17.6731 12.4208 12 10.9952778622 1.7381218755 11.1364686501
2008 1 31.8001 19.436 12.4121 12 10.7104221115 1.7506341418 9.4047897183
2009 1 35.3134 17.6559 10.5017 12 11.1459156275 1.7540076145 13.3635016423
2010 1 37.0713 19.4322 10.5896 12 11.142170943 1.7630878993 14.9785558721
2011 1 37.1137 17.784 12.3678 12 11.3119044969 1.7528418439 14.4865636964
2012 1 35.3133 19.4403 12.3786 12 11.1608347179 1.7556261655 12.7997409078
2013 1 38.9376 17.6799 10.5664 12 11.241273993 1.7630878993 16.7401714106
2014 1 40.6475 19.4197 10.6307 12 11.0420618686 1.7612402602 15.6885158383
2015 1 40.6796 17.6566 12.3852 12 11.1692169463 1.7561256928 14.9515990674
2016 1 38.9609 19.4794 12.4174 12 10.9755204756 1.7630878993 16.3122730938
2017 1 0.0876619 21.1715 10.5975 12 11.0291765995 1.7570236291 14.2928084949
2018 1 1.71343 22.9077 10.6762 12 10.6288154532 1.7663502516 13.2075399441
2019 1 1.80562 21.1793 12.3062 12 10.8788143198 1.7552558969 12.0165920794
2020 1 42.3642 22.9339 12.3106 12 10.7493135566 1.7371525336 14.0256798901
2021 1 3.53974 21.2114 10.6789 12 11.1315631366 1.7485814175 11.2851248897
2022 1 5.29305 22.946 10.6379 12 11.1213858209 1.7926730689 10.1894272269
2023 1 5.30335 21.0642 12.4346 12 11.0803248152 1.7547400889 8.9009752553
2024 1 3.46921 23.0006 12.4221 12 10.6598683574 1.7489141291 10.9421596545
2025 1 7.00535 21.1314 10.5675 12 11.1637325306 1.7571725928 8.417489634
2026 1 8.70563 22.9377 10.6092 12 11.3679073696 1.7577476291 7.3657956314
2027 1 8.79756 21.1178 12.4573 12 10.9281437644 1.7569181945 5.932613005
2028 1 6.99667 22.9458 12.3352 12 11.0474363182 1.7554689902 8.0058496744
2029 1 10.4873 21.2569 10.7393 12 11.1703106805 1.7671053991 5.7607824636
2030 1 12.2571 22.8879 10.6725 12 11.2895765425 1.7671053991 5.0560125268
2031 1 12.4278 21.1415 12.5589 12 10.7224899826 1.7595239467 3.1248694824
2032 1 10.5977 22.8643 12.4855 12 11.2534892864 1.7577476291 4.8021768603
2033 1 14.1597 21.0783 10.6664 12 10.7915962863 1.7654348243 3.7383144456
2034 1 15.9003 22.8234 10.7568 12 11.1390264241 1.7678048952 3.6928481336
2035 1 15.8272 21.1587 12.4129 12 10.8764217383 1.7555156008 1.6653445213
2036 1 14.029 22.9138 12.3755 12 11.175769103 1.7446458224 2.7894317096
2037 1 17.6088 21.0289 10.6006 12 10.9340696295 1.7589616823 3.2256215596
2038 1 19.3046 22.8337 10.6664 12 11.1047090669 1.7583944128 3.8671938024
2039 1 19.3311 21.1088 12.2989 12 10.880997433 1.7667746085 1.7239278694
2040 1 17.6655 22.9138 12.4055 12 10.7758291576 1.7538045305 2.0742512516
2041 1 21.1281 21.2016 10.5429 12 11.0301619885 1.7687740151 3.6318335881
2042 1 22.9556 22.9367 10.7283 12 10.8922954316 1.7346041735 4.4661044909
2043 1 22.9875 21.0387 12.2905 12 11.2773588523 1.7688151968 2.6054176912
2044 1 21.0711 22.932 12.3661 12 11.0404122872 1.7688151968 2.6638462025
2045 1 24.6932 21.0835 10.5547 12 10.9408241744 1.7412549701 4.9615899945
2046 1 26.5703 22.8182 10.6475 12 11.3051928677 1.7775786522 6.4873448415
2047 1 26.5346 21.2268 12.4488 12 10.9780939924 1.7715383087 4.8215106545
2048 1 24.7595 22.7699 12.4009 12 10.8336225733 1.7463058218 4.0879202094
2049 1 28.3044 21.1669 10.7339 12 10.9822016298 1.7418431428 7.1743023724
2050 1 30.0061 23.014 10.6101 12 11.2175850106 1.7512492837 9.041876375
2051 1 30.1428 21.1111 12.447 12 10.6937312042 1.7512492837 7.9627033791
2052 1 28.3084 22.997 12.4341 12 11.2405309193 1.7499898084 6.6975423229
2053 1 31.8011 21.2599 10.6835 12 10.7867944374 1.7732349138 10.1626727736
2054 1 33.6184 22.9291 10.713 12 11.0462142011 1.7699396077 12.0934696849
2055 1 33.6083 21.033 12.4102 12 10.8488305141 1.718510112 11.2408524531
2056 1 31.9041 22.8611 12.3676 12 11.0308724977 1.7512492837 9.916382156
2057 1 35.4092 21.3272 10.5923 12 10.8076531928 1.7556261655 13.5144696799
2058 1 37.2091 22.9604 10.6326 12 10.7386628331 1.764199337 15.4410862403
2059 1 37.1701 21.2272 12.3708 12 11.1469263386 1.7639554438 14.6783380635
2060 1 35.3336 22.8226 12.3756 12 11.0216344106 1.7631820488 13.1463011387
2061 1 38.8997 21.1978 10.5881 12 10.7524407365 1.7630878993 16.8160098785
2062 1 40.6373 22.9345 10.6094 12 10.7999203212 1.7377437535 16.2361225786
2063 1 40.5891 21.1758 12.3469 12 10.6603252423 1.734230725 15.3364978863
2064 1 38.9353 22.9957 12.3247 12 10.9739330494 1.764199337 16.6039866138
2065 1 0.0615156 24.6789 10.673 12 10.8258147133 1.755046901 15.1108768293
2066 1 1.73711 26.5504 10.759 12 11.2775112763 1.7716177112 14.3249732748
2067 1 1.78362 24.6351 12.3258 12 10.9621647722 1.7633996837 12.9687008381
2068 1 42.358 26.4851 12.4285 12 10.8970329462 1.7542489945 15.2522850094
2069 1 3.55366 24.5766 10.6161 12 11.0835142626 1.7716177112 12.1325595825
2070 1 5.25463 26.4198 10.615 12 11.4006952858 1.7778600615 11.3325447276
2071 1 5.19145 24.6375 12.4647 12 10.9254943374 1.7458168205 10.0907883098
2072 1 3.62034 26.5099 12.3906 12 11.1902856882 1.7679152721 12.1985711797
2073 1 7.01019 24.6591 10.5572 12 10.9748133075 1.7379808571 9.2327689621
2074 1 8.82235 26.3958 10.6888 12 11.2317649904 1.7535290779 8.6622984223
2075 1 8.80045 24.7358 12.4456 12 11.1470683676 1.7577476291 7.0171677279
2076 1 7.05895 26.4103 12.3775 12 11.1070569092 1.7505333964 9.2838549485
2077 1 10.6201 24.7163 10.619 12 11.2232689042 1.7559433566 6.6915646377
2078 1 12.2618 26.4263 10.7244 12 10.8412579307 1.7496437789 6.6719709796
2079 1 12.3002 24.7478 12.4424 12 11.166312451 1.7684309323 4.6663688681
2080 1 10.5486 26.4441 12.5226 12 10.9274568662 1.7539369701 6.6889631225
2081 1 14.0612 24.7845 10.7609 12 11.457490677 1.7833139377 4.8497907246
2082 1 15.8245 26.4595 10.6491 12 11.1580867562 1.7715350784 5.7590102658
2083 1 15.9391 24.7246 12.4357 12 10.9746462415 1.766112186 3.2774945634
2084 1 14.1394 26.62 12.4973 12 11.0698305451 1.7662890726 5.1140717441
2085 1 17.5727 24.7285 10.6149 12 11.2188832714 1.7678048952 4.6021060618
2086 1 19.4552 26.5394 10.5832 12 11.0151413103 1.7651534382 5.9506394042
2087 1 19.4395 24.6702 12.3638 12 10.981082077 1.7493467261 3.3701430568
2088 1 17.719 26.418 12.2915 12 10.9315954915 1.7683767219 4.6704451692
2089 1 21.1118 24.6611 10.6406 12 11.0114659892 1.7651534382 5.0010336487
2090 1 22.9756 26.3327 10.6114 12 11.2165995905 1.8047069881 6.6479576796
2091 1 22.9147 24.6016 12.3899 12 10.8236660581 1.7494040841 4.3024342832
2092 1 21.1799 26.5241 12.3346 12 11.2370662993 1.7834549788 5.1168867553
2093 1 24.6544 24.6685 10.711 12 11.0850135553 1.7982918338 6.1425755948
2094 1 26.4036 26.4047 10.5257 12 11.1241964198 1.7858181444 8.0852079363
2095 1 26.3226 24.7062 12.3321 12 11.2031937179 1.7805058839 5.9469124759
2096 1 24.6439 26.4866 12.3515 12 10.9147517593 1.7860909325 6.2622547
2097 1 28.2823 24.6583 10.5871 12 11.100860387 1.7775786522 8.2440930538
2098 1 29.9345 26.5304 10.6055 12 10.8904693024 1.7373803839 10.2309646948
2099 1 30.074 24.7692 12.404 12 10.9323577597 1.7461492108 8.7637462532
2100 1 28.2018 26.4152 12.266 12 11.1979012547 1.7860909325 8.1986879465
2101 1 31.8395 24.8136 10.76 12 11.1911623223 1.7699396077 10.948094151
2102 1 33.7137 26.4872 10.6234 12 10.7446530912 1.7696519968 13.1628877945
2103 1 33.6902 24.7782 12.3762 12 11.033458053 1.7699396077 11.9871112321
2104 1 31.8868 26.539 12.3796 12 10.7147655789 1.7292424169 11.0486707999
2105 1 35.4164 24.7288 10.6042 12 10.8725912948 1.76859033 14.1159947222
2106 1 37.1211 26.4641 10.6123 12 11.0218932201 1.7689448067 16.1254211854
2107 1 37.1012 24.7984 12.3427 12 11.0075914385 1.764199337 15.1947924187
2108 1 35.3255 26.4812 12.4606 12 10.8871996565 1.7651337372 14.0066541432
2109 1 38.8672 24.6969 10.5494 12 10.8578727663 1.7510818955 17.3062882602
2110 1 40.6251 26.5073 10.6755 12 10.9541089281 1.755046901 17.3298460187
2111 1 40.6554 24.7708 12.252 12 10.8583143319 1.7528023029 16.100457185
2112 1 38.8737 26.4955 12.3035 12 10.9085027367 1.7535059275 17.3143066924
2113 1 0.00717602 28.1833 10.7039 12 10.9094774795 1.755046901 16.4916814722
2114 1 1.6852 29.9734 10.6151 12 11.0923040747 1.7775372112 15.9667445415
2115 1 1.80295 28.3104 12.3772 12 11.0478012786 1.7354072964 14.5518230902
2116 1 0.00339215 30.1336 12.4197 12 10.9347213589 1.7651092644 16.9242778274
2117 1 3.57876 28.2312 10.5396 12 11.2025157069 1.7778600615 13.5689678038
2118 1 5.30691 30.0449 10.5695 12 11.1281696863 1.7853072788 13.2522504486
2119 1 5.32387 28.3209 12.323 12 11.1223668731 1.7759675102 11.7073937214
2120 1 3.55868 29.9652 12.3909 12 11.2488430614 1.7775372112 13.982527267
2121 1 7.12767 28.2226 10.6315 12 11.4580174262 1.7853072788 10.888290934
2122 1 8.87587 30.0596 10.5282 12 11.1887148312 1.7853072788 10.947357806
2123 1 8.86011 28.1893 12.4908 12 11.051259427 1.7543656826 8.8920684991
2124 1 7.12887 30.0311 12.3529 12 11.0723466476 1.7853072788 11.3110304913
2125 1 10.6259 28.1979 10.7077 12 10.9922532542 1.7550681241 8.6870174687
2126 1 12.2849 29.9553 10.5672 12 10.6998043139 1.736301927 9.3437030947
2127 1 12.3894 28.3227 12.4168 12 10.9665045902 1.7539369701 7.0804977235
2128 1 10.4965 29.996 12.2718 12 10.8881581412 1.7523261753 9.2890158676
2129 1 14.0973 28.2633 10.6463 12 10.9480867865 1.7713852983 7.4013252786
2130 1 15.9323 29.9913 10.5285 12 11.1172618523 1.7715350784 8.6208426794
2131 1 15.9322 28.316 12.4697 12 11.0486008375 1.7715350784 6.1947209166
2132 1 14.2259 30.0203 12.3145 12 11.1033109515 1.7687208941 8.1065780703
2133 1 17.6773 28.1971 10.6065 12 11.1224595885 1.7715350784 7.1171586991
2134 1 19.3511 30.0388 10.5025 12 11.014182423 1.7535981434 8.7598903031
2135 1 19.4214 28.2215 12.3595 12 10.9975682004 1.7535981434 6.2959881126
2136 1 17.6953 30.0213 12.3528 12 11.0150891903 1.7472391739 7.6896781086
2137 1 21.2195 28.2021 10.4643 12 11.1006659152 1.7650895927 7.4998661625
2138 1 23.0435 29.9086 10.5411 12 10.8495328194 1.7725653224 9.2624279026
2139 1 22.9825 28.2698 12.3396 12 11.0767817925 1.7725008327 6.9489845053
2140 1 21.1582 29.9384 12.2509 12 11.341113245 1.7725653224 8.1243157752
2141 1 24.7151 28.2553 10.5494 12 10.9438052593 1.7562131277 8.5843449641
2142 1 26.512 30.068 10.4933 12 10.7598102645 1.740498133 10.632966785
2143 1 26.4012 28.3824 12.3237 12 11.4573973707 1.7860909325 8.4910193102
2144 1 24.7346 30.1026 12.3332 12 11.0087597718 1.8046719118 8.9938649291
2145 1 28.1932 28.3055 10.5385 12 11.1228406431 1.7450634077 10.2155821758
2146 1 30.0505 30.0037 10.536 12 11.0343144072 1.7665120183 12.434331884
2147 1 30.0045 28.1392 12.2842 12 10.9071495562 1.7673169958 10.5107787931
2148 1 28.3269 30.0284 12.2386 12 10.9394427792 1.7673169958 10.8136211954
2149 1 31.834 28.169 10.5994 12 10.8919607216 1.7687266408 12.4646341324
2150 1 33.6003 29.9912 10.579 12 10.9298204224 1.7382496842 14.7978126604
2151 1 33.6028 28.2717 12.2714 12 10.8499553214 1.7640606649 13.3457938179
2152 1 31.8464 30.0654 12.2514 12 11.067857996 1.7673169958 13.0651418938
2153 1 35.3558 28.2984 10.5211 12 11.1280388527 1.7689448067 15.3264598137
2154 1 37.2105 30.0705 10.698 12 11.2523591442 1.7864569775 17.6383791156
2155 1 37.1708 28.23 12.4129 12 11.1560890247 1.7689448067 16.3511599012
2156 1 35.4097 30.0959 12.3252 12 10.9300905282 1.7647751257 15.7745545713
2157 1 38.8855 28.2841 10.5628 12 11.3633905538 1.7689448067 18.3386511947
2158 1 40.7888 29.9707 10.6417 12 11.335958046 1.7860612832 18.6917014051
2159 1 40.6452 28.2497 12.5164 12 11.0744610407 1.7456393769 17.4738919557
2160 1 38.9419 30.0196 12.4733 12 10.9235585904 1.7456393769 18.6825854537
2161 1 0.0232393 31.782 10.4898 12 11.0616979306 1.7906299865 18.2974616861
2162 1 1.74351 33.591 10.6686 12 11.0812947614 1.7762538133 17.9227802169
2163 1 1.63588 31.7454 12.3324 12 11.3245592813 1.7844349395 16.5079849635
2164 1 42.266 33.5557 12.4948 12 11.1910738495 1.7646046128 18.92566759
2165 1 3.57377 31.8651 10.5628 12 11.0895903444 1.7775372112 15.5714666642
2166 1 5.36574 33.5329 10.6561 12 10.7443018794 1.7470031733 15.3993267609
2167 1 5.35869 31.7518 12.2835 12 10.7013680404 1.7469179365 13.6995699081
2168 1 3.51753 33.4023 12.3896 12 11.0798132763 1.7613751209 16.077923319
2169 1 7.05717 31.7985 10.62 12 10.9593956759 1.7851199352 13.1586534364
2170 1 8.83732 33.5393 10.5986 12 11.0724194187 1.765055707 13.5277225838
2171 1 8.85169 31.842 12.368 12 10.8610855384 1.7527579959 11.5561425843
2172 1 7.05223 33.4902 12.4541 12 10.9002708271 1.7612412518 13.8288966846
2173 1 10.6315 31.8018 10.6971 12 10.9113551216 1.7664556005 11.3302746127
2174 1 12.4203 33.6004 10.5762 12 11.1613349268 1.7664556005 12.3775061137
2175 1 12.3263 31.7567 12.3146 12 11.4719336761 1.7635389523 10.0832856337
2176 1 10.507 33.5462 12.4478 12 11.0315058604 1.7635389523 12.2261722155
2177 1 14.1932 31.7201 10.6026 12 11.3960205149 1.7793459051 10.3558453227
2178 1 15.9421 33.5464 10.5589 12 10.9569215544 1.7635908341 11.6716803
2179 1 15.9991 31.8587 12.3314 12 10.9026038922 1.7410118248 9.4409835878
2180 1 14.1337 33.6808 12.3443 12 10.8677479324 1.7635908341 11.4713642957
2181 1 17.6598 31.8507 10.6399 12 10.8160836112 1.7366924105 10.0837515422
2182 1 19.5235 33.6272 10.6145 12 11.0558078811 1.7384305648 11.8977582106
2183 1 19.4941 31.7964 12.2275 12 10.9867648658 1.7471343803 9.6203344418
2184 1 17.7268 33.5923 12.373 12 10.6212874628 1.7464613268 11.0354102388
2185 1 21.2908 31.8585 10.5716 12 10.8070674333 1.7489787191 10.5639054178
2186 1 23.0248 33.5495 10.5559 12 10.5155171261 1.7395855144 12.322942639
2187 1 23.0616 31.8105 12.2892 12 11.0640063226 1.7725653224 10.044468994
2188 1 21.24 33.5663 12.3012 12 10.9053602413 1.7623345301 11.4527372279
2189 1 24.7121 31.8097 10.5281 12 10.7399540384 1.7481956713 11.2255157066
2190 1 26.3221 33.6622 10.5297 12 10.9038862479 1.77040345 13.2882761397
2191 1 26.476 31.806 12.2855 12 10.9193708636 1.746527552 11.1437391595
2192 1 24.712 33.7001 12.3328 12 10.5807526963 1.7441740981 12.1207277226
2193 1 28.1422 31.743 10.5819 12 10.8220378881 1.77040345 12.610514162
2194 1 29.9911 33.6074 10.5977 12 10.9416753496 1.7629030006 14.9853013732
2195 1 29.965 31.7859 12.2372 12 10.9512889648 1.7618997355 13.0920635277
2196 1 28.1922 33.5158 12.2766 12 10.9168143898 1.77040345 13.3730440159
2197 1 31.8325 31.8622 10.6077 12 10.9857382127 1.7477437732 14.7888363229
2198 1 33.5248 33.5966 10.6901 12 10.9423803971 1.7732264306 17.0580436599
2199 1 33.64 31.8113 12.3046 12 10.9019109811 1.761364707 15.4792052189
2200 1 31.7131 33.5223 12.3943 12 10.6433003147 1.725090294 15.4127636048
2201 1 35.3866 31.866 10.544 12 11.0218167154 1.764557943 17.2400289504
2202 1 37.1748 33.521 10.5366 12 10.9620944842 1.7751814258 19.5775460518
2203 1 37.2452 31.7268 12.4421 12 10.9197599883 1.7751814258 18.1396099888
2204 1 35.379 33.6592 12.3579 12 11.2918383408 1.7751814258 17.9270362305
2205 1 38.8799 31.7061 10.5659 12 11.3127364106 1.7906299865 19.8682481811
2206 1 40.6544 33.6639 10.5904 12 11.2608235727 1.7906299865 20.7106374116
2207 1 40.6658 31.7745 12.4186 12 11.2502564014 1.7906299865 19.2037946314
2208 1 38.916 33.6234 12.2744 12 11.3806077927 1.7751814258 20.5861550327
2209 1 42.3088 35.244 10.5352 12 10.7623333527 1.7495298367 20.3484598332
2210 1 1.72386 37.025 10.7072 12 10.7154675283 1.7614313941 20.1998870716
2211 1 1.63578 35.2707 12.3614 12 11.122041936 1.7645957014 18.6815596335
2212 1 0.0257695 37.0347 12.2922 12 10.8349095437 1.7582150832 21.0388341275
2213 1 3.43339 35.256 10.7128 12 10.8550933167 1.7442678909 17.8295275645
2214 1 5.27099 37.006 10.7013 12 10.9824555691 1.7568825562 18.0530731755
2215 1 5.31642 35.2487 12.4096 12 11.1660784095 1.7568825562 16.2249700115
2216 1 3.59787 36.9966 12.4563 12 11.2029746157 1.7614313941 18.6053125297
2217 1 7.04499 35.2803 10.6743 12 10.9224323561 1.749434527 15.7593527473
2218 1 8.76491 37.0461 10.641 12 11.070539901 1.7740702064 16.4885169706
2219 1 8.74908 35.2986 12.468 12 10.8667496378 1.7431254011 14.469960998
2220 1 7.1103 37.1142 12.4329 12 10.8054966254 1.7568825562 16.7898307473
2221 1 10.5297 35.3157 10.69 12 11.2382919062 1.7736952477 14.3441808977
2222 1 12.3357 37.0971 10.6186 12 11.1372211468 1.7923431892 15.5406356205
2223 1 12.3396 35.3346 12.3553 12 10.8193190638 1.7607470778 13.3799605613
2224 1 10.55 37.0586 12.3773 12 10.8420079335 1.7741335608 15.4336227833
2225 1 14.0359 35.3517 10.6844 12 10.8534997435 1.7614070784 13.5702301855
2226 1 15.8045 37.0891 10.6401 12 11.2397819002 1.7415792033 14.9291917426
2227 1 15.9038 35.2331 12.3039 12 10.857170117 1.7718761873 12.670361739
2228 1 14.0886 37.2366 12.3776 12 10.9206788636 1.7358527056 14.8503509303
2229 1 17.6488 35.2897 10.7144 12 11.0685496559 1.7725307126 13.171885436
2230 1 19.4271 37.0735 10.5882 12 11.1396853731 1.7551698768 15.0578046589
2231 1 19.5551 35.3526 12.3956 12 10.8073231932 1.7565319847 12.8726304961
2232 1 17.7209 37.0626 12.3029 12 11.1689560291 1.7568952221 14.4078833391
2233 1 21.3117 35.328 10.6864 12 10.7005831676 1.7384305648 13.6923156043
2234 1 22.8715 37.0867 10.5804 12 10.7540526976 1.7495176067 15.503962653
2235 1 23.0271 35.3759 12.3796 12 10.72260196 1.7503440073 13.3303948279
2236 1 21.2287 37.0926 12.3798 12 10.8872303254 1.7645177817 14.7145745393
2237 1 24.6908 35.2379 10.5299 12 10.6435534065 1.7495176067 14.1432337427
2238 1 26.4261 37.085 10.4365 12 11.2325485159 1.7685797874 16.2914364837
2239 1 26.3919 35.3357 12.3185 12 10.9080796809 1.743230382 14.1344651452
2240 1 24.7252 37.0353 12.317 12 11.1802016579 1.755986359 15.2181293999
2241 1 28.1935 35.3385 10.6433 12 11.1867792795 1.7695024411 15.3937693436
2242 1 30.0207 37.1336 10.554 12 11.2332172137 1.7635818367 17.7451599861
2243 1 29.9072 35.2886 12.2896 12 10.9137893545 1.7746466748 15.7042073052
2244 1 28.1358 37.1373 12.3344 12 11.0971261043 1.7490844501 16.4025991106
2245 1 31.7165 35.3072 10.6716 12 10.875746922 1.7574526003 17.2187751652
2246 1 33.5082 37.1094 10.6693 12 11.0455087901 1.7491996042 19.6350472878
2247 1 33.5202 35.3304 12.3368 12 10.9704648685 1.7326285044 17.8823365425
2248 1 31.7399 36.986 12.465 12 10.9572753424 1.7491996042 18.0448864121
2249 1 35.4438 35.2942 10.5323 12 11.1094309757 1.7337252745 19.5483591521
2250 1 37.0846 37.1888 10.6299 12 11.1446179839 1.746295409 21.9447147156
2251 1 37.1904 35.3789 12.4692 12 11.0204776712 1.7693993215 20.3282932104
2252 1 35.3488 37.1129 12.2992 12 11.1435742268 1.7572302368 20.3435181314
2253 1 38.8637 35.4891 10.5319 12 11.1079107752 1.7344815884 22.0606030077
2254 1 40.6509 37.2221 10.6198 12 10.8571373453 1.733585121 22.7956254253
2255 1 40.6336 35.4213 12.3545 12 11.0079470728 1.733585121 21.3409004074
2256 1 38.8465 37.1604 12.343 12 11.0099467414 1.7659952199 22.7168085117
2257 1 0.0819533 38.8683 10.6094 12 11.0662189231 1.7658864489 22.6187897419
2258 1 1.83789 40.6025 10.4602 12 11.3865353755 1.7660998424 21.0856508663
2259 1 1.73786 38.8421 12.3753 12 11.0318806749 1.7614313941 21.1855166523
2260 1 0.0358381 40.699 12.2873 12 11.1821155543 1.7660998424 21.5358176295
2261 1 3.55305 38.7457 10.7102 12 11.1550744446 1.7687173916 20.3732194637
2262 1 5.2867 40.6783 10.7667 12 11.0395118262 1.7431007116 19.1355133743
2263 1 5.21596 38.7539 12.5357 12 11.0146553465 1.7568825562 19.0975284669
2264 1 3.40309 40.6835 12.3776 12 11.2202512386 1.7392076832 19.4895539111
2265 1 7.0257 38.8882 10.7941 12 10.9378622503 1.7533860501 18.7440179497
2266 1 8.84373 40.4928 10.5939 12 10.8529802918 1.7424646686 17.7480763307
2267 1 8.85421 38.7507 12.2969 12 10.5618440306 1.7416398931 17.5568054258
2268 1 7.04471 40.6047 12.3622 12 10.7315493407 1.7464588573 17.7460448128
2269 1 10.6287 38.8717 10.6085 12 10.8865499233 1.7741335608 17.5551600455
2270 1 12.275 40.6317 10.5829 12 10.6857037157 1.7312413036 16.4750349477
2271 1 12.3363 38.93 12.3169 12 10.9342323554 1.7434949149 16.8200399476
2272 1 10.5742 40.6775 12.3101 12 10.735897655 1.7424646686 16.2660213805
2273 1 14.0756 38.8923 10.5082 12 11.0658802289 1.7421280379 16.8978344517
2274 1 15.9762 40.6154 10.6286 12 10.7562409655 1.7759340761 15.7048555413
2275 1 15.8328 38.9216 12.3271 12 10.9228161353 1.7538711273 16.255542585
2276 1 14.196 40.6532 12.3247 12 11.0224295961 1.7515602282 15.3787237612
2277 1 17.6727 38.9086 10.6531 12 10.9742971513 1.7417022727 16.6131200026
2278 1 19.3094 40.5467 10.6523 12 10.9896749591 1.7700431979 15.7587380281
2279 1 19.4822 38.8816 12.4544 12 10.8734385577 1.7661553305 16.2214527187
2280 1 17.6758 40.6567 12.3364 12 10.5376973029 1.7338578206 15.0280726548
2281 1 21.2077 38.9349 10.6266 12 11.0510164892 1.7657022622 17.0274880073
2282 1 23.0075 40.6819 10.5842 12 10.9452967432 1.745973532 16.3374962274
2283 1 23.0057 38.8145 12.2948 12 11.1645953137 1.7661553305 16.6232303432
2284 1 21.14 40.6883 12.3443 12 11.1267398605 1.7661553305 15.2794425189
2285 1 24.6972 38.9007 10.6003 12 10.923728878 1.7685797874 17.4503956827
2286 1 26.4827 40.6166 10.5798 12 11.1764179625 1.8041746146 17.5504169074
2287 1 26.3613 38.9642 12.3365 12 10.9166750982 1.7684190256 17.4404236026
2288 1 24.7902 40.8175 12.3453 12 10.9845194629 1.745973532 16.0774555019
2289 1 28.2293 38.7623 10.6521 12 11.098864967 1.7685797874 18.3193258445
2290 1 29.9311 40.6396 10.663 12 11.1370143016 1.7563753058 18.8346289761
2291 1 30.0556 38.8614 12.3893 12 11.1108843411 1.7556070781 18.7378456891
2292 1 28.1565 40.6092 12.3226 12 10.909933275 1.7303045189 17.647608956
2293 1 31.7883 38.912 10.7249 12 11.2534910365 1.7852949139 20.0315210451
2294 1 33.5549 40.5812 10.6171 12 10.8122946992 1.7427089385 20.6465321205
2295 1 33.6266 38.8192 12.3779 12 10.6797972379 1.7572302368 20.6030475362
2296 1 31.8453 40.618 12.3541 12 11.1385844107 1.7900039963 19.3013058505
2297 1 35.2583 38.8493 10.5331 12 11.0428763318 1.7572302368 22.0384719047
2298 1 37.0039 40.5599 10.5598 12 11.5049828365 1.7549051913 22.7340941578
2299 1 37.1327 38.9652 12.382 12 11.3121544167 1.7649071775 22.81810646
2300 1 35.2496 40.6281 12.3651 12 11.0308237371 1.7571563166 21.2207780981
2301 1 38.891 38.9174 10.5602 12 10.8411624055 1.7649071775 24.377517868
2302 1 40.6365 40.5791 10.6164 12 11.0986747767 1.7647727882 23.3045692044
2303 1 40.6559 38.8466 12.435 12 11.0987468474 1.7649071775 23.5325910329
2304 1 38.9129 40.6924 12.2971 12 11.2450609979 1.7649071775 23.5993095087
2305 1 0.0254002 0.0631262 14.2346 12 10.8511414268 1.7686652438 19.8275885315
2306 1 1.75641 1.84471 14.1287 12 10.9696544209 1.7590923919 17.426005752
2307 1 1.69259 0.0853484 15.8891 12 11.0051663408 1.7637889435 18.2918100804
2308 1 42.3733 1.79999 15.9386 12 10.9700317752 1.7569184104 18.3638954387
2309 1 3.49755 42.3498 14.2021 12 11.02844037 1.7527690086 17.6188042094
2310 1 5.27687 1.75041 14.0804 12 10.9890313936 1.7525287782 15.2375564151
2311 1 5.15298 42.3531 15.9755 12 10.7546951089 1.7516926961 16.1584882714
2312 1 3.55133 1.74692 15.8722 12 11.0197327961 1.7601690414 15.8613243176
2313 1 7.11064 42.2963 14.1713 12 10.8954422795 1.7516926961 15.6723843608
2314 1 8.87699 1.62677 14.162 12 11.094876801 1.7567993691 13.4537308973
2315 1 8.85398 42.3078 15.8982 12 10.9916287242 1.7469316573 14.3950051301
2316 1 6.98663 1.68888 15.746 12 11.4875240726 1.7812172542 13.7937925725
2317 1 10.728 42.3301 14.0262 12 11.1410167156 1.7508648757 14.2119999687
2318 1 12.4582 1.76131 14.0564 12 11.451989214 1.78352475 11.9621056788
2319 1 12.4531 42.3864 15.8752 12 10.9627407939 1.7633412854 13.1606700502
2320 1 10.6667 1.62447 15.8433 12 11.243689915 1.7920933654 12.1977200189
2321 1 14.2213 42.3601 14.1179 12 11.1278753745 1.7624814731 13.2152767581
2322 1 15.8919 1.78329 14.1972 12 10.6101473946 1.7264094949 11.232992233
2323 1 15.9841 42.3487 15.9032 12 10.5492715957 1.7656319602 12.6545219684
2324 1 14.2316 1.71479 15.8635 12 10.8214212108 1.7630900284 11.0789069258
2325 1 17.618 42.37 14.1527 12 10.9590314503 1.7604444884 12.946842305
2326 1 19.426 1.77757 14.1284 12 11.3110407401 1.7604444884 11.2201900066
2327 1 19.474 42.3415 15.9315 12 11.206573746 1.775853374 12.6300246508
2328 1 17.5843 1.6942 15.8534 12 10.759806525 1.7642955003 10.9048971022
2329 1 21.1353 42.4055 14.1977 12 11.2322082799 1.7639405585 13.0910320822
2330 1 22.9093 1.7105 14.0345 12 11.1098922484 1.7639405585 11.9654246233
2331 1 22.9756 42.4077 15.9278 12 11.4140776119 1.7639405585 13.1629268546
2332 1 21.24 1.7777 15.8661 12 11.3572235136 1.7795970266 11.0247475989
2333 1 24.7895 0.164784 14.0252 12 11.0823078457 1.761374513 14.0301736589
2334 1 26.6266 1.81044 14.1789 12 10.8149421947 1.7448035248 13.3468098996
2335 1 26.4862 42.4011 15.7791 12 10.8626990975 1.7598360543 14.4883762707
2336 1 24.7182 1.75154 15.9014 12 11.4248484341 1.7642492513 12.1624333214
2337 1 28.2486 0.090337 14.1767 12 10.6906431784 1.7547631904 15.5262716508
2338 1 30.1085 1.77503 14.1719 12 11.0513461488 1.7821168891 15.042074607
2339 1 29.9055 0.0469952 15.9164 12 10.9791777588 1.7710947953 16.0200402152
2340 1 28.3056 1.86785 15.8658 12 10.7182663548 1.7456024371 13.6694373039
2341 1 31.8681 42.3481 14.2168 12 11.4265589656 1.7887534232 17.5021433063
2342 1 33.5764 1.83889 14.1544 12 11.2565659663 1.7831655164 17.1339844815
2343 1 33.6286 42.3416 15.9105 12 11.1082051482 1.7578817088 18.3252242657
2344 1 31.7425 1.7282 15.8506 12 11.0379614829 1.7462827901 15.752159371
2345 1 35.3512 -0.00449005 14.0939 12 11.3839140656 1.7832550656 19.6757455966
2346 1 37.1374 1.81154 14.0554 12 11.0086521722 1.7832550656 19.7029825971
2347 1 37.2301 0.0804837 15.8694 12 10.9881519316 1.7790559222 20.7613188988
2348 1 35.3685 1.75743 15.8375 12 11.3198429988 1.7808989711 18.2677984614
2349 1 38.9097 42.3759 14.1684 12 11.0045920275 1.782147845 22.241317756
2350 1 40.6578 1.7582 14.0583 12 11.0439208098 1.7687232818 20.0438569351
2351 1 40.7246 42.3741 15.9077 12 10.9321698858 1.7687514743 20.7994681784
2352 1 38.9965 1.66603 15.8994 12 10.6672680283 1.7566349706 20.9418812629
2353 1 0.0786202 3.57202 14.1109 12 11.0893502996 1.7735134707 17.5436174288
2354 1 1.75323 5.29092 14.2152 12 11.2349980209 1.7722874461 15.2318599226
2355 1 1.75772 3.47483 16.0696 12 10.9481370423 1.7601690414 15.9232491407
2356 1 42.4225 5.19499 16.0189 12 11.2957385682 1.7735134707 16.1459609944
2357 1 3.57571 3.50328 14.1569 12 10.9121358086 1.7601690414 15.031644292
2358 1 5.20034 5.18361 14.1232 12 11.1433318129 1.7822629737 12.7980968998
2359 1 5.28045 3.52791 15.8446 12 11.0692278201 1.7620601891 13.4540503064
2360 1 3.41464 5.29687 15.9602 12 11.2131440372 1.7721766857 13.5441940499
2361 1 7.07659 3.46587 14.0157 12 11.3424175631 1.7822629737 12.9471753251
2362 1 8.87371 5.23297 14.0818 12 11.3408233442 1.7818126457 10.6354755175
2363 1 8.79772 3.42859 15.8915 12 11.2768865124 1.7808184918 11.4097708393
2364 1 7.0091 5.26203 15.9124 12 11.2279759465 1.7822629737 11.0684950073
2365 1 10.5169 3.45727 14.1843 12 11.2320328415 1.78352475 11.2414492156
2366 1 12.2464 5.31035 14.1173 12 11.306991404 1.78352475 9.0199461027
2367 1 12.4576 3.48853 15.8237 12 11.4192388286 1.7850010353 9.9026808986
2368 1 10.5799 5.22132 15.8833 12 11.296078814 1.7808303131 9.1248418484
2369 1 14.1738 3.53098 14.0437 12 11.0259098521 1.7825556682 9.9314027023
2370 1 15.8797 5.34732 14.1256 12 11.0102372081 1.7530359799 7.8867744657
2371 1 15.8912 3.44157 15.8779 12 10.7410524758 1.7440683949 9.2203405549
2372 1 14.0961 5.21792 15.7944 12 11.1517535771 1.7535496251 7.813982873
2373 1 17.5294 3.54589 14.1354 12 10.9115867794 1.7552008335 9.4344959156
2374 1 19.4062 5.2537 14.0986 12 11.0064092147 1.7537885195 7.9528952302
2375 1 19.366 3.5309 15.8473 12 11.3134374082 1.7795970266 9.0891215873
2376 1 17.5037 5.39608 15.9271 12 11.0758839888 1.7537885195 7.2608907495
2377 1 21.2263 3.57707 14.0969 12 11.2074312721 1.7795287956 9.7982280581
2378 1 22.9797 5.36269 14.0286 12 10.691595206 1.7556615426 8.8640369265
2379 1 22.9185 3.70066 15.8482 12 11.3696550239 1.7795970266 9.7213977328
2380 1 21.1889 5.35801 15.9204 12 10.9235542489 1.7789304353 7.596621503
2381 1 24.6027 3.53661 14.0905 12 11.4669857731 1.7665216348 11.0450214365
2382 1 26.4752 5.26565 13.9799 12 11.153294911 1.7788001326 10.3776823497
2383 1 26.5841 3.57673 15.8441 12 11.2478821031 1.7763751666 11.3851786551
2384 1 24.7127 5.36238 15.9131 12 11.3308396635 1.7665216348 9.0043587136
2385 1 28.2265 3.54158 14.0903 12 11.0309646573 1.7821168891 12.623613156
2386 1 30.0365 5.3324 14.2708 12 11.0747369043 1.7821168891 12.2103170559
2387 1 30.0585 3.64748 15.9376 12 11.0615782376 1.7820346864 13.2141722731
2388 1 28.2503 5.41595 15.8615 12 10.7752629334 1.7788001326 10.749601899
2389 1 31.7893 3.50092 14.152 12 11.0560379721 1.7820932097 14.7296609374
2390 1 33.4831 5.44781 14.117 12 11.0332027686 1.7479593153 14.5829889797
2391 1 33.5342 3.63726 15.7874 12 11.1768400794 1.7696835175 15.6618394218
2392 1 31.8266 5.40714 15.9024 12 10.8878128368 1.7538291356 13.2090991047
2393 1 35.2929 3.55557 14.0829 12 11.127783343 1.7832550656 17.1755292577
2394 1 37.1638 5.29514 14.0798 12 11.0745016043 1.7579989462 17.6413638074
2395 1 37.1954 3.47535 15.7594 12 10.9840365945 1.7669296517 18.603194812
2396 1 35.3311 5.2869 15.8831 12 11.2172798191 1.7669296517 16.0175541485
2397 1 38.9011 3.46778 14.1258 12 10.835369163 1.757150075 20.0826610669
2398 1 40.534 5.27166 14.0701 12 11.1680477998 1.7735134707 18.1208497025
2399 1 40.6573 3.44924 15.7952 12 10.9986623549 1.773014965 18.5975814995
2400 1 38.9118 5.23563 15.8687 12 10.9626590165 1.7633723132 18.9830207118
2401 1 42.2339 7.09216 14.0839 12 11.5347830377 1.7735134707 15.8382926591
2402 1 1.65351 8.91391 14.1893 12 11.2637058203 1.7651456643 13.4177649573
2403 1 1.66754 7.01651 15.894 12 11.3116647375 1.7670210719 13.8347568177
2404 1 42.2775 8.90895 15.9366 12 10.942322036 1.7759336692 14.47276475
2405 1 3.49997 7.09005 14.163 12 11.2297100464 1.7707046727 12.9002878161
2406 1 5.32941 8.76186 14.1816 12 11.5361709128 1.7498523543 10.5954024874
2407 1 5.30816 6.98788 15.7937 12 11.3861589018 1.7866214478 11.1134061791
2408 1 3.40825 8.82682 15.8671 12 11.4529828063 1.7721766857 11.5034495954
2409 1 7.06416 7.03426 14.1063 12 11.0818458967 1.7820763125 10.3345237301
2410 1 8.88403 8.8404 14.1986 12 10.9255538713 1.7522583404 7.9770978988
2411 1 8.80949 7.0445 15.9449 12 11.1594983149 1.7808425751 8.6336190613
2412 1 7.1326 8.85163 15.8918 12 10.9759413016 1.7545478271 8.5858211608
2413 1 10.6345 7.16311 14.094 12 11.2007064374 1.781182123 8.3190987295
2414 1 12.3324 8.90824 14.1306 12 11.1314131115 1.763519416 6.2043157018
2415 1 12.3825 6.98653 15.934 12 11.277419091 1.763519416 6.8837229633
2416 1 10.5686 8.73686 16.0135 12 11.1142125982 1.7891437905 6.329586783
2417 1 14.0605 7.11936 14.1161 12 11.1409763353 1.7548668574 6.8770732661
2418 1 15.9799 8.75265 14.0626 12 11.3891595661 1.7767697219 4.8853972673
2419 1 15.7901 7.04562 15.9661 12 11.1114968458 1.7548251001 5.7338170022
2420 1 14.2191 8.93853 15.8986 12 11.4204799661 1.763519416 4.5316446387
2421 1 17.7216 7.09077 14.1079 12 10.9056588708 1.7525339864 6.0641075577
2422 1 19.412 8.86708 14.0737 12 11.2946357955 1.7453303746 4.7633789191
2423 1 19.4041 7.00259 15.8772 12 11.0925974721 1.7453303746 5.7273287825
2424 1 17.6147 8.79299 15.9142 12 11.0746676532 1.7453303746 3.9303170934
2425 1 21.1685 7.06012 14.143 12 10.8433049318 1.7436102772 6.7228913617
2426 1 22.8403 8.88614 14.1482 12 11.1745188038 1.7440962457 5.790879186
2427 1 22.8801 7.066 15.875 12 11.1983850692 1.772060355 6.755549305
2428 1 21.1703 8.78824 15.9332 12 10.8827281167 1.7464223446 4.5609570256
2429 1 24.6836 7.07227 14.0209 12 10.8886327399 1.7553839818 8.0982382659
2430 1 26.4269 8.85557 14.1655 12 11.0443739017 1.7587223676 7.3185893968
2431 1 26.448 7.03701 15.7551 12 10.9920659987 1.7483529544 8.4409928206
2432 1 24.6544 8.85003 15.8611 12 11.2735696311 1.749222737 5.995378106
2433 1 28.2613 7.1085 14.1351 12 10.628468844 1.7783268879 9.7714395761
2434 1 29.9765 8.89995 14.1595 12 10.6365695636 1.7557677953 9.7303420421
2435 1 29.9685 7.04401 15.8567 12 10.8239143269 1.7538291356 10.7458306683
2436 1 28.3758 8.80091 15.8528 12 10.8409330254 1.7346933551 8.3972258856
2437 1 31.7849 7.13745 14.0843 12 11.0059441749 1.7613518346 12.2224045378
2438 1 33.5672 8.79297 14.0511 12 11.3609150649 1.7838538055 12.8076134148
2439 1 33.5645 7.07698 15.9544 12 11.198753802 1.78510353 13.5304767946
2440 1 31.8273 8.9059 15.895 12 11.5805959244 1.7834423896 11.0679976266
2441 1 35.3093 7.04723 14.1353 12 11.0957821238 1.7665951773 15.1521370213
2442 1 37.0639 8.79105 14.1084 12 11.0365417681 1.7613421542 15.9264588334
2443 1 37.1032 6.9846 15.913 12 11.152321223 1.7665951773 16.5347185316
2444 1 35.4155 8.8694 15.9505 12 11.3944229527 1.7838538055 14.1536630566
2445 1 38.8755 7.03267 14.0976 12 10.9349925506 1.7611416443 18.2828390177
2446 1 40.5658 8.84799 14.1978 12 11.2223155586 1.7822265639 16.4132810718
2447 1 40.561 7.06613 15.9093 12 11.2273698811 1.7752952689 16.7612760694
2448 1 38.7345 8.79584 15.8365 12 11.3710359916 1.7759336692 17.16878488
2449 1 42.3066 10.6438 14.0826 12 10.8973277323 1.7808936261 14.201970958
2450 1 1.75117 12.5025 14.1283 12 10.6678278099 1.736608397 11.9206584084
2451 1 1.63566 10.6659 15.9157 12 10.9878699375 1.7352634794 12.1929495312
2452 1 0.011533 12.4314 15.8929 12 11.0269534109 1.7719325521 13.1122994989
2453 1 3.4362 10.738 14.1644 12 11.2598052331 1.7604150882 11.100042432
2454 1 5.27666 12.3222 14.1419 12 10.8786138304 1.7583478063 8.9416954991
2455 1 5.30725 10.5797 15.8505 12 11.0539277986 1.7498523543 9.1095093866
2456 1 3.45119 12.3624 15.8754 12 11.1977034853 1.7388771971 9.9246237604
2457 1 7.118 10.5838 14.1843 12 10.9095606973 1.7432075834 8.3261750713
2458 1 8.73991 12.3204 14.37 12 11.1993331427 1.7602831326 6.1969910525
2459 1 8.83845 10.6301 16.0346 12 10.8626271355 1.7887211581 6.2371523215
2460 1 6.89993 12.3602 15.8721 12 10.770110632 1.762860999 6.9359368989
2461 1 10.549 10.5684 14.1372 12 11.2876578638 1.7891437905 5.9977760527
2462 1 12.3882 12.3527 14.136 12 11.2076049727 1.7666871974 3.9020654583
2463 1 12.4252 10.6079 15.8756 12 11.2528676133 1.7891437905 4.0553997358
2464 1 10.6372 12.3556 15.9579 12 11.2437830996 1.7888427221 4.0309794749
2465 1 14.2256 10.6333 14.2059 12 11.0567361761 1.7767697219 4.0003537934
2466 1 15.8982 12.3119 14.1434 12 10.951872788 1.7762010205 2.1836676483
2467 1 15.9973 10.6389 16.0144 12 11.0346124362 1.7751542155 2.4470764689
2468 1 14.1656 12.3151 15.9249 12 10.9812629755 1.7666871974 1.9450865626
2469 1 17.7665 10.6389 14.1779 12 11.214201968 1.7767697219 3.0374012932
2470 1 19.5316 12.4316 14.2198 12 10.9814101991 1.792692543 1.7978017007
2471 1 19.4016 10.4844 15.9641 12 11.1325783084 1.792692543 2.5277316955
2472 1 17.6667 12.3664 15.8198 11 11.8616033378 2.2822429098 0.6678348498
2473 1 21.1716 10.639 14.2583 12 11.0441449188 1.7732525975 3.5902642162
2474 1 22.9672 12.3545 14.0111 12 10.8431635911 1.7392408016 2.7471576801
2475 1 22.7729 10.6273 15.8844 12 10.8209788016 1.7464223446 3.6979367867
2476 1 21.2726 12.4627 15.9292 12 10.9825307538 1.7924833738 1.534664641
2477 1 24.6965 10.6479 14.0656 12 11.104713018 1.7607780399 4.9899805585
2478 1 26.4485 12.409 14.0799 12 10.8197518226 1.7435253155 5.0089248535
2479 1 26.5108 10.6207 15.8042 12 10.9117871905 1.7336492993 5.8079226606
2480 1 24.6844 12.2701 15.8742 12 11.2576862759 1.7737732561 3.3502875076
2481 1 28.3362 10.6231 14.1021 12 10.8221394974 1.7346933551 7.4481800856
2482 1 30.1079 12.39 14.0314 12 11.0253258264 1.7620320277 8.2950655187
2483 1 30.105 10.603 15.84 12 11.1597078029 1.7346933551 8.7192958687
2484 1 28.1833 12.4181 15.734 12 10.9925347159 1.7567398481 6.2019028575
2485 1 31.8897 10.6394 14.0901 12 11.034639177 1.7557677953 10.5179653695
2486 1 33.7078 12.2744 14.1446 12 10.8058270028 1.7483221179 11.6832232166
2487 1 33.6279 10.6377 15.9028 12 11.2047964216 1.7838538055 11.8028805801
2488 1 31.8756 12.3 15.9052 12 11.0468981013 1.7407494808 9.5928611795
2489 1 35.4086 10.6855 14.1289 12 11.0337165406 1.7580122869 13.7294142624
2490 1 37.1465 12.4556 14.1274 12 11.2129666146 1.7745537077 14.872907405
2491 1 37.0004 10.6264 15.9138 12 10.9590713626 1.7719072645 14.8984271005
2492 1 35.3528 12.3556 16.0152 12 10.8465154147 1.7724706783 12.8269214139
2493 1 38.7023 10.5938 14.1901 12 11.5659624059 1.7833774187 16.8152735403
2494 1 40.682 12.4825 14.197 12 11.0823904645 1.7833774187 15.126106397
2495 1 40.6477 10.6658 15.9452 12 11.3760543406 1.7833774187 15.3098043384
2496 1 38.8907 12.3921 15.9737 12 11.1111407774 1.7737966312 16.2409286154
2497 1 -0.0231314 14.1767 14.2659 12 10.7819031311 1.7514701011 13.1784972158
2498 1 1.81321 15.8838 14.0903 12 10.986768193 1.7514701011 11.2092765101
2499 1 1.80562 14.1417 15.8966 12 11.0192414593 1.7419833338 11.036062837
2500 1 42.3181 15.8999 16.0189 12 11.0916698324 1.753825007 12.687107199
2501 1 3.59468 14.2405 14.163 12 10.879312684 1.7383615338 9.8275180021
2502 1 5.27775 15.9512 14.1796 12 10.5816065184 1.7397448025 7.9138341792
2503 1 5.27729 14.2181 15.9051 12 10.9814279992 1.762860999 7.7076330776
2504 1 3.5351 15.9682 15.9319 12 10.8035734336 1.7534409929 9.1386032819
2505 1 6.85746 14.182 14.1548 12 11.0123430439 1.7712436188 7.0262494044
2506 1 8.86396 15.797 14.1731 12 11.2284426896 1.7628533674 4.8673487544
2507 1 8.79811 14.0646 15.9731 12 11.1866995949 1.7650668756 4.6102898497
2508 1 7.0721 15.9238 15.9575 12 10.9690775219 1.7628044656 5.7048422107
2509 1 10.5706 14.0828 14.1149 12 11.0522807926 1.7650668756 4.1026713256
2510 1 12.2457 15.7647 14.1208 12 10.8714433459 1.7466231056 2.2261110579
2511 1 12.4384 14.1823 15.9116 12 11.2355900011 1.785434243 1.8316365708
2512 1 10.6754 15.8718 16.0333 12 11.1834258684 1.7650668756 2.4666269873
2513 1 14.1511 14.0893 14.181 12 11.0060611378 1.7466231056 1.9051050103
2514 1 15.8692 15.9435 14.0772 9 17.7074487499 4.0309803451 0.0899432376
2515 1 15.9179 14.2412 15.9009 9 22.5205533111 4.7574174619 0.229081493
2516 1 14.058 15.9562 15.9799 9 21.9139201471 4.7386502405 0.2302817429
2517 1 17.6078 14.1701 14.2486 11 11.9818945018 2.4332641428 0.4152218082
2518 1 19.4052 15.7751 14.2448 8 21.1255695173 4.1771203697 0.3377614691
2519 1 19.42 14.1669 16.0473 8 27.9356065794 4.8326035382 0.6738078033
2520 1 38.9122 40.6566 40.5049 12 11.13682115 1.7721277353 29.073830157
2521 1 21.2104 14.1495 14.1427 11 11.5885779957 2.3917833788 0.5935225324
2522 1 22.9578 15.9214 14.1637 11 12.0192828778 2.4360197537 0.8650604547
2523 1 22.9068 14.1789 15.8525 11 12.0872120183 2.4562142951 0.7663942647
2524 1 40.6261 38.9027 40.5184 12 11.1011065311 1.7731689784 29.2475601412
2525 1 24.5831 14.0661 14.1401 12 10.9815064976 1.7761753962 2.7907865794
2526 1 26.4621 15.9539 14.1852 12 11.0437994783 1.7514993735 3.9762995823
2527 1 26.4738 14.0631 15.8455 12 11.2244039465 1.7761753962 4.0434882514
2528 1 24.7325 15.9041 15.9036 12 11.0000580326 1.7761753962 1.9080425401
2529 1 28.2793 14.2329 14.1446 12 11.0822245864 1.7620320277 6.0771314216
2530 1 30.0896 15.9065 14.0874 12 11.041126256 1.7620320277 7.3659351307
2531 1 30.0444 14.0133 15.9107 12 11.127076612 1.7622227511 7.3981670029
2532 1 28.3116 15.9304 16.0096 12 11.2914789332 1.7514993735 5.3165372292
2533 1 31.8618 14.0764 14.1455 12 11.0379128313 1.7611289707 9.4720829878
2534 1 33.7223 15.9826 14.1597 12 10.9401159958 1.7508299245 10.8599371499
2535 1 33.6479 14.1058 15.8429 12 11.2029411122 1.7602704541 10.8502238942
2536 1 31.7819 15.7706 15.8361 12 11.088958184 1.7508299245 8.7811875663
2537 1 35.4165 14.0719 14.0973 12 11.039308293 1.7469887754 12.8512284823
2538 1 37.1066 15.9806 14.2636 12 11.0710309205 1.7472867789 14.1805365985
2539 1 37.0435 14.1948 15.9734 12 11.1049012511 1.773814174 14.1511457377
2540 1 35.3558 15.938 16.0075 12 11.02823181 1.7494886577 12.3049120688
2541 1 38.8933 14.1294 14.2482 12 11.2069288023 1.7737712998 16.1872348778
2542 1 40.5882 15.9428 14.2326 12 11.1503735615 1.7491868201 14.7019289711
2543 1 40.5896 14.1443 16.0584 12 10.8917757434 1.773814174 14.5602330137
2544 1 38.8073 15.9522 15.9561 12 10.9506226056 1.773814174 15.7385760484
2545 1 42.385 17.6712 14.1834 12 10.872013205 1.7514701011 12.8476181737
2546 1 1.7518 19.2791 14.084 12 10.8743266176 1.759853411 11.2235423827
2547 1 1.63734 17.6129 15.9068 12 11.1706413179 1.7654226254 10.863562961
2548 1 42.3763 19.4187 15.86 12 11.3494393864 1.7882087247 12.5849222641
2549 1 3.47724 17.6206 14.2368 12 10.8123787161 1.7541463712 9.4215517381
2550 1 5.29614 19.3445 14.1002 12 11.2426127309 1.7695422043 7.8817350895
2551 1 5.27158 17.6274 15.9146 12 10.7921185215 1.7664636006 7.3007818294
2552 1 3.47022 19.489 15.8374 12 11.1084019997 1.7654226254 9.1715863492
2553 1 7.0769 17.6761 14.2148 12 10.8609587434 1.7627438534 6.048902613
2554 1 8.8269 19.321 14.2589 12 10.7352236541 1.7628533674 4.6977866865
2555 1 8.8687 17.6242 15.9908 12 10.9643883387 1.7926161935 3.7622193858
2556 1 7.17487 19.3815 15.9681 12 11.1712416481 1.7695422043 5.5291251389
2557 1 10.6291 17.6059 14.2504 12 11.0876633605 1.7628533674 3.1334770445
2558 1 12.3013 19.4376 14.0944 12 10.4828337993 1.745889939 1.8955956446
2559 1 12.4681 17.7038 15.8277 11 11.5649405321 2.4157862506 0.7158173268
2560 1 10.6233 19.4023 15.9462 12 10.8868028124 1.7653425358 2.3538050848
2561 1 14.0166 17.5645 14.0614 11 11.8505966987 2.4118263319 0.5595805989
2562 1 15.931 19.4438 14.1103 8 22.0680992488 4.3516863594 0.3755788687
2563 1 40.7057 40.6119 38.8639 12 11.0442515289 1.7609512553 28.424795514
2564 1 14.0408 19.391 15.813 8 22.4640127328 4.8248542452 0.458375206
2565 1 38.8529 38.8423 38.8235 12 10.949765652 1.7731689784 30.1990085842
2566 1 19.3504 19.4499 14.1739 7 31.0241364228 4.8326035382 0.6201108737
2567 1 35.3156 40.6171 40.6381 12 11.0155389362 1.7576889135 26.99976082
2568 1 37.0657 38.8459 40.6464 12 11.0937722022 1.7728728793 28.5590671414
2569 1 21.0649 17.6981 14.193 9 17.3819532581 3.9048299049 0.2085165431
2570 1 22.9375 19.3035 14.131 11 11.9998967328 2.3904023423 0.7925573897
2571 1 22.9012 17.6882 15.9751 9 16.7944147194 3.701552599 0.1713611704
2572 1 37.0511 40.5973 38.8152 12 11.0600655106 1.7744127889 28.4609898215
2573 1 24.8282 17.6152 14.1938 12 10.8043701114 1.7324814214 2.3680452456
2574 1 26.6017 19.4251 14.1375 12 10.9177023651 1.7721916273 3.9343036934
2575 1 26.4916 17.708 15.9009 12 10.8593941043 1.74520941 3.3839299568
2576 1 24.7148 19.394 15.8196 12 10.9534530621 1.7576781714 1.6761775296
2577 1 28.3541 17.7234 14.3336 12 10.9734488947 1.7590129249 5.5187619601
2578 1 30.1493 19.3594 14.1524 12 10.5595670349 1.7319210803 7.3527974836
2579 1 30.0813 17.6527 15.939 12 10.7918865291 1.7427987798 6.9569110931
2580 1 28.355 19.4341 16.0407 12 10.6201214707 1.731912172 5.1779637877
2581 1 31.8559 17.6464 14.0417 12 10.6375771762 1.7294579343 8.9806782114
2582 1 33.5053 19.3404 14.2472 12 10.8351737852 1.7314873236 10.5746602042
2583 1 33.4757 17.6516 15.9129 12 10.8967364282 1.7498452721 10.3391124522
2584 1 31.7596 19.4107 15.8752 12 10.8367371429 1.7554016519 8.576957668
2585 1 35.3269 17.7098 14.2176 12 10.8892325194 1.7491172461 12.3598791912
2586 1 36.9973 19.5462 14.1858 12 11.0764066899 1.7529551521 14.0084819389
2587 1 37.1157 17.7351 16.0079 12 10.764033036 1.7488746596 13.9526146119
2588 1 35.3557 19.3988 15.983 12 10.9480948464 1.7529386011 12.1461925506
2589 1 38.8136 17.7218 14.2419 12 11.0291349333 1.7491172461 15.8090352028
2590 1 40.6468 19.4091 14.0664 12 10.8292610337 1.739674559 14.6553948534
2591 1 40.5623 17.7255 15.9919 12 11.1586127438 1.753825007 14.2692801751
2592 1 38.8497 19.4415 15.9719 12 10.7442151848 1.7529386011 15.6258478438
2593 1 42.3122 21.2225 14.027 12 11.0198829485 1.7569051863 13.2086542459
2594 1 1.79044 22.9774 14.1701 12 10.9521562788 1.764001391 11.7565894673
2595 1 1.63227 21.185 15.8609 12 11.0601022365 1.7639864014 11.1406395187
2596 1 42.4336 22.9642 15.8644 12 11.0430921494 1.7492661005 13.0828129706
2597 1 3.385 21.1749 14.0301 12 10.9627443478 1.7569051863 9.9093061896
2598 1 5.35263 22.8748 14.121 12 10.8992939773 1.7489141291 8.6043143958
2599 1 5.18743 21.2213 15.7585 12 11.1005454356 1.7695422043 7.7295137022
2600 1 3.46257 22.9099 15.8177 12 10.9839981524 1.7381729716 9.8228620252
2601 1 7.1078 21.1875 14.2082 12 10.9310856097 1.7507968807 6.543552585
2602 1 8.80843 22.8925 14.1157 12 10.8076532952 1.7577476291 5.8076027924
2603 1 8.85774 21.2653 15.8818 12 10.8836485083 1.7729215334 4.3681251565
2604 1 7.07211 22.9833 15.9124 12 10.7281091794 1.7415631608 6.6462484081
2605 1 10.5979 21.0491 14.1832 12 10.5054128017 1.7241581305 3.6274574337
2606 1 12.3804 22.8677 14.2159 12 10.930200021 1.7684309323 2.6342824983
2607 1 12.2995 21.1741 15.8992 12 10.5374743415 1.7292019846 1.6184380052
2608 1 10.5287 22.9466 15.8673 12 10.8553957169 1.7326958072 3.7724132974
2609 1 14.1 21.1405 14.2866 11 11.6514166817 2.4440818917 0.7376750684
2610 1 15.8602 22.8687 14.1437 11 11.7714218433 2.3437192985 0.7623840094
2611 1 35.278 38.9026 38.9835 12 11.0847326032 1.7593134836 28.4190597022
2612 1 14.1451 22.9245 15.952 11 11.7363900695 2.3863023973 0.780238995
2613 1 17.7203 21.2075 14.1463 9 15.2084388285 3.6829520196 0.1817233215
2614 1 19.4229 22.8626 14.1787 11 11.5918645189 2.4073251663 0.8100131882
2615 1 31.6968 40.6172 40.6319 12 11.1633703937 1.7869673651 25.3255002909
2616 1 17.5505 22.8468 15.8803 9 15.8374558507 3.8509784943 0.2316638092
2617 1 21.1244 21.1322 14.1671 10 13.9959716611 2.8703823277 0.2726647668
2618 1 23.0171 22.8747 14.0585 12 11.0547341936 1.7585007089 2.1342917166
2619 1 22.9851 21.2836 15.7453 10 12.3088039122 2.5878506107 0.2629659244
2620 1 21.1179 22.8426 15.8935 10 13.8350688724 2.9402778656 0.2088422289
2621 1 24.7453 21.1267 14.1477 12 10.7092165413 1.7371991326 2.4379714637
2622 1 26.413 22.9903 14.1995 12 10.944478794 1.760318436 4.3226114001
2623 1 26.5234 21.1922 15.7915 12 10.750132866 1.7226151427 3.6019604602
2624 1 24.6985 22.9877 15.8302 12 10.8388380873 1.7710201651 2.483341022
2625 1 28.3555 21.1732 14.117 12 10.9413187252 1.7319210803 5.7958655614
2626 1 30.1333 22.9927 14.0944 12 10.7911052035 1.7512492837 7.7914706962
2627 1 30.0291 21.2348 15.73 12 10.8765943444 1.7736784769 6.9773836896
2628 1 28.2668 22.9612 15.8296 12 10.8603579193 1.7556742209 5.7531725129
2629 1 31.8324 21.3347 14.2171 12 10.7971635732 1.748277146 9.0874551273
2630 1 33.5879 23.0207 14.1343 12 11.0706018253 1.7576672942 11.0810875248
2631 1 33.5094 21.1997 15.9977 12 10.8863051172 1.7482338209 10.3538250992
2632 1 31.8607 23.0288 15.988 12 10.8498546339 1.7635151738 9.1474270695
2633 1 35.2091 21.1611 14.2433 12 10.9765464694 1.7529551521 12.3016202907
2634 1 37.0078 23.0484 14.1512 12 11.0112093674 1.764199337 14.3447879287
2635 1 37.0601 21.3088 15.9331 12 10.8290710863 1.7620335676 13.8906037853
2636 1 35.3144 22.957 15.8011 12 10.937188526 1.7779919503 12.4486065571
2637 1 38.7859 21.1474 14.136 12 10.9810876859 1.7523530714 15.8155827426
2638 1 40.6228 22.8457 14.0239 12 10.8263734223 1.7478717189 15.1078809603
2639 1 40.6189 21.1828 15.8144 12 11.1766245386 1.7498903271 14.5067663937
2640 1 38.8758 23.0188 15.7824 12 11.1394363637 1.7620335676 15.9336730839
2641 1 42.3367 24.6824 14.0834 12 11.2859580712 1.7654328738 14.0468851722
2642 1 1.80215 26.5493 14.0977 12 11.3815700157 1.7654328738 13.2426874835
2643 1 1.67631 24.8403 16.012 12 11.1898847978 1.7654328738 12.1699578246
2644 1 0.00880822 26.537 15.8313 12 11.4150142914 1.7689766915 14.4236331863
2645 1 3.43427 24.7498 14.2045 12 11.0705575924 1.7654328738 10.9927327475
2646 1 5.34177 26.4305 14.0841 12 11.0729192053 1.7638559039 10.2323128394
2647 1 5.32565 24.6414 15.8795 12 11.1493595157 1.7664263631 8.9393887343
2648 1 3.60726 26.4996 15.9266 12 11.1388285358 1.7635689373 11.3026077091
2649 1 7.09886 24.6611 14.1751 12 10.8616778319 1.7396994806 7.9230891349
2650 1 8.79367 26.5131 14.1831 12 10.5887201336 1.7396994806 7.4612493433
2651 1 8.79342 24.7494 15.9643 12 10.7961798843 1.7393131534 6.0435414511
2652 1 7.06552 26.4985 15.9004 12 11.0804197213 1.7869499386 8.4121982753
2653 1 10.5699 24.6814 14.2722 12 10.8983000177 1.7684142385 5.0349290353
2654 1 12.3055 26.5139 14.2096 12 10.8992167826 1.7667488464 4.9500164117
2655 1 12.4033 24.6896 15.9732 12 11.0793278098 1.7684309323 3.2301893687
2656 1 10.473 26.445 15.7966 12 10.7301524587 1.7376312411 5.842137638
2657 1 14.1372 24.7182 14.1648 12 11.341651897 1.7684309323 2.7408518303
2658 1 15.9012 26.4464 14.1745 12 11.0622329659 1.7683767219 3.8262660916
2659 1 16.0124 24.6168 15.9063 12 11.1252763521 1.7510461206 1.7000311569
2660 1 14.1045 26.5041 15.8616 12 10.9649683037 1.7537313406 3.9075792489
2661 1 17.6086 24.6504 14.0274 12 10.8961678423 1.7405684217 2.2002950262
2662 1 19.3537 26.4644 14.1029 12 11.1645572129 1.7834549788 4.0221392509
2663 1 19.3371 24.6217 15.7968 12 11.2464212278 1.7776840024 1.7125028274
2664 1 17.6569 26.5668 15.9756 12 11.0735257791 1.764666776 3.4240493579
2665 1 21.2223 24.6428 14.1115 12 11.2526088203 1.7834549788 2.64781224
2666 1 22.9617 26.4784 14.0855 12 10.9495704041 1.7826314173 4.601616965
2667 1 22.9257 24.6956 15.9288 12 11.2871916436 1.7769629926 2.5373413132
2668 1 21.2033 26.395 15.8967 12 11.1946477631 1.7834549788 3.5890097049
2669 1 24.7136 24.7783 14.1153 12 10.9580874667 1.7702841324 4.2071359465
2670 1 26.5651 26.5024 14.1204 12 11.2209302363 1.7860909325 6.5804825283
2671 1 26.5372 24.7928 15.8472 12 10.9166420033 1.7710201651 4.9734155825
2672 1 24.6748 26.5211 15.7899 12 11.3017897066 1.7710201651 5.0199656306
2673 1 28.2854 24.7561 14.101 12 11.2572619882 1.760318436 6.7205608038
2674 1 30.1078 26.5192 14.032 12 11.0221824957 1.7499615209 9.1667443454
2675 1 30.0507 24.693 15.8893 12 11.1007295248 1.7626746925 7.9870804309
2676 1 28.2206 26.5755 15.9845 12 11.1153106296 1.7499615209 7.3136729903
2677 1 31.7419 24.7987 14.1874 12 11.164278297 1.7635151738 9.7964172102
2678 1 33.5581 26.5291 14.1652 12 11.1713038571 1.7655123886 12.1218430332
2679 1 33.608 24.8071 15.9826 12 11.3177279779 1.7635151738 11.3605069528
2680 1 31.7109 26.5502 15.9523 12 11.1433334448 1.7635151738 10.2260340089
2681 1 35.3472 24.6951 14.1662 12 10.6879434878 1.7561474501 13.169527602
2682 1 37.2039 26.4658 14.0901 12 10.8894593988 1.7321736082 15.4680852394
2683 1 37.0691 24.8286 15.8214 12 10.904386685 1.7620335676 14.6496266082
2684 1 35.3629 26.5226 15.8484 12 11.143530426 1.7590936625 13.5752322002
2685 1 38.8726 24.7153 14.1615 12 11.0565142714 1.7535059275 16.5252420209
2686 1 40.6018 26.476 14.1711 12 11.0092182743 1.7566562422 16.2876195839
2687 1 40.7095 24.6736 15.8563 12 11.1439763987 1.7558767507 15.2313910803
2688 1 38.9027 26.4841 15.9921 12 11.080461883 1.7562733834 16.8910275148
2689 1 42.4012 28.2922 14.1409 12 11.1514908079 1.7651007034 15.6085910824
2690 1 1.82843 30.0113 14.2105 12 11.0257670571 1.7844349395 14.9296089571
2691 1 1.81694 28.2794 15.9515 12 11.0536850076 1.7569174219 13.705792222
2692 1 42.4052 30.0055 15.9446 12 11.0490571426 1.7651092644 16.153660462
2693 1 3.58744 28.2689 14.2329 12 10.9150515798 1.7638559039 12.5613598833
2694 1 5.25935 30.0488 14.1529 12 10.7919259773 1.7560035874 12.3039792044
2695 1 5.35492 28.3491 15.9066 12 10.8595925453 1.736176342 10.8601432336
2696 1 3.48692 29.994 15.8787 12 10.7340170319 1.765815583 13.326953393
2697 1 6.98847 28.2139 14.1261 12 11.0195170321 1.7560035874 9.8629573879
2698 1 8.76637 30.0634 14.1101 12 10.9984977023 1.7560035874 9.8098538719
2699 1 8.80975 28.2917 15.8527 12 10.9644888482 1.7453927672 8.3130634549
2700 1 7.05599 30.1192 15.8957 12 10.7396317798 1.7558609361 10.8385113061
2701 1 10.6127 28.3417 14.2091 12 10.8019136507 1.7539369701 7.3376434261
2702 1 12.2317 30.0229 14.1418 12 11.0900070384 1.7699617223 8.018798001
2703 1 12.3958 28.1859 15.8542 12 10.6723658268 1.7547864638 6.0869889497
2704 1 10.5483 30.138 15.8758 12 10.7177599362 1.7453082262 8.6826748168
2705 1 14.1114 28.3377 14.0863 12 10.7876846048 1.7699617223 5.9685681818
2706 1 15.916 30.0578 14.1798 12 10.8035137358 1.7634256358 7.2470435575
2707 1 15.8982 28.3169 15.8065 12 11.0322530042 1.7782713254 5.3529228489
2708 1 14.1239 30.0665 15.8742 12 11.2909087971 1.7699617223 7.367875099
2709 1 17.5842 28.2171 14.1672 12 10.7350215725 1.7493828253 5.3783353301
2710 1 19.4316 29.9835 14.0516 12 10.9543845274 1.7448249747 7.2861119964
2711 1 19.4167 28.1953 15.7936 12 10.8207737731 1.7640216811 5.0552727566
2712 1 17.7114 29.9571 15.8411 12 10.8652520251 1.745343138 6.7958844822
2713 1 21.1472 28.2114 14.151 12 10.9937962744 1.7833758206 5.8137282183
2714 1 22.8841 30.0661 14.0766 12 11.2206235344 1.8023060398 7.8050794788
2715 1 22.8584 28.2569 15.9239 12 11.2148926909 1.7948375847 5.7588109005
2716 1 21.1522 29.943 15.8942 12 10.9227912017 1.7597270686 7.0195724983
2717 1 24.6515 28.2249 14.0821 12 11.1765923542 1.8046719118 6.7619049408
2718 1 26.5591 30.0484 14.1479 12 11.3366164419 1.8046719118 9.2274324754
2719 1 26.3879 28.3012 15.8439 12 11.1619482097 1.7666715873 7.4129086227
2720 1 24.5828 30.0067 15.9325 12 11.1177900864 1.8046719118 7.9892405227
2721 1 28.2855 28.229 13.9987 12 11.3197189907 1.7666715873 8.9540187042
2722 1 29.9968 29.9555 14.0862 12 11.3157262024 1.7673169958 11.2750674191
2723 1 30.0342 28.158 15.9167 12 10.9888948824 1.7411951469 9.6935181457
2724 1 28.3084 29.9835 15.8945 12 11.412095031 1.7914629318 9.8458215816
2725 1 31.8106 28.3485 14.0068 12 11.0474189211 1.7655123886 11.5695331275
2726 1 33.5335 30.0885 14.0082 12 10.9972292164 1.7653668342 13.9385494266
2727 1 33.4742 28.3346 15.8787 12 11.2211651037 1.7655123886 12.6109507404
2728 1 31.7121 30.023 15.8199 12 10.9082451589 1.732831809 12.1674479096
2729 1 35.336 28.2863 14.0471 12 11.0675010332 1.7655123886 14.4856646186
2730 1 37.0287 30.0107 14.0782 12 10.6868041758 1.7497123569 16.7622074155
2731 1 37.0743 28.2858 15.8508 12 11.2221259185 1.7664968068 15.7975886475
2732 1 35.3046 29.9888 15.8585 12 11.2625222593 1.7810499328 15.0183003051
2733 1 38.915 28.2751 14.2435 12 10.9920683477 1.7389515553 17.6753588813
2734 1 40.6385 30.1114 14.2248 12 10.7496439227 1.7637507882 17.9724833255
2735 1 40.5961 28.3186 15.9235 12 10.9493295234 1.7566562422 16.8366414063
2736 1 38.859 30.0697 16.0135 12 10.7243583105 1.7502935858 18.1414118275
2737 1 42.3642 31.8419 14.1868 12 10.8441760537 1.7844349395 17.4791728473
2738 1 1.70615 33.573 14.1866 12 11.1923252745 1.7844349395 17.2291186199
2739 1 1.62801 31.798 15.9089 12 11.1999733355 1.7838400012 15.8895628519
2740 1 42.3429 33.6096 15.8608 12 11.0888944966 1.7713970787 18.3573423811
2741 1 3.54335 31.7244 14.1248 12 11.0475757016 1.7840761088 14.6668037627
2742 1 5.22522 33.4363 14.1451 12 10.886422758 1.7612412518 14.6279683306
2743 1 5.31283 31.7568 15.9406 12 10.7107878193 1.7577275454 13.2194218898
2744 1 3.55649 33.5039 15.9005 12 10.9109429089 1.7621048738 15.6937483176
2745 1 7.00874 31.7395 14.114 12 10.8631657101 1.7608636169 12.1974299333
2746 1 8.78029 33.5566 14.3197 12 10.9453449978 1.7599607178 12.6146581522
2747 1 8.84168 31.7758 16.0011 12 10.79002966 1.7506701655 10.9833925918
2748 1 7.05735 33.5447 15.9723 12 10.9338948198 1.7612412518 13.4568969987
2749 1 10.5643 31.8467 14.1506 12 10.9347415945 1.7527579959 10.3143772713
2750 1 12.3634 33.6816 14.0845 12 11.1096795433 1.7635389523 11.4390117138
2751 1 12.4 31.8143 15.72 12 11.0271666156 1.7488174155 9.4820285147
2752 1 10.5873 33.5334 15.9144 12 10.7839940182 1.7437257233 11.7108104048
2753 1 14.1939 31.8576 13.9684 12 11.3898582289 1.7699617223 9.3412176559
2754 1 15.9813 33.5235 14.0849 12 10.9918290787 1.7723036482 10.6489933281
2755 1 15.9571 31.8155 15.917 12 10.963711097 1.7555286231 8.8021125301
2756 1 14.2178 33.5499 15.8547 12 11.0804133055 1.7636777065 10.760992073
2757 1 17.7166 31.7115 14.0678 12 11.1341298244 1.7467765718 8.8024256693
2758 1 19.4688 33.5456 14.0375 12 11.2044143208 1.7623582217 10.6685010352
2759 1 19.5159 31.7577 15.9356 12 11.0748745384 1.7597270686 8.525621804
2760 1 17.7416 33.5599 15.8675 12 11.0433866748 1.7544919708 10.3663978449
2761 1 21.1922 31.6849 14.0556 12 11.2910652263 1.7623582217 9.0976867512
2762 1 22.9827 33.6118 14.0807 12 11.1035036643 1.7623582217 11.2181987797
2763 1 23.0245 31.8305 15.8548 12 11.0955819729 1.7597270686 9.268352551
2764 1 21.2106 33.469 15.8302 12 11.0346308584 1.7623582217 10.4624185309
2765 1 24.6999 31.8633 14.0598 12 10.9340780471 1.8044616589 9.9773782347
2766 1 26.4537 33.4436 14.0704 12 10.9410560206 1.7629924173 12.0736703861
2767 1 26.2863 31.7492 15.8909 12 11.2124332678 1.7915766652 10.305588267
2768 1 24.7781 33.5997 15.9134 12 10.8143135785 1.7444390176 11.4246159059
2769 1 28.1564 31.7572 14.0819 12 11.2388051233 1.7915766652 11.5134203652
2770 1 29.9668 33.4247 14.0111 12 11.1646895395 1.7747362794 13.893334277
2771 1 30.1457 31.7585 15.7921 12 11.3505477222 1.7882645948 12.3565915324
2772 1 28.1653 33.5642 15.9216 12 11.4404397256 1.7915766652 12.7913077163
2773 1 31.8407 31.804 13.9985 12 10.7908135331 1.7525169037 13.821255489
2774 1 33.4649 33.6209 14.0794 12 11.1956122367 1.7600211247 16.1753151723
2775 1 33.4933 31.7558 15.8012 12 11.3624719899 1.7550344148 14.6333409122
2776 1 31.702 33.537 15.8349 12 11.1929545472 1.7694639478 14.6942477762
2777 1 35.3895 31.8003 14.0636 12 11.0648542535 1.764557943 16.3855476645
2778 1 37.1767 33.5166 14.1032 12 10.8672819046 1.7751227154 18.7964078843
2779 1 37.1006 31.7016 15.8817 12 10.8461587439 1.7432936487 17.4420931571
2780 1 35.4393 33.4362 15.8506 12 11.2351135458 1.7600211247 17.1859450882
2781 1 38.8599 31.7129 14.2066 12 10.9391072198 1.7574298112 19.1432429143
2782 1 40.52 33.649 14.1992 12 11.1405222247 1.7721409372 19.9967158678
2783 1 40.6042 31.8151 15.9525 12 11.29257913 1.7728720546 18.6385253494
2784 1 38.7663 33.6313 16.0023 12 11.1259533446 1.7728720546 19.891524846
2785 1 42.3454 35.3703 14.2252 12 10.9482059446 1.7560620298 19.7290590406
2786 1 1.71115 37.0284 14.2197 12 11.1482818217 1.7614313941 19.6200789264
2787 1 1.75016 35.2504 16.0344 12 10.7561118244 1.7569779796 18.1925096194
2788 1 0.0151688 37.1157 15.9502 12 10.8375369669 1.7569779796 20.7409646848
2789 1 3.52166 35.1722 14.1897 12 11.1878584762 1.7442678909 17.0407672308
2790 1 5.32232 37.0344 14.2391 12 10.8930716485 1.756865523 17.3806226085
2791 1 5.32601 35.2667 15.853 12 10.8542098065 1.7396193131 15.8726861464
2792 1 3.42999 37.045 15.871 12 11.0018278529 1.7284640708 18.443061957
2793 1 7.09274 35.3121 14.2305 12 10.9612263857 1.7612412518 14.9835507332
2794 1 8.77411 37.1012 14.1321 12 10.8762241329 1.752520037 15.7931969274
2795 1 8.89874 35.3703 16.0131 12 10.9034806262 1.741359596 14.0784157808
2796 1 6.99767 37.1067 15.9146 12 10.8711654175 1.7557254542 16.4944128654
2797 1 10.5106 35.3702 14.1265 12 11.0484352412 1.7530946514 13.5614433114
2798 1 12.419 37.1655 14.0537 12 11.2245335288 1.7730118586 14.8126144828
2799 1 12.3525 35.324 15.8738 12 11.1394013358 1.7730118586 12.8594712974
2800 1 10.5902 37.106 15.8768 12 11.2141390235 1.7687914988 15.0603297992
2801 1 14.1409 35.3282 14.087 12 11.0941722764 1.7723036482 12.7076876307
2802 1 15.881 37.0656 14.0706 12 11.1009549562 1.7723036482 14.1635341445
2803 1 15.9621 35.3216 15.8883 12 11.0734043344 1.7723036482 12.2836161815
2804 1 14.2211 37.0655 15.8903 12 11.1416492936 1.7730118586 14.2036554067
2805 1 17.7104 35.3174 14.0379 12 11.0092286472 1.7722187023 12.3497670896
2806 1 19.4912 37.1465 14.179 12 10.9496990512 1.7568952221 14.1301364269
2807 1 19.4794 35.339 15.8295 12 10.9040897422 1.7413141047 12.0876546299
2808 1 17.6817 37.0391 15.8064 12 10.9460170858 1.7532959981 13.8298550751
2809 1 21.2679 35.391 14.1515 12 10.947683175 1.7584041303 12.6235627343
2810 1 22.9343 37.1317 14.1613 12 11.0114496498 1.7540395162 14.5956780031
2811 1 22.9519 35.2724 15.9837 12 10.9914627064 1.750246885 12.586757041
2812 1 21.2026 37.0732 15.9598 12 11.066576204 1.7668534473 13.9721660109
2813 1 24.7647 35.314 14.2206 12 10.9349226063 1.755986359 13.2079796151
2814 1 26.5596 37.1423 14.1588 12 10.9381720614 1.755986359 15.4798250578
2815 1 26.4942 35.435 15.8401 12 10.8399077955 1.7453853463 13.7344512017
2816 1 24.7209 37.0722 15.8334 12 10.8122723821 1.7555860533 14.7598979919
2817 1 28.1793 35.2818 14.0798 12 11.2752134491 1.7747362794 14.4632449651
2818 1 29.9096 37.1135 14.0421 12 11.1422760852 1.7724087631 16.8938450222
2819 1 29.8836 35.2694 15.8785 12 11.4892581824 1.7747362794 15.1189578913
2820 1 28.2692 37.1831 15.8888 12 10.9190777725 1.7701299021 16.0493562721
2821 1 31.7225 35.3151 14.089 12 11.0593046395 1.7747362794 16.3903803357
2822 1 33.5972 37.0477 14.1116 12 10.9711109908 1.7679122441 18.8437227192
2823 1 33.6545 35.2937 15.7769 12 11.0806577473 1.7679122441 17.2817125985
2824 1 31.8006 37.0661 15.7852 12 11.3326522962 1.770261144 17.6390290851
2825 1 35.4524 35.3048 14.0478 12 10.7999586057 1.7600211247 18.7229137106
2826 1 37.1007 37.1786 14.1201 12 11.0711292178 1.7659952199 21.1681465689
2827 1 37.0806 35.2627 15.7813 12 10.7904576252 1.7270534617 19.6242571791
2828 1 35.3401 36.9854 15.7894 12 11.0000929009 1.7706308869 19.6510464565
2829 1 38.8946 35.3629 14.1502 12 10.9416852356 1.7659952199 21.2493005055
2830 1 40.644 37.0989 14.1665 12 11.0979289189 1.7658633582 22.1411590558
2831 1 40.6382 35.3547 16.0114 12 10.9963826141 1.7728720546 20.7689756917
2832 1 38.8392 37.076 15.9911 12 11.0829831796 1.7645203963 22.1234250567
2833 1 0.0888445 38.7845 14.0662 12 10.9479441803 1.7383395033 22.0154515759
2834 1 1.68652 40.6934 14.1474 12 10.7827342021 1.7633867776 19.9762839194
2835 1 1.74236 38.8794 15.8484 12 10.7079043826 1.7586036146 20.9227282841
2836 1 42.3708 40.5627 15.8227 12 11.076652967 1.7637889435 20.8646285363
2837 1 3.45851 38.9557 14.1229 12 10.9263392998 1.7258755873 20.0213953613
2838 1 5.35524 40.6806 14.1325 12 10.944653356 1.7516926961 17.8586004716
2839 1 5.09844 38.8212 15.7885 12 10.9222276915 1.7557254542 18.9331489686
2840 1 3.46208 40.6538 15.8555 12 10.6756416284 1.7637889435 18.5068737727
2841 1 7.0518 38.9076 14.1399 12 10.8978615624 1.7557254542 18.1429956471
2842 1 8.75951 40.5686 14.0735 12 10.9913968662 1.7469316573 16.4815703972
2843 1 8.78779 38.8346 15.9213 12 11.2507638033 1.7581884855 17.2994975348
2844 1 6.96695 40.6072 15.9343 12 10.9120284979 1.7557254542 16.6765821681
2845 1 10.5819 38.9089 13.9685 12 11.1945899918 1.7581884855 16.9151829874
2846 1 12.423 40.6397 14.219 12 11.0211138434 1.758561951 15.1640927522
2847 1 12.2856 38.8582 15.8814 12 11.2578667537 1.7730118586 16.3035425036
2848 1 10.5709 40.6343 15.8539 12 11.1274391609 1.758561951 15.3542548467
2849 1 14.1197 38.8786 14.1748 12 10.9607121292 1.7538711273 16.1747066954
2850 1 15.948 40.6317 14.0948 12 10.9033316372 1.7666993647 14.7080572283
2851 1 15.9816 38.7537 15.8259 12 11.0856508533 1.7666993647 15.6927884106
2852 1 14.1765 40.6116 15.8601 12 10.9723227873 1.7666993647 14.5140551279
2853 1 17.6393 38.824 14.0463 12 10.9215192085 1.7536057951 15.8108028922
2854 1 19.343 40.6046 14.0672 12 11.0671784488 1.775853374 14.6977137929
2855 1 19.3574 38.8064 15.9619 12 11.1829432806 1.775853374 15.5244888878
2856 1 17.7069 40.5496 15.893 12 10.84043452 1.7732421546 14.3961641884
2857 1 21.2364 38.9555 14.1831 12 11.3321317603 1.7667537495 16.0560671133
2858 1 23.1004 40.6251 14.0335 12 11.3299308977 1.7639405585 15.2355958849
2859 1 23.1046 38.9032 15.8904 12 10.7588538301 1.764462521 16.1537897687
2860 1 21.3036 40.595 15.8933 12 11.4506499057 1.775853374 14.5413636029
2861 1 24.6712 38.8137 14.0829 12 10.9134699776 1.755986359 16.5794268242
2862 1 26.4798 40.6991 13.9815 12 10.7232707909 1.7401361962 16.4012612012
2863 1 26.5528 38.9006 15.8088 12 11.1299483688 1.7935660461 17.0150357171
2864 1 24.7804 40.6068 15.8513 12 11.1587676829 1.7598360543 15.424295951
2865 1 28.2372 38.958 14.0702 12 10.6704600433 1.7438245106 17.7766162211
2866 1 29.9276 40.7028 14.1007 12 11.3797257197 1.7710947953 17.8570446188
2867 1 30.0364 38.8313 15.7573 12 11.2256724849 1.7709265156 18.3185594638
2868 1 28.1474 40.6684 15.767 12 10.9592952184 1.7902247536 16.7256265851
2869 1 31.9356 38.8545 14.1116 12 11.2816580453 1.77046663 19.4119737597
2870 1 33.6546 40.6256 14.0734 12 10.7045272011 1.7520896152 19.9344460401
2871 1 33.672 38.922 15.965 12 11.0586264454 1.7703015682 20.1851166612
2872 1 31.7967 40.6351 15.846 12 11.2684600061 1.77046663 18.5720709692
2873 1 35.3152 38.887 14.1422 12 11.1110377084 1.758723621 21.3056331623
2874 1 37.1524 40.6816 14.2473 12 11.4066509776 1.782157377 22.1313769845
2875 1 37.168 38.906 15.9848 12 11.0017516678 1.758723621 22.277263896
2876 1 35.3206 40.6648 15.8947 12 11.0042065758 1.7786070544 20.6900400614
2877 1 38.8895 38.8897 14.2319 12 11.1228265271 1.7659952199 23.5987601283
2878 1 40.6552 40.6325 13.9782 12 11.0669787774 1.7687514743 22.3987692911
2879 1 40.68 38.8825 15.8247 12 11.1393736552 1.7652649708 23.2148732045
2880 1 38.9821 40.6809 15.9125 12 10.9883516435 1.7438162777 23.1946070024
2881 1 0.0492953 42.3663 17.6835 12 11.1319772217 1.7339026227 19.3208772116
2882 1 1.71736 1.72401 17.7606 12 10.8095450991 1.7496748589 16.8996418624
2883 1 1.79471 42.2709 19.4041 12 10.6979683851 1.7413099478 18.0296774058
2884 1 0.0332266 1.71439 19.3992 12 10.7372824222 1.7335146798 18.0126497712
2885 1 3.4512 42.3481 17.6219 12 10.7377017007 1.7517147283 16.9455733029
2886 1 5.20225 1.67363 17.6986 12 11.0424845875 1.7745290096 14.4873202796
2887 1 5.18051 42.3297 19.3572 12 10.6941602715 1.749487718 15.777324074
2888 1 3.53986 1.64648 19.4246 12 10.7215018374 1.746783386 15.5252099894
2889 1 6.97445 42.366 17.6279 12 11.143917711 1.7812172542 14.8710062573
2890 1 8.93303 1.60806 17.5956 12 11.555564828 1.7927652515 12.4960682699
2891 1 8.88691 42.3112 19.4099 12 11.2460056626 1.7952214041 13.9265040775
2892 1 7.01454 1.68355 19.4026 12 11.3341751824 1.7894818114 13.2681503053
2893 1 10.6509 42.34 17.5562 12 10.9605001118 1.795991144 13.4226888487
2894 1 12.5116 1.65882 17.6783 12 11.3674525342 1.7927652515 11.2671928303
2895 1 12.5286 42.363 19.442 12 10.8185293378 1.795991144 12.8419965935
2896 1 10.6234 1.71876 19.4773 12 11.4239861131 1.795991144 11.5834130388
2897 1 14.2401 42.348 17.6538 12 10.7146282451 1.7626308058 12.6222462695
2898 1 15.9063 1.63723 17.6235 12 10.8436665875 1.7678221761 10.716468171
2899 1 15.9988 0.0304096 19.3661 12 10.9568408932 1.7381510496 12.1579140215
2900 1 14.1124 1.70577 19.5066 12 10.8041317072 1.7465600725 10.8685178028
2901 1 17.767 -0.00880518 17.563 12 10.7326776141 1.7678221761 12.2502632636
2902 1 19.4654 1.7948 17.5786 12 11.2626719666 1.7676866474 10.5271239623
2903 1 19.4482 0.021582 19.4437 12 11.0752826412 1.7646906029 12.0634093565
2904 1 17.7218 1.70255 19.4627 12 11.0920483637 1.7678221761 10.3112236135
2905 1 21.185 42.3538 17.7765 12 11.0423105049 1.7624873279 12.5992387485
2906 1 22.9642 1.70385 17.7087 12 11.1955575677 1.7738411096 11.2747026538
2907 1 23.0493 -0.0479857 19.4443 12 11.041906051 1.765467448 12.8493062343
2908 1 21.2434 1.71948 19.3942 12 11.0564373539 1.7658143222 10.7319185857
2909 1 24.7132 42.4132 17.7058 12 10.9936214808 1.7640291112 13.4075512496
2910 1 26.4698 1.73257 17.6446 12 11.0430853157 1.776078111 12.5815223996
2911 1 26.5699 42.3329 19.4129 12 11.1576798824 1.765467448 14.0798790433
2912 1 24.7702 1.8001 19.422 12 10.9944564844 1.765467448 11.6096873191
2913 1 28.1473 0.015321 17.5899 12 11.0443023338 1.7908893492 14.9026778152
2914 1 29.9884 1.68604 17.6844 12 10.8563380522 1.7662616169 14.5531761335
2915 1 29.9696 42.3487 19.4454 12 10.9980868187 1.7662616169 15.8863931067
2916 1 28.2617 1.68969 19.364 12 10.7802487303 1.7489815251 13.4518100992
2917 1 31.7096 0.0236565 17.6503 12 10.982870494 1.7643417705 16.9158459
2918 1 33.4931 1.69648 17.632 12 11.2916728467 1.7728238849 16.8117931377
2919 1 33.5111 0.0340263 19.3722 12 11.1980168796 1.7728177033 18.061795832
2920 1 31.6978 1.72326 19.4538 12 10.7155837059 1.7404121941 15.6156508645
2921 1 35.3668 -0.0161139 17.6524 12 11.4436097464 1.7789203852 19.3414233741
2922 1 37.1554 1.80212 17.553 12 11.0433866127 1.7698002507 19.3747703693
2923 1 37.0513 -0.0069555 19.5155 12 11.0847735539 1.7728177033 20.4402179481
2924 1 35.2858 1.81503 19.413 12 11.1594818754 1.7726805797 17.9036129774
2925 1 38.8228 42.3966 17.704 12 10.9044879841 1.7403377992 21.8102099981
2926 1 40.6468 1.6683 17.6326 12 11.0532247018 1.773014965 19.4512913981
2927 1 40.5147 0.0840226 19.4585 12 10.8803477001 1.7345257722 20.536888246
2928 1 38.782 1.7261 19.3726 12 10.883453895 1.7531765177 20.5742815048
2929 1 0.070899 3.55414 17.8446 12 10.6488475218 1.773014965 16.8127109089
2930 1 1.66789 5.16562 17.8409 12 10.8923310278 1.7690226667 14.5652522411
2931 1 1.78153 3.46758 19.4714 12 10.8690975307 1.722409641 15.5363446349
2932 1 42.3155 5.35374 19.4999 12 10.6862078014 1.7321032601 15.7520537572
2933 1 3.5054 3.55329 17.6754 12 10.8467953814 1.7690226667 14.3800446727
2934 1 5.24163 5.16848 17.6741 12 11.014892805 1.7866214478 12.0355383955
2935 1 5.17329 3.47267 19.4017 12 10.9877049955 1.764047989 13.0796502946
2936 1 3.59485 5.30387 19.5023 12 11.1668111074 1.7690226667 12.9555437318
2937 1 7.02563 3.48227 17.684 12 11.3060214043 1.7812172542 11.9560531997
2938 1 8.7188 5.2402 17.6396 12 10.8493109483 1.7808425751 9.5682570919
2939 1 8.80491 3.55524 19.4103 12 11.1174415731 1.7894818114 10.7204290619
2940 1 6.94919 5.17861 19.3799 12 10.9467672474 1.7501488281 10.6175109931
2941 1 10.5053 3.50002 17.6493 12 11.4848458568 1.7927652515 10.1367703913
2942 1 12.3595 5.20796 17.7136 12 11.2612225975 1.7850010353 7.9214640693
2943 1 12.2652 3.49083 19.4635 12 10.9958517464 1.7826244703 9.4112338023
2944 1 10.495 5.29566 19.387 12 11.0027634676 1.7462719703 8.3628599435
2945 1 14.0989 3.40593 17.7095 12 11.0181093331 1.7826428219 9.2249579511
2946 1 15.782 5.21904 17.6207 12 11.1605634538 1.753501383 7.1857306551
2947 1 15.8977 3.48847 19.3599 12 10.9815481091 1.7602716232 8.7735343728
2948 1 13.9982 5.15859 19.4551 12 10.9884575313 1.7471832032 7.467871989
2949 1 17.6148 3.51529 17.5942 12 11.2542297999 1.7678221761 8.786732402
2950 1 19.3831 5.23676 17.6567 12 11.0144875616 1.747128952 7.1182162577
2951 1 19.4719 3.56746 19.4905 12 11.0305286654 1.7658143222 8.5563973925
2952 1 17.6121 5.21603 19.4344 12 10.8418152374 1.7611253775 6.8170226828
2953 1 21.1388 3.51587 17.6579 12 11.0905328095 1.7795970266 9.1115118924
2954 1 22.8739 5.32919 17.685 12 11.1212277477 1.772060355 7.8541747106
2955 1 23.0048 3.54858 19.3773 12 10.9844384563 1.7738411096 9.3607211843
2956 1 21.2413 5.23248 19.4409 12 10.8582692576 1.7567543983 7.3025080809
2957 1 24.7723 3.47494 17.6042 12 11.3980382304 1.7763751666 10.2838463799
2958 1 26.5489 5.33753 17.6004 12 11.1895709232 1.7763751666 9.6005568344
2959 1 26.5812 3.50031 19.395 12 10.8105348355 1.7763751666 10.9995685651
2960 1 24.7675 5.30802 19.404 12 11.3173464738 1.7534509497 8.4891053325
2961 1 28.3239 3.50128 17.6455 12 10.9181700974 1.7763311569 12.1111836723
2962 1 29.9585 5.33273 17.6708 12 10.7739248206 1.7412794653 11.744678615
2963 1 30.0641 3.53353 19.3752 12 11.0120852764 1.7566886478 13.1829085627
2964 1 28.2089 5.2105 19.4271 12 10.8391423568 1.7432998327 10.7089367764
2965 1 31.8375 3.49703 17.6177 12 11.0303125868 1.7696835175 14.3699934603
2966 1 33.5124 5.27876 17.69 12 11.132566909 1.78510353 14.3617828757
2967 1 33.4607 3.4437 19.3642 12 10.8238177766 1.7684190657 15.462957408
2968 1 31.712 5.27664 19.2992 12 11.0307333781 1.7434126761 12.9308744791
2969 1 35.3728 3.52273 17.6113 12 11.3030357999 1.7728238849 16.9083349085
2970 1 37.0309 5.23318 17.6712 12 11.2317294406 1.7595978857 17.2017280513
2971 1 37.1108 3.41413 19.4828 12 10.9193925212 1.7459276737 18.2177272508
2972 1 35.257 5.19206 19.3716 12 11.3659407723 1.74938734 15.6676429161
2973 1 38.8945 3.51807 17.5212 12 11.039508456 1.7715301399 19.7044694943
2974 1 40.6981 5.20696 17.6655 12 11.0812515256 1.773014965 17.2749217405
2975 1 40.6057 3.49156 19.3828 12 10.9293954943 1.7711331746 18.2336222073
2976 1 38.8857 5.15779 19.4055 12 10.9780557176 1.7455431178 18.7262627251
2977 1 42.3587 7.08573 17.5797 12 10.9575709033 1.7729408987 14.9046581287
2978 1 1.64337 8.84392 17.611 12 10.9421490746 1.7616971185 12.5837545449
2979 1 1.56702 7.10059 19.4279 12 11.0927503308 1.7674252954 13.3839167538
2980 1 42.352 8.84967 19.3941 12 10.8911454855 1.7676173053 13.9804927469
2981 1 3.40064 7.08817 17.7483 12 11.8292545482 1.7866214478 12.0404310799
2982 1 5.27896 8.82386 17.6295 12 11.5287763057 1.7837603053 9.5505207509
2983 1 5.34432 7.01549 19.5104 12 11.191272472 1.7833744897 10.508375247
2984 1 3.49713 8.86174 19.4335 12 11.2667129624 1.7645006835 10.8092099782
2985 1 6.95757 7.02493 17.6361 12 11.0411639464 1.7866214478 9.5627655444
2986 1 8.77048 8.7743 17.7354 12 10.9500169645 1.767807184 7.0632974618
2987 1 8.66744 7.00846 19.41 12 11.1325140767 1.7656911429 8.1097026074
2988 1 6.94534 8.82872 19.3975 12 11.0479286577 1.767807184 8.0952419891
2989 1 10.4764 6.97805 17.6815 12 10.9166504999 1.7597732081 7.1734881764
2990 1 12.2887 8.72486 17.6361 12 11.2516464063 1.7888984638 4.8565477482
2991 1 12.3248 6.98803 19.4132 12 10.9145908177 1.7671149346 6.0514060669
2992 1 10.5495 8.77146 19.4029 12 11.1226771282 1.7690390993 5.5314337175
2993 1 14.0526 7.12741 17.6371 12 11.2173570143 1.7573174143 5.64470803
2994 1 16.0113 8.83059 17.7876 12 11.0297299224 1.7573174143 3.5730265742
2995 1 15.7914 6.96703 19.469 12 11.3510756316 1.7548251001 5.3817619287
2996 1 14.0829 8.7905 19.4403 12 11.1589308284 1.7690390993 3.8613642185
2997 1 17.6088 7.00013 17.718 12 10.9686924696 1.7548251001 5.3420314474
2998 1 19.3525 8.76019 17.7244 12 10.7029438625 1.7431412073 3.6394226525
2999 1 19.4112 6.93722 19.3823 12 10.8607060467 1.777097285 5.258598693
3000 1 17.7054 8.76807 19.4503 12 10.8133914243 1.7488170266 3.2886021338
3001 1 21.0711 7.0822 17.6854 12 10.8425373294 1.7707388762 5.6411351336
3002 1 23.0 8.86363 17.7309 12 10.9982852453 1.772060355 4.7854336256
3003 1 22.8977 7.05666 19.4142 12 11.2435587394 1.7718283743 6.0491142471
3004 1 21.1258 8.79125 19.3924 12 10.9758412243 1.7661048867 3.808561167
3005 1 24.7989 7.0716 17.6447 12 11.2359761314 1.772060355 7.2048735738
3006 1 26.5294 8.81166 17.5118 12 11.1321586228 1.7394587592 6.8793335723
3007 1 26.5114 7.21556 19.3689 12 10.9847199639 1.7477904539 8.0869556888
3008 1 24.6881 8.79818 19.5012 12 11.2353000616 1.7738216033 5.7043184157
3009 1 28.2784 7.09637 17.6567 12 10.8167114678 1.7443434666 9.3136248932
3010 1 29.9611 8.94463 17.7159 12 11.2423724284 1.7712918711 9.3519565062
3011 1 29.9021 7.01111 19.3926 12 10.8202068061 1.7423938494 10.424539186
3012 1 28.2076 8.87819 19.3808 12 10.917764372 1.769292359 7.9051274406
3013 1 31.7569 7.10594 17.6906 12 11.3124966467 1.78510353 11.8679300287
3014 1 33.6379 8.86019 17.7194 12 11.259007436 1.7848310981 12.4401092702
3015 1 33.5977 7.12807 19.5223 12 11.308200705 1.78510353 13.1938891511
3016 1 31.7599 8.78286 19.4301 12 10.9346782338 1.7714753759 10.7505304556
3017 1 35.3548 7.10031 17.6672 12 11.2360413835 1.7846985528 14.8069837877
3018 1 37.1782 8.80718 17.7562 12 11.2106968402 1.7714272218 15.6028082305
3019 1 37.0365 6.97014 19.5296 12 11.2714166494 1.7549142936 16.2316021894
3020 1 35.3241 8.81184 19.5237 12 10.8868546018 1.7713954597 13.8847196437
3021 1 38.8218 6.97025 17.7339 12 11.4166748026 1.7729408987 17.8872141761
3022 1 40.6217 8.76137 17.7433 12 11.1990657325 1.7759336692 15.7127840645
3023 1 40.5796 7.06643 19.4899 12 11.0020610706 1.7729408987 16.3476348272
3024 1 38.875 8.94219 19.3883 12 11.013687956 1.7709319531 17.120748231
3025 1 0.00243572 10.6104 17.701 12 11.0917149402 1.7755558753 13.4203310748
3026 1 1.72406 12.4439 17.7347 12 11.1082921376 1.7723501361 11.2583770805
3027 1 1.75726 10.6005 19.3969 12 11.0592244863 1.7645006835 11.6342821103
3028 1 42.3079 12.3964 19.585 12 10.8028192377 1.7723501361 13.0010635078
3029 1 3.4658 10.6064 17.6163 12 11.2580527978 1.7644146969 10.2199283029
3030 1 5.33768 12.2741 17.7199 12 11.047931914 1.7486740815 7.8869354151
3031 1 5.2981 10.6159 19.4741 12 10.9089125505 1.764494603 8.3756113186
3032 1 3.56272 12.3879 19.3147 12 11.1735409908 1.7692307565 9.3975423208
3033 1 7.06446 10.6004 17.6093 12 10.8692452292 1.7481645713 7.1339262523
3034 1 8.81827 12.3782 17.6598 12 11.1437871482 1.7553239053 4.8025976857
3035 1 8.84703 10.6352 19.4691 12 11.0935233598 1.767807184 5.4721142037
3036 1 7.10741 12.3139 19.397 12 11.040561007 1.7603574161 6.0228884041
3037 1 10.6282 10.5423 17.7125 12 10.9556180205 1.7891437905 4.5369335197
3038 1 12.2565 12.3321 17.7088 12 11.0500711454 1.7875897925 2.1655929906
3039 1 12.2389 10.6285 19.538 12 10.8948782283 1.7877477898 3.0294294345
3040 1 10.595 12.348 19.4143 12 10.8345717388 1.7519195987 3.027112158
3041 1 14.1984 10.6254 17.7613 12 11.3523151418 1.7888984638 2.4311208736
3042 1 15.9534 12.4475 17.7244 10 14.7290312094 3.2404359374 0.2229804851
3043 1 15.8651 10.6225 19.4258 12 11.0192358196 1.7784560757 1.7831646719
3044 1 13.9745 12.3029 19.4271 11 11.3461349357 2.2796893941 0.63075529
3045 1 17.7256 10.5238 17.6549 12 10.7858971908 1.7561034447 1.8927963523
3046 1 19.435 12.3587 17.7945 10 13.899949576 2.966351037 0.2024977965
3047 1 19.3462 10.5784 19.464 12 10.7141738922 1.7685251789 1.6911161467
3048 1 17.7049 12.3053 19.4463 8 22.302569599 4.0296578843 0.1953269497
3049 1 21.1856 10.5296 17.6853 12 10.9729469159 1.7685251789 2.5698312733
3050 1 22.9242 12.2279 17.7193 12 10.8889544355 1.7477817861 1.9182362141
3051 1 22.8924 10.5698 19.367 12 11.0987990251 1.773675294 3.1811471113
3052 1 21.1189 12.3805 19.5479 11 11.76009251 2.3943857234 0.6833133927
3053 1 24.7056 10.4966 17.6371 12 11.0139496063 1.7554999704 4.3954121313
3054 1 26.5515 12.2221 17.574 12 11.0907087526 1.7762581359 4.756110935
3055 1 26.4661 10.5662 19.4119 12 11.435391803 1.7752008703 5.4805938407
3056 1 24.7493 12.302 19.3588 12 11.1659377584 1.7763499882 3.0423112187
3057 1 28.2406 10.6238 17.5617 12 11.093096699 1.7649501267 7.0327698519
3058 1 30.0669 12.352 17.643 12 11.2685384234 1.764038767 7.6688443008
3059 1 30.0354 10.6555 19.4629 12 11.0975463495 1.7691969431 8.3198933025
3060 1 28.2962 12.4038 19.4104 12 11.4655984965 1.7901529901 6.0101133802
3061 1 31.8958 10.6703 17.7874 12 11.1143702089 1.7714753759 10.0439358764
3062 1 33.6495 12.3383 17.7596 12 11.087247179 1.7602704541 11.0293708885
3063 1 33.5708 10.5627 19.4898 12 10.7438732568 1.7569138093 11.5929448464
3064 1 31.8228 12.3284 19.5238 12 11.0019938217 1.7579939989 9.3682513166
3065 1 35.4395 10.6585 17.8272 12 11.0503003251 1.7714272218 13.2695147152
3066 1 37.1163 12.4172 17.7098 12 10.9883720059 1.7708025558 14.3676411739
3067 1 37.1474 10.5847 19.5185 12 11.0694877351 1.761681019 14.9549291687
3068 1 35.3942 12.4263 19.5175 12 10.9776938885 1.7587920997 12.7672260985
3069 1 38.8609 10.6673 17.6836 12 11.2015888329 1.7752833252 16.5016249378
3070 1 40.6054 12.4114 17.7345 12 11.1322567471 1.7723501361 14.6989913339
3071 1 40.5791 10.6307 19.4877 12 10.9705690803 1.7755558753 15.0646464756
3072 1 38.8279 12.4596 19.4945 12 11.1171880451 1.7453593634 16.0943589781
3073 1 42.3938 14.187 17.7734 12 10.8985400023 1.771735558 12.614905747
3074 1 1.7117 15.8665 17.6984 12 11.0711810124 1.7556225856 10.6579892844
3075 1 1.62679 14.1204 19.4707 12 10.9342027207 1.7634857632 11.0141864855
3076 1 42.3838 15.9988 19.4088 12 10.5266009577 1.7598534502 12.313218485
3077 1 3.53935 14.1797 17.6854 12 11.0902308822 1.7505305204 9.1019191015
3078 1 5.24123 16.0132 17.7105 12 10.6908041599 1.7350948035 7.1578752963
3079 1 5.25133 14.1817 19.4052 12 10.9252843863 1.7596688149 7.4221248334
3080 1 3.5964 15.902 19.3882 12 10.6921894224 1.7493921707 8.755642686
3081 1 6.97687 14.1436 17.6819 12 11.1432975044 1.7626789882 5.7673521783
3082 1 8.81376 15.8745 17.6599 12 11.1114035897 1.7926392824 3.6694579564
3083 1 8.82659 14.2058 19.5429 12 10.9317189963 1.7553239053 3.8888662738
3084 1 7.01172 15.8448 19.4211 12 10.978693707 1.7624264545 5.4079262486
3085 1 10.5428 14.2558 17.7759 12 11.1649318247 1.785434243 2.4450960641
3086 1 12.4193 15.9523 17.7807 10 14.0860567527 3.0203982052 0.1738630286
3087 1 12.3651 14.0887 19.4764 11 11.9035664945 2.4789878853 0.5471982443
3088 1 10.5584 15.9683 19.5427 12 11.1171640851 1.7444648192 1.9009353394
3089 1 14.2041 13.9588 17.6116 9 19.3667529096 4.1546958173 0.0723063268
3090 1 33.4373 38.8798 40.6955 12 11.0397637505 1.7576889135 26.9029830485
3091 1 33.5096 40.7111 38.8999 12 11.1053255874 1.7800266649 26.5676343474
3092 1 31.7787 38.7953 38.7885 12 11.1846099519 1.7800266649 26.5790932645
3093 1 28.2359 40.6177 40.5321 12 11.1807913503 1.7895065136 24.1902181946
3094 1 30.0717 38.8907 40.6464 12 11.1389205463 1.7385466595 25.6545230856
3095 1 29.9624 40.6672 38.8268 12 11.3678866222 1.7800266649 24.8348240085
3096 1 28.2432 38.8036 38.8413 12 11.1201949336 1.7728058125 25.1342429104
3097 1 21.2229 14.0062 17.7721 8 20.6911858457 4.284880291 0.425691656
3098 1 22.9047 15.8129 17.6801 9 16.6123302382 3.6084284784 0.1706908556
3099 1 22.9166 14.0335 19.4616 11 11.5328995723 2.3353370572 0.5296861958
3100 1 24.6298 40.6668 40.5084 12 11.4340563586 1.7897797215 23.4064277445
3101 1 24.7053 14.0033 17.6831 12 11.3724031199 1.7761753962 2.2121365104
3102 1 26.4272 15.8646 17.6527 12 10.9692444761 1.7646497237 3.3185035085
3103 1 26.502 14.1967 19.3714 12 11.0563990754 1.7827889535 3.7600510842
3104 1 24.8234 15.8137 19.4247 12 11.049290565 1.7576561746 1.8172917057
3105 1 28.2324 14.1253 17.6368 12 11.4461884497 1.7837027302 5.3426113457
3106 1 30.0778 15.9744 17.6645 12 11.1539051056 1.7666909175 6.9377835592
3107 1 30.0867 14.1338 19.5104 12 11.5785562517 1.7837027302 7.2562560062
3108 1 28.2833 15.9924 19.4459 12 11.2357547047 1.7837027302 5.2014793949
3109 1 31.7492 14.1014 17.5852 12 11.2325111123 1.7666909175 8.7865215553
3110 1 33.4727 15.8508 17.6449 12 10.943997589 1.7600880545 10.3242359021
3111 1 33.5014 14.2153 19.4056 12 11.1850995137 1.7590671482 10.5749831708
3112 1 31.7861 15.9594 19.5061 12 11.052170729 1.7550615583 8.6609903586
3113 1 35.2615 14.1812 17.7368 12 10.938072361 1.7602704541 12.2488563509
3114 1 37.107 15.8956 17.7997 12 10.7883462936 1.7593189267 13.9247323619
3115 1 37.0487 14.1873 19.5244 12 10.8887013498 1.7452721413 14.0870134141
3116 1 35.2447 16.0059 19.448 12 11.0196318166 1.7570755301 12.0671879757
3117 1 38.8092 14.2019 17.8022 12 10.8832542028 1.773814174 15.7746817694
3118 1 40.6173 15.955 17.6672 12 10.8900390292 1.7594125082 14.1166071131
3119 1 40.6039 14.2319 19.4814 12 10.8124464775 1.7529546081 14.3813641726
3120 1 38.8607 15.9883 19.4689 12 10.8527423454 1.7594125082 15.6551422954
3121 1 -0.00260192 17.6919 17.8226 12 11.0913796986 1.7882087247 12.1541230869
3122 1 1.82483 19.3878 17.7537 12 11.0598662092 1.7877681072 10.4183722507
3123 1 1.85246 17.662 19.4767 12 10.7245918649 1.7633049974 10.2573424205
3124 1 0.076907 19.5404 19.5093 12 10.9156930565 1.7851647143 12.1099217079
3125 1 3.49259 17.7585 17.735 12 10.8317329723 1.7556225856 8.6935024396
3126 1 5.1906 19.3745 17.6149 12 11.1992322606 1.7695422043 7.1372313963
3127 1 5.20711 17.5985 19.5863 12 10.7328530714 1.7605462966 6.9257291202
3128 1 3.59932 19.494 19.445 12 10.8488293305 1.7632804356 8.6162628276
3129 1 7.00983 17.686 17.6796 12 11.0947616592 1.7914085967 5.2507434443
3130 1 8.77456 19.4527 17.8059 12 11.2948242917 1.7926392824 3.6180772547
3131 1 8.77715 17.67 19.5745 12 11.097383085 1.7926392824 3.3827603613
3132 1 6.97188 19.4096 19.4491 12 11.3156429431 1.7677533178 5.294629486
3133 1 10.6512 17.7152 17.7262 12 11.2403803394 1.7926392824 1.6751823214
3134 1 12.3443 19.4429 17.5921 10 12.8345091655 2.7619455645 0.1550127713
3135 1 12.4751 17.6374 19.3554 8 24.5700344946 4.2508721025 0.288130243
3136 1 10.5231 19.4324 19.4665 12 11.1836345978 1.7653425358 1.8314857705
3137 1 26.4399 38.9363 40.6301 12 11.1642927701 1.7897797215 24.4819568611
3138 1 26.5993 40.7071 38.8822 12 11.032448295 1.7892196457 23.5883829323
3139 1 24.7048 38.9978 38.844 12 10.8614900573 1.7728058125 24.1903521576
3140 1 21.2463 40.6039 40.6611 12 10.803834162 1.731194158 23.1154690936
3141 1 22.8488 38.8045 40.5846 12 10.6908773392 1.7414246311 23.6509620939
3142 1 22.9536 40.6975 38.8415 12 10.8417227854 1.7597754024 22.6513284459
3143 1 21.2373 38.9905 38.786 12 11.0599072657 1.7493409732 23.4242657555
3144 1 17.6792 40.7705 40.5516 12 10.9931830567 1.7678457843 22.9923825062
3145 1 19.4145 38.8436 40.5401 12 11.1322903615 1.7696499472 23.4553488533
3146 1 22.9809 19.5156 17.5109 8 21.842318919 4.2335173322 0.3043467016
3147 1 22.8876 17.7499 19.1933 8 28.4985650829 4.8313701589 0.3769118558
3148 1 19.5388 40.6827 38.8042 12 11.1341038755 1.7457409342 22.1112744936
3149 1 24.7479 17.5155 17.6365 12 11.1561385647 1.7576781714 1.5147968956
3150 1 26.499 19.5179 17.5639 12 10.9513625252 1.7576781714 3.2028463309
3151 1 26.5184 17.7253 19.383 12 11.0074214348 1.74520941 3.2244272029
3152 1 24.7189 19.5721 19.3039 12 11.1428797432 1.7576781714 1.6281114283
3153 1 28.2882 17.7058 17.74 12 10.6797646359 1.74520941 5.0152921866
3154 1 30.0479 19.4281 17.6037 12 10.8104723479 1.7736784769 6.7457718962
3155 1 29.9933 17.7198 19.4028 12 10.8594486764 1.7527583485 6.6662118367
3156 1 28.2807 19.4718 19.2847 12 10.8770997513 1.7425891004 5.0872363799
3157 1 31.8637 17.625 17.6953 12 10.9266911013 1.7545669528 8.58232785
3158 1 33.5545 19.4421 17.6298 12 11.0419530521 1.7555666541 10.2497972698
3159 1 33.5674 17.6752 19.4878 12 10.8230060093 1.7485879481 10.2345853315
3160 1 31.8255 19.4623 19.3998 12 11.0569871962 1.7569079893 8.5777768551
3161 1 35.3476 17.6462 17.7277 12 11.104035965 1.751214702 12.047500987
3162 1 37.1385 19.5707 17.7304 12 10.7005354219 1.75251854 13.8335291959
3163 1 37.1638 17.6393 19.4678 12 11.0414483051 1.7587293167 13.823492904
3164 1 35.289 19.4922 19.3737 12 11.1638620536 1.7543347366 12.0117040358
3165 1 38.7638 17.8205 17.6908 12 10.840785464 1.7594125082 15.4483196017
3166 1 40.631 19.6238 17.6823 12 11.1832992955 1.7882087247 14.0235993172
3167 1 40.6888 17.7392 19.4106 12 11.0318199179 1.7592216965 13.8321730181
3168 1 38.8922 19.501 19.4504 12 11.0026682713 1.7592216965 15.5994295248
3169 1 0.0767985 21.2571 17.6906 12 11.0491336406 1.7882087247 12.4764058035
3170 1 1.75126 22.9204 17.6414 12 10.8192213424 1.7415282806 11.2286488847
3171 1 1.86322 21.1869 19.4637 12 10.622356864 1.7633049974 10.6483957403
3172 1 0.0194036 22.9605 19.3937 12 10.6724262208 1.7402644064 12.8143691167
3173 1 3.48512 21.1677 17.5803 12 10.868317802 1.7378092647 9.1502817737
3174 1 5.22329 22.9173 17.6238 12 11.0152859873 1.7635619574 7.9550773465
3175 1 5.27818 21.2273 19.3834 12 11.0463338826 1.7677533178 7.3114940933
3176 1 3.44446 22.932 19.408 12 10.7470221719 1.7411765899 9.4889053968
3177 1 6.93952 21.257 17.5714 12 11.3708175064 1.7729215334 5.8163549031
3178 1 8.83691 22.9839 17.7299 12 10.8782957777 1.7729215334 4.7988286315
3179 1 8.80517 21.1968 19.4888 12 11.0283457306 1.7698884114 3.8601536553
3180 1 7.07425 22.9782 19.3883 12 11.0280072249 1.7672483095 6.1204135015
3181 1 10.5243 21.3002 17.6384 12 10.8274716078 1.7709896634 2.554517622
3182 1 12.3413 22.855 17.6667 12 10.8916958401 1.7363570564 1.8485281742
3183 1 12.422 21.0573 19.2583 11 12.1094045668 2.4898689442 0.6637618027
3184 1 10.5929 22.8743 19.4325 12 11.0673158286 1.7415357483 3.247385241
3185 1 14.0994 21.1244 17.6099 8 24.1422961255 4.8017344067 0.5384954072
3186 1 15.9086 22.8358 17.7063 9 17.7460715384 4.1646628154 0.2073408337
3187 1 17.7197 38.9832 38.795 12 10.9583510627 1.7511853467 23.1448502796
3188 1 14.0762 22.9378 19.3911 11 11.8731519795 2.3056828704 0.6060297608
3189 1 14.0662 40.5268 40.6937 12 10.8603965268 1.7674334831 23.3433888026
3190 1 19.269 22.9563 17.4637 8 22.7456148743 4.5240437504 0.2878830584
3191 1 15.9481 38.9397 40.557 12 11.0241017995 1.7672179597 23.4231940814
3192 1 17.7582 23.0075 19.4129 8 23.7712905833 4.8226620038 0.2506218413
3193 1 15.8628 40.6731 38.8452 12 11.0331670786 1.7678457843 22.1410543455
3194 1 22.7713 22.7584 17.6158 11 11.8321983079 2.4922564491 0.6697424615
3195 1 22.8937 21.197 19.3178 10 13.4943547653 2.9651965256 0.2276560969
3196 1 21.0917 22.8301 19.2871 10 14.6358102538 3.2325378777 0.1736419407
3197 1 24.754 21.2381 17.5722 12 10.8640686706 1.7448580103 1.8041211724
3198 1 26.4862 22.9579 17.5026 12 10.9981796812 1.767385745 3.9427444961
3199 1 26.4174 21.2182 19.3562 12 11.1062332745 1.743270174 3.5788113633
3200 1 24.6414 22.9646 19.3975 12 11.1784694749 1.7480767759 2.600573318
3201 1 28.3022 21.2149 17.5054 12 10.7813189023 1.7735515959 5.1956792159
3202 1 29.9982 22.9651 17.6396 12 10.9901175395 1.7816316229 7.3106689138
3203 1 30.0313 21.1686 19.3813 12 11.1018971102 1.7816316229 7.1036580145
3204 1 28.1976 22.9165 19.3364 12 11.1977452043 1.7816316229 5.7125563858
3205 1 31.8412 21.2726 17.6975 12 10.9041599727 1.7736784769 8.6919370752
3206 1 33.4736 23.0135 17.6995 12 10.946420717 1.7779919503 10.6526752029
3207 1 33.5344 21.3032 19.4433 12 10.7745442406 1.7569079893 10.5568256154
3208 1 31.7647 22.9786 19.4196 12 11.0918184325 1.7816223554 9.1513449414
3209 1 35.3757 21.2416 17.6519 12 10.8624564377 1.7771442613 12.1869765048
3210 1 37.0629 23.0093 17.6743 12 11.0204870963 1.7777520679 14.1274158601
3211 1 37.0774 21.2435 19.4196 12 11.1168291411 1.7587150532 14.009893199
3212 1 35.2295 22.9646 19.3525 12 10.9748619264 1.7779919503 12.4963040673
3213 1 38.8607 21.2072 17.5805 12 11.0482023632 1.7527285109 15.6486563021
3214 1 40.7143 23.0141 17.6848 12 11.1256421657 1.7498903271 14.5959525849
3215 1 40.6956 21.2362 19.5013 12 10.7994529011 1.7527285109 14.1729393026
3216 1 38.8826 22.9998 19.3569 12 11.3584185702 1.8074345151 16.0647053622
3217 1 42.4022 24.6744 17.804 12 10.889578535 1.7687560458 13.4130898329
3218 1 1.77198 26.4299 17.7547 12 11.0986636026 1.7689766915 12.5313239708
3219 1 1.77858 24.7238 19.4826 12 10.7511609843 1.7457666418 11.6643875802
3220 1 42.3869 26.5123 19.3944 12 10.8408590539 1.7673721179 14.0586951892
3221 1 3.48629 24.6933 17.6209 12 11.0469926943 1.7664263631 10.2442233863
3222 1 5.2863 26.5296 17.6053 12 11.2312584324 1.7869619717 9.6754202675
3223 1 5.27281 24.6799 19.4044 12 11.1834748911 1.7664263631 8.52507478
3224 1 3.49395 26.4097 19.4169 12 11.0076099359 1.7505366596 10.9596828093
3225 1 7.10514 24.7354 17.6443 12 11.0548264435 1.7863424034 7.1708438551
3226 1 8.85783 26.5421 17.7055 12 10.9668475761 1.7869619717 6.910774955
3227 1 8.84799 24.808 19.4007 12 11.0315760138 1.7632474968 5.8362274946
3228 1 7.02791 26.5024 19.4723 12 10.9578349094 1.7869619717 8.3183856326
3229 1 10.6263 24.7468 17.7287 12 11.0679961441 1.7376312411 4.3919532012
3230 1 12.4016 26.5207 17.4935 12 10.7514357162 1.7410425517 4.7725891144
3231 1 12.3858 24.7298 19.3468 12 11.1431899562 1.7575838619 3.0681735248
3232 1 10.7203 26.4875 19.3315 12 10.9526338089 1.7752482474 5.4878746955
3233 1 14.1834 24.753 17.6581 12 11.1336555219 1.7575838619 2.3335503448
3234 1 15.9111 26.5105 17.665 12 11.2529144006 1.7782713254 3.4108182434
3235 1 15.9216 24.599 19.4282 12 11.250495616 1.7784844487 1.6336216698
3236 1 14.1868 26.4735 19.3815 12 11.2000752113 1.7575838619 3.8413186399
3237 1 17.6086 24.7608 17.6176 12 10.9250393677 1.7583695442 1.5241644182
3238 1 19.4652 26.4172 17.6283 12 11.1931333689 1.7649477147 3.1545745
3239 1 19.4322 24.6532 19.3827 12 11.0318888417 1.747031518 1.509855206
3240 1 17.6694 26.4947 19.49 12 11.3966629909 1.7598571238 3.1954695403
3241 1 21.2546 24.674 17.6961 12 11.0490720485 1.7776840024 1.8601918208
3242 1 22.9499 26.5027 17.7834 12 10.9896515118 1.7948375847 4.1400298934
3243 1 22.8448 24.6145 19.429 12 11.1192490878 1.7490550458 2.5871638392
3244 1 21.1492 26.4797 19.4472 12 10.8094287907 1.7514840398 3.6244000185
3245 1 24.6382 24.6529 17.664 12 11.3903113217 1.7710201651 3.2651231905
3246 1 26.4706 26.4924 17.6064 12 10.9869603573 1.76980002 5.8457907913
3247 1 26.4424 24.6063 19.3713 12 11.0701973392 1.7674730108 4.9196139081
3248 1 24.6805 26.454 19.3368 12 10.9247087504 1.7689153535 5.0519869494
3249 1 28.2 24.7723 17.576 12 10.8273891329 1.766218846 6.1848874585
3250 1 29.9076 26.5263 17.707 12 10.7564336483 1.7395038059 8.5285988098
3251 1 29.9204 24.7606 19.362 12 10.993229092 1.7813532932 7.9565456085
3252 1 28.1013 26.4776 19.385 12 10.7597413122 1.7464240817 7.2807116039
3253 1 31.665 24.7556 17.7422 12 10.983746454 1.7634592376 9.4256777683
3254 1 33.5801 26.5171 17.6806 12 11.1760574743 1.7611778286 11.8147901922
3255 1 33.5405 24.8195 19.5104 12 11.3489449563 1.7589852428 11.3719445448
3256 1 31.8021 26.4728 19.4549 12 10.8349513165 1.7541177549 10.3637968704
3257 1 35.4189 24.7995 17.7283 12 11.1695371146 1.7779919503 13.0269684699
3258 1 37.0757 26.5648 17.6907 12 11.2086585917 1.7664968068 15.1260907762
3259 1 37.0145 24.6369 19.5011 12 11.2825064458 1.7568729534 14.6401603703
3260 1 35.3593 26.5451 19.448 12 11.0950653751 1.76343553 13.6303676339
3261 1 38.8877 24.6665 17.5912 12 11.2771283231 1.743282098 16.3000511426
3262 1 40.6655 26.4929 17.6792 12 11.1954099261 1.7689766915 15.6989062355
3263 1 40.6197 24.7122 19.4822 12 10.9379970164 1.7731210425 15.0264482432
3264 1 38.8642 26.4326 19.4289 12 11.3992605328 1.7615083534 16.9075433312
3265 1 42.3137 28.2726 17.7119 12 10.9044772386 1.7689766915 15.0815480005
3266 1 1.63948 30.0271 17.6585 12 10.9459195745 1.7658410811 14.6771343379
3267 1 1.61788 28.3116 19.4493 12 10.8916728554 1.7569174219 13.5918633823
3268 1 42.3635 29.9867 19.5053 12 10.6343647995 1.7677183426 15.9394584295
3269 1 3.49816 28.3161 17.6507 12 10.9955854248 1.7656301021 12.1647429917
3270 1 5.16915 30.0356 17.6213 12 10.7923883751 1.7658410811 11.9914280987
3271 1 5.25773 28.2463 19.3516 12 10.8488025153 1.7430818885 10.7871996671
3272 1 3.43787 29.9879 19.4151 12 10.8272270573 1.7658410811 13.3048833605
3273 1 7.02207 28.3491 17.7101 12 11.0638142447 1.7869619717 9.48529464
3274 1 8.81911 29.9293 17.65 12 10.7620575558 1.7518749062 9.5013509528
3275 1 8.82065 28.2474 19.4032 12 11.0205911885 1.7518459931 8.0731120016
3276 1 7.01636 30.0917 19.4381 12 10.6745125662 1.7500675069 10.6525460451
3277 1 10.567 28.2065 17.5496 12 10.9290548013 1.7376312411 7.1457058611
3278 1 12.2611 29.957 17.5477 12 10.9730564931 1.7593487531 7.7762100736
3279 1 12.4158 28.2356 19.3745 12 11.0066368717 1.7595447105 6.0622331585
3280 1 10.6425 30.0391 19.2835 12 10.8698489003 1.7595447105 8.4397714506
3281 1 14.0776 28.232 17.6456 12 10.9379064363 1.7782713254 5.4758180409
3282 1 15.9264 30.0614 17.6545 12 11.0441867271 1.7782713254 6.9436617545
3283 1 15.8451 28.3212 19.3697 12 11.1331355385 1.7779440368 5.2797036439
3284 1 14.1497 30.1596 19.1996 12 11.0718399981 1.7595447105 7.3804506873
3285 1 17.6938 28.3609 17.7181 12 11.1210597971 1.7771307354 5.0989133421
3286 1 19.5212 29.9286 17.6004 12 10.8381387023 1.7407696557 6.6356571717
3287 1 19.4445 28.2579 19.4083 12 11.0394415123 1.7677261009 5.0524687415
3288 1 17.6553 29.9909 19.4554 12 11.3032914306 1.7497244484 6.6720596537
3289 1 21.1498 28.1106 17.6746 12 10.8706139199 1.7944362846 5.1647086306
3290 1 22.8533 30.0875 17.6587 12 11.023681396 1.7948375847 7.5006209156
3291 1 22.904 28.1808 19.5131 12 10.8241212462 1.7948318933 5.7008190394
3292 1 21.2159 29.9796 19.4788 12 11.148409792 1.7402345878 7.0694875452
3293 1 24.7461 28.2638 17.7136 12 10.9599424129 1.7948375847 6.4939160405
3294 1 26.4494 29.9864 17.5594 12 11.0294787592 1.7439795611 8.7734352654
3295 1 26.4514 28.2437 19.4203 12 10.5671995876 1.7439795611 7.4922676441
3296 1 24.6298 29.9072 19.345 12 11.1496550589 1.7439795611 7.9680112255
3297 1 28.2034 28.3301 17.7502 12 10.7065569534 1.7372723393 8.3737209107
3298 1 30.0664 29.8887 17.6507 12 11.1049345016 1.764685382 10.7791183732
3299 1 30.0491 28.1465 19.4613 12 10.8371008163 1.760870964 9.790601128
3300 1 28.2878 29.8565 19.429 12 10.8968562583 1.764685382 9.8147850195
3301 1 31.7967 28.2272 17.7018 12 10.7543951842 1.7409100107 11.0358029915
3302 1 33.4683 29.9725 17.6237 12 11.1855419669 1.7810186737 13.4039978161
3303 1 33.4638 28.2495 19.4949 12 10.7839511687 1.7605390611 12.6327232677
3304 1 31.8044 30.0271 19.4389 12 10.8949364179 1.764685382 12.2969034333
3305 1 35.2813 28.2699 17.6679 12 11.2886345706 1.7810499328 14.0830011248
3306 1 37.0526 30.093 17.719 12 11.1020074663 1.7810499328 16.4977463973
3307 1 37.1234 28.2929 19.4831 12 11.0410687975 1.7643834141 15.8986635772
3308 1 35.3276 30.0431 19.4621 12 11.0302157895 1.7807534586 15.1204227009
3309 1 38.8247 28.3209 17.6806 12 11.0982609486 1.7664066597 17.3547996512
3310 1 40.5703 29.9923 17.769 12 10.8547143032 1.7512201096 17.465849848
3311 1 40.6293 28.2347 19.4382 12 10.8537812851 1.7615089412 16.4188888611
3312 1 38.8624 30.0556 19.5534 12 10.9881646572 1.7542350891 18.2063936022
3313 1 42.2928 31.7451 17.8289 12 11.2992919309 1.7681848542 17.1218580198
3314 1 1.7323 33.5126 17.6441 12 11.0969579842 1.7681848542 16.8761455723
3315 1 1.79771 31.7381 19.4553 12 10.9219218048 1.7509680732 15.6831940348
3316 1 -0.00413049 33.6265 19.4929 12 11.0530109379 1.7651545578 18.2663511906
3317 1 3.44317 31.8503 17.7261 12 11.0419937925 1.7658410811 14.4894249647
3318 1 5.28788 33.5401 17.5729 12 10.8680786513 1.7457322646 14.4878812832
3319 1 5.30106 31.8076 19.4136 12 10.9767769874 1.7444305431 13.0788808423
3320 1 3.48581 33.5998 19.3829 12 10.9505576239 1.7694480612 15.6299050474
3321 1 7.01848 31.6852 17.6632 12 10.6612502919 1.7369909547 11.9644889835
3322 1 8.77438 33.5294 17.6968 12 10.7779133676 1.7267881229 12.5250802747
3323 1 8.83108 31.7505 19.3155 12 10.9296803693 1.7518749062 10.8249917494
3324 1 7.06943 33.5467 19.3796 12 10.9659376186 1.7500998157 13.2910740406
3325 1 10.675 31.8001 17.6236 12 10.8480135675 1.7267881229 10.1351568834
3326 1 12.4259 33.569 17.5641 12 10.8654330939 1.761777674 11.0589617222
3327 1 12.387 31.7587 19.4048 12 10.7629066917 1.7590730238 9.4000884712
3328 1 10.7125 33.5427 19.3604 12 11.1364514387 1.8019654055 11.6283463411
3329 1 14.0924 31.8673 17.5517 12 10.9974285937 1.7645554067 8.9738482439
3330 1 16.0016 33.5627 17.6242 12 11.2672541645 1.7645554067 10.4251993543
3331 1 15.9168 31.7527 19.484 12 11.3769746848 1.7577655769 8.6424572288
3332 1 14.0518 33.5196 19.3932 12 11.1351810669 1.7645554067 10.6835787231
3333 1 17.7263 31.7932 17.4758 12 11.1094482855 1.7538256585 8.5223692183
3334 1 19.5902 33.6267 17.6453 12 10.7163200908 1.7498164594 10.3262651451
3335 1 19.4353 31.6705 19.2972 12 11.2431240432 1.7518459365 8.4085968622
3336 1 17.7629 33.4558 19.3622 12 11.285893679 1.7810274884 10.1244003311
3337 1 21.2063 31.7509 17.7157 12 10.7803953634 1.7590026056 8.7196359787
3338 1 22.887 33.5814 17.5996 12 11.031220844 1.7626229219 10.8954214076
3339 1 22.9241 31.7865 19.4998 12 11.192094027 1.7626229219 9.1620979837
3340 1 21.1111 33.5205 19.4585 12 10.7577203653 1.7566909816 10.5258140888
3341 1 24.6173 31.7856 17.7072 12 11.0819032274 1.7444390176 9.6526977165
3342 1 26.4828 33.6759 17.5248 12 11.0810060016 1.7552146525 12.129949168
3343 1 26.5248 31.7186 19.3412 12 11.5825236556 1.7497102802 10.4476423504
3344 1 24.822 33.5393 19.3839 12 10.9758005929 1.7626229219 11.374855138
3345 1 28.3244 31.753 17.646 12 11.6793138798 1.7915766652 11.2190322341
3346 1 29.9716 33.5919 17.7594 12 11.3218702731 1.7697743473 13.650123168
3347 1 29.9806 31.8251 19.3669 12 11.1205359999 1.764685382 12.3517479269
3348 1 28.1666 33.6006 19.4667 12 11.107087136 1.7786530152 12.8902106749
3349 1 31.7832 31.7653 17.6528 12 11.27068221 1.7660324327 13.3217242289
3350 1 33.4937 33.5951 17.5582 12 11.3403061821 1.7660324327 15.8251651871
3351 1 33.5355 31.8246 19.4385 12 11.1559182543 1.7620557155 14.7561053741
3352 1 31.8401 33.6058 19.4337 12 11.086777201 1.7651389413 14.8818661244
3353 1 35.2342 31.8309 17.6757 12 11.3269477253 1.7810499328 15.9324642924
3354 1 37.0573 33.4578 17.7344 12 10.9184079849 1.7587923418 18.3712633591
3355 1 37.0134 31.7495 19.525 12 10.8558544939 1.7455653646 17.4527543822
3356 1 35.3294 33.6573 19.4469 12 11.3428479165 1.7598540904 17.2964329288
3357 1 38.8029 31.7576 17.6786 12 11.0735136118 1.7519338295 18.8447628146
3358 1 40.6308 33.6253 17.8053 12 11.3883718263 1.7728720546 19.5965417063
3359 1 40.6249 31.7745 19.5429 12 10.7868359321 1.7515211939 18.41249242
3360 1 38.7441 33.5056 19.4853 12 10.9194053864 1.7642177177 19.8552596016
3361 1 0.0610227 35.3686 17.7551 12 10.9269856582 1.7671092811 19.3631424262
3362 1 1.72449 37.1147 17.6504 12 10.7782047758 1.7524359024 19.4864807118
3363 1 1.83119 35.3825 19.4614 12 10.9546477834 1.753573711 18.060145758
3364 1 42.3963 37.1855 19.3806 12 11.0102351856 1.753573711 20.6475645724
3365 1 3.48367 35.4039 17.6324 12 10.9597753955 1.7461244712 17.0544889487
3366 1 5.40899 37.0522 17.6142 12 11.1437683755 1.7738317684 17.2371756535
3367 1 5.25275 35.2431 19.3053 12 11.0017646532 1.7738296245 15.72604946
3368 1 3.54887 37.0591 19.4572 12 11.1968141482 1.7738317684 18.1993544692
3369 1 7.06863 35.344 17.7082 12 10.8064324087 1.741359596 14.9196331023
3370 1 8.82354 37.1409 17.7423 12 11.0165140879 1.7473296485 15.7223890514
3371 1 8.97837 35.2968 19.335 12 10.9613711164 1.767840015 13.9014555426
3372 1 7.08897 36.9703 19.5184 12 11.2503559232 1.7738317684 16.2257333098
3373 1 10.5864 35.2401 17.5554 12 10.8288683453 1.757013662 13.2785368088
3374 1 12.4027 37.0738 17.665 12 11.1936561811 1.7722681597 14.4232293265
3375 1 12.4484 35.2757 19.453 12 11.1218276285 1.757013662 12.7540966162
3376 1 10.6359 37.0697 19.3634 12 11.1511515776 1.7515692699 14.9824953138
3377 1 14.152 35.3847 17.5746 12 11.0810500918 1.7645554067 12.4220837327
3378 1 16.0335 37.0998 17.7138 12 11.1272459392 1.7616916375 13.9420670171
3379 1 15.8173 35.3089 19.3978 12 11.0849663572 1.7810274884 12.16611727
3380 1 14.1092 37.1163 19.3936 12 10.7681887894 1.7578845057 14.1990865621
3381 1 17.7787 35.2815 17.5698 12 11.0256186672 1.7810274884 11.9892614034
3382 1 19.4106 37.1351 17.703 12 10.972853535 1.7381065593 13.8189809294
3383 1 19.47 35.2259 19.3982 12 10.7231678743 1.7747942358 11.9469552279
3384 1 17.6752 37.0178 19.4016 12 10.8882662911 1.7807932244 13.686779647
3385 1 21.1491 35.3745 17.6089 12 10.7967365562 1.7386737404 12.2555780491
3386 1 23.0915 37.2293 17.6361 12 10.9009656465 1.7484932805 14.4811536499
3387 1 22.8952 35.2925 19.3806 12 10.9928440948 1.7626229219 12.586659411
3388 1 21.2649 37.0573 19.3788 12 11.0725527077 1.7655857554 14.0221008741
3389 1 24.6612 35.2903 17.7588 12 10.8265830899 1.744069169 12.9919660811
3390 1 26.3915 37.0103 17.7557 12 11.1577710793 1.7935660461 15.1671926255
3391 1 26.4825 35.2917 19.4594 12 10.4872788575 1.778933286 13.6251700526
3392 1 24.7575 37.0969 19.4335 12 10.5894227622 1.7387746263 14.7505751491
3393 1 28.219 35.4075 17.6331 12 10.9974266671 1.7785232674 14.4341713452
3394 1 29.9901 37.1348 17.6002 12 11.0331191066 1.7698340353 16.7504094355
3395 1 30.0337 35.3282 19.3319 12 11.0444681637 1.778933286 15.285500003
3396 1 28.2252 37.1607 19.5199 12 10.7078111337 1.778933286 16.0627411922
3397 1 31.908 35.3597 17.5167 12 11.1998197314 1.7650024877 16.1927643868
3398 1 33.4534 37.1831 17.6385 12 11.0151911262 1.7706308869 18.5749036782
3399 1 33.615 35.4539 19.3103 12 11.2367978897 1.760395339 17.4017635061
3400 1 31.715 37.0803 19.3205 12 10.8858428328 1.7501958824 17.6306772086
3401 1 35.3839 35.3388 17.5395 12 11.2263905625 1.7706308869 18.3913657922
3402 1 37.0645 37.1492 17.5328 12 10.8100033536 1.7651960125 20.8611538454
3403 1 37.0866 35.3355 19.39 12 10.9870959516 1.7642177177 19.7054612812
3404 1 35.4065 37.0358 19.3878 12 11.1531267311 1.7696743854 19.7604442201
3405 1 38.7998 35.2879 17.7055 12 10.9273140811 1.762451305 20.8749894549
3406 1 40.6446 37.0729 17.6696 12 11.0491515186 1.7652649708 21.8702642969
3407 1 40.6051 35.3709 19.447 12 11.1605184383 1.7642177177 20.7693292983
3408 1 38.8062 37.105 19.3155 12 11.1201178914 1.762008131 22.1519196366
3409 1 0.00470044 38.9083 17.6263 12 10.9035950737 1.7652649708 21.7825757168
3410 1 1.79476 40.5077 17.6654 12 10.880347601 1.7637889435 19.4042273717
3411 1 1.74304 38.8832 19.4024 12 10.8395299797 1.753573711 20.6022307209
3412 1 -0.0143285 40.635 19.447 12 10.851857247 1.731750103 20.4655850802
3413 1 3.56148 38.834 17.6101 12 11.0449182548 1.7513591423 19.656931814
3414 1 5.29463 40.582 17.5923 12 10.8274657817 1.753063444 17.2588591128
3415 1 5.27545 38.7922 19.4688 12 11.24719558 1.7738317684 18.6936106898
3416 1 3.5477 40.5262 19.3748 12 10.7935900487 1.7515527173 18.1988431813
3417 1 7.03743 38.8663 17.6313 12 11.1835315473 1.755687424 17.9226861366
3418 1 8.83941 40.664 17.695 12 11.0250177664 1.7545398898 15.5673156173
3419 1 8.70762 38.9834 19.3631 12 11.2592478505 1.7574690221 17.084184444
3420 1 6.97279 40.7451 19.4711 12 11.1326226317 1.7545398898 16.1708964818
3421 1 10.5886 38.8506 17.6298 12 11.0864811946 1.7496047844 16.6467506139
3422 1 12.3669 40.7021 17.7305 12 10.8652936755 1.758561951 14.5766356419
3423 1 12.4592 38.9358 19.3425 12 10.6886824798 1.7362865134 16.2432781431
3424 1 10.7446 40.5563 19.3946 12 10.7586059003 1.795991144 14.9764287457
3425 1 14.1604 38.9157 17.558 12 11.2889994613 1.7616916375 15.9211786278
3426 1 15.9642 40.6746 17.6429 12 10.8342409683 1.7666388141 14.0557004333
3427 1 15.8914 38.7883 19.4192 12 10.8523556337 1.7609575596 15.6086198621
3428 1 14.1987 40.6209 19.3996 12 10.8720729409 1.7489103552 14.2912673572
3429 1 17.6742 38.965 17.7125 12 10.7236401339 1.7616916375 15.6233750366
3430 1 19.4372 40.6141 17.7161 12 10.8270121852 1.7724116397 14.0523220588
3431 1 19.4356 38.8641 19.4157 12 11.0045943342 1.7535039584 15.5688633644
3432 1 17.6668 40.6578 19.2998 12 10.8840230578 1.7580611242 13.7807219259
3433 1 21.2216 38.8297 17.7161 12 11.0702846898 1.7668534473 15.679193382
3434 1 22.9578 40.6785 17.7174 12 10.901122811 1.7626231231 14.6007491821
3435 1 23.0049 38.9312 19.3957 12 10.7909489232 1.7515500613 16.1799844055
3436 1 21.2136 40.5989 19.4497 12 11.0916239431 1.782514714 14.1782130914
3437 1 24.7367 38.8191 17.5218 12 10.7469690396 1.792992933 16.4280507874
3438 1 26.4636 40.6816 17.5689 12 11.1446024117 1.7922024635 15.6614615378
3439 1 26.4956 38.828 19.3906 12 11.1143030721 1.7935660461 16.9165013782
3440 1 24.7737 40.5628 19.353 12 11.1472331708 1.7632124046 15.048310262
3441 1 28.3565 38.8524 17.6617 12 11.256140253 1.7935660461 17.6168025648
3442 1 30.0406 40.5818 17.6346 12 11.4147896288 1.7908893492 17.4654295081
3443 1 29.9568 38.8414 19.4462 12 10.7178918955 1.7498442783 18.3365970354
3444 1 28.313 40.552 19.457 12 11.1245116561 1.7908893492 16.4706653425
3445 1 31.7791 38.8213 17.6468 12 10.9228110847 1.77046663 19.0715610884
3446 1 33.4451 40.5883 17.6316 12 11.0899276063 1.7789203852 19.444691886
3447 1 33.5246 38.8812 19.3748 12 11.0564658155 1.7536255334 20.1108026931
3448 1 31.7716 40.6887 19.3874 12 11.1428017096 1.747364703 18.3063288219
3449 1 35.3792 38.8605 17.6815 12 11.0651476856 1.7789203852 21.0688403505
3450 1 37.0571 40.6567 17.6834 12 11.0591917933 1.7748445204 21.7693361244
3451 1 37.117 38.9249 19.3658 12 11.0201361747 1.754880665 22.2949791091
3452 1 35.3472 40.6033 19.4724 12 11.0682076971 1.7789203852 20.6594173212
3453 1 38.9019 38.9261 17.6853 12 11.0014136797 1.7652649708 23.4166886702
3454 1 40.6492 40.6578 17.7429 12 11.1448129468 1.7635274733 21.8023142273
3455 1 40.5967 38.9004 19.4539 12 10.946300343 1.7643468128 22.9721665408
3456 1 38.8578 40.6608 19.5098 12 10.9568869324 1.7455847336 22.9571683462
3457 1 -0.00942006 -0.00125737 21.1116 12 11.0297333053 1.7419485485 19.3156525931
3458 1 1.6579 1.67251 21.1493 12 10.9553168727 1.7425749047 16.9732918089
3459 1 1.86183 42.2671 22.9491 12 11.0794023112 1.7614009788 18.3168409631
3460 1 42.4064 1.63605 23.0561 12 11.0737035761 1.7331092 18.440567612
3461 1 3.5085 0.0337048 21.1357 12 10.7151317824 1.7427626401 16.8075820389
3462 1 5.25438 1.68841 21.0918 12 11.3024144694 1.7919131621 14.4232045392
3463 1 5.37701 42.3672 22.9042 12 11.1482245015 1.7903150864 16.0020819688
3464 1 3.40149 1.65229 22.9553 12 11.2908478807 1.7919131621 16.0015271653
3465 1 7.15475 0.0792702 21.1267 12 11.0282309722 1.773581443 14.6413440072
3466 1 8.80627 1.77652 21.1627 12 11.3216505405 1.7894818114 12.3770693589
3467 1 8.86579 42.3838 22.9512 12 11.0677449469 1.7754703008 14.296832805
3468 1 7.03264 1.74492 23.0244 12 11.3915689533 1.7905638253 13.6749439453
3469 1 10.7361 42.2424 21.1555 12 11.2866335927 1.7954064942 13.4584211392
3470 1 12.353 1.78162 21.179 12 11.0436043089 1.7760282391 11.1592381114
3471 1 12.4178 42.3681 22.9464 12 11.2060049982 1.7697670364 13.1153167
3472 1 10.546 1.69122 23.0208 12 11.2497351499 1.7761785506 12.1271459667
3473 1 14.1914 42.4259 21.207 12 11.2520540231 1.7644308877 12.5275564085
3474 1 15.9218 1.8064 21.2008 12 11.0197421589 1.7640724181 10.4670812255
3475 1 16.0505 42.3061 22.9402 12 11.1558645737 1.7644308877 12.6069351795
3476 1 14.0882 1.82217 23.0312 12 11.3463719704 1.7644308877 10.9808298622
3477 1 17.618 0.00544015 21.173 12 10.9621929098 1.7580611242 12.0539653938
3478 1 19.4176 1.74227 21.2074 12 10.9623966597 1.7637115751 10.4089599127
3479 1 19.4408 42.3388 22.9215 12 11.0625221964 1.745220688 12.4986407419
3480 1 17.6537 1.79705 22.9027 12 10.9474975295 1.769303621 10.6053000729
3481 1 21.2141 0.0955052 21.2566 12 11.451133726 1.7831369488 12.3677873374
3482 1 23.0971 1.70476 21.1946 12 10.9581327121 1.7498842582 11.2655771644
3483 1 23.1094 0.0627773 23.0215 12 11.0545537105 1.762714356 13.0571651678
3484 1 21.3065 1.75537 22.9966 12 10.8183083921 1.7652121277 11.0117419193
3485 1 24.8833 0.0754388 21.2727 12 11.1690106903 1.765467448 13.357744712
3486 1 26.6351 1.83571 21.1427 12 10.9795759021 1.7664087927 12.5183443625
3487 1 26.6002 -0.0103086 22.959 12 11.2512803559 1.7664087927 14.4097744213
3488 1 24.8079 1.9241 23.0071 12 11.1537600704 1.7664087927 11.9337971159
3489 1 28.3796 0.0106411 21.1802 12 10.9476724283 1.7510434778 14.9792857125
3490 1 29.9563 1.83728 21.2096 12 10.7418262201 1.7566886478 14.5031726759
3491 1 30.0337 42.3576 22.9405 12 10.9560164626 1.7309070171 16.2641242546
3492 1 28.3277 1.75303 22.9893 12 10.7416352483 1.7664087927 13.8586568545
3493 1 31.7783 0.0269619 21.1518 12 10.9535495552 1.7568740972 17.0501585061
3494 1 33.4644 1.76008 21.1904 12 10.8605281468 1.7877294127 16.7954703575
3495 1 33.4578 42.3007 23.0067 12 11.2574640948 1.7877294127 18.5104761496
3496 1 31.6923 1.66191 22.8615 12 11.2305701845 1.7931748643 16.0344494749
3497 1 35.2859 42.3569 21.218 12 10.9753816861 1.7726838595 19.3570730396
3498 1 37.0061 1.69763 21.2057 12 10.7763072141 1.7531765177 19.3077536591
3499 1 37.0595 42.2823 22.856 12 10.8042913264 1.7573834307 20.8104831718
3500 1 35.3438 1.71851 22.8714 12 10.7215370587 1.7866016563 18.3236740997
3501 1 38.8369 42.3389 21.2598 12 10.7927816153 1.7531765177 21.8545726363
3502 1 40.5099 1.69194 21.1457 12 10.8513368514 1.7531765177 19.5116055617
3503 1 40.6453 42.3933 22.9545 12 11.1790527789 1.762695247 20.8056977444
3504 1 38.8195 1.75566 22.9471 12 11.0440822381 1.772018518 20.8698688684
3505 1 42.3152 3.41132 21.1581 12 11.2374175026 1.7380276342 17.0319329432
3506 1 1.66094 5.32462 21.1808 12 11.1108629064 1.7681165874 14.4633898466
3507 1 1.6528 3.51178 22.8988 12 11.1236252949 1.7572129275 15.9543808322
3508 1 42.3299 5.33719 22.9392 12 11.0354726958 1.744512718 16.1134617949
3509 1 3.42547 3.50235 21.2877 12 11.2132237538 1.7602941747 14.4742698671
3510 1 5.23294 5.26752 21.2816 12 10.8955309062 1.7625727669 11.9813971177
3511 1 5.22487 3.57019 22.9171 12 11.4327499198 1.8134231075 13.4197901862
3512 1 3.35303 5.37284 22.9224 12 10.8324525148 1.7317771526 13.507217847
3513 1 7.07945 3.54835 21.1819 12 11.3429724882 1.7785844619 11.8585154453
3514 1 8.76167 5.41555 21.2048 12 10.9741848531 1.7432200253 9.3860458045
3515 1 8.85827 3.58013 22.9764 12 11.1616590036 1.7787775291 11.2296190115
3516 1 6.99811 5.29537 22.8572 12 10.7332482741 1.7787775291 11.0119515497
3517 1 10.4973 3.5007 21.1572 12 11.054760159 1.7724587116 10.113423372
3518 1 12.2338 5.33178 21.1963 12 10.9434712093 1.7484617995 7.8253866015
3519 1 12.2937 3.4558 22.9198 12 11.1107927114 1.7564196271 9.8686189769
3520 1 10.6286 5.32693 22.9449 12 10.7982499879 1.7597811227 8.9508600364
3521 1 14.1728 3.47616 21.1683 12 11.1005757928 1.7558317905 9.1158388276
3522 1 15.8738 5.17387 21.2136 12 11.0992070036 1.7480272148 7.1678948144
3523 1 15.9139 3.50954 23.0148 12 11.0276498902 1.7718978349 9.1322086935
3524 1 14.0399 5.36115 22.9759 12 11.0915722047 1.7558317905 7.6071890722
3525 1 17.6617 3.54404 21.1199 12 10.8047231573 1.7718978349 8.5333091156
3526 1 19.4089 5.25158 21.1339 12 10.8529997202 1.7767535525 6.9653367213
3527 1 19.4459 3.51039 22.9238 12 11.1539374336 1.7718978349 9.0394596236
3528 1 17.6926 5.39361 22.8983 12 11.0634046019 1.7718978349 7.119993596
3529 1 21.2754 3.40204 21.1709 12 11.0493845168 1.7567445471 9.1835642253
3530 1 23.0008 5.17304 21.1526 12 11.1314609961 1.79411116 7.9651777539
3531 1 22.9622 3.41218 22.8954 12 10.8718448161 1.793055993 9.8474288765
3532 1 21.1343 5.30777 22.9361 12 11.3118025586 1.7945048196 7.5408268167
3533 1 24.8368 3.56683 21.095 12 11.0241377384 1.750087952 10.1454858096
3534 1 26.5524 5.42631 21.1176 12 11.046776275 1.7358167243 9.5893201957
3535 1 26.6184 3.62264 22.9034 12 11.1562445119 1.7645361466 11.397985449
3536 1 24.7158 5.2414 22.9605 12 11.4749337208 1.7945048196 9.0641303866
3537 1 28.2095 3.51252 21.1872 12 10.7116835358 1.755213464 12.104348517
3538 1 29.9881 5.34542 21.1466 12 11.101668177 1.7566886478 11.846907516
3539 1 29.9814 3.58097 22.9231 12 10.8885880115 1.79035045 13.5201091093
3540 1 28.3083 5.35193 22.9778 12 10.893752579 1.7747388649 11.1395007887
3541 1 31.7974 3.43627 21.1679 12 10.7805605699 1.7926597127 14.4513827352
3542 1 33.4598 5.15587 21.1452 12 11.2620403126 1.7434126761 14.379439087
3543 1 33.6002 3.53713 22.8571 12 10.9043728754 1.7931748643 15.8511111854
3544 1 31.6649 5.23377 22.9157 12 11.1219191997 1.7931748643 13.3680806022
3545 1 35.2472 3.43999 21.1438 12 10.6979764413 1.7351337511 16.840565623
3546 1 37.1254 5.14841 21.1567 12 11.1742652033 1.7459692538 17.3070735738
3547 1 37.07 3.41391 23.0043 12 10.7820684876 1.7402103132 18.5181763488
3548 1 35.3357 5.2294 22.8229 12 11.0077883377 1.74141056 16.0538261084
3549 1 38.8796 3.47121 21.1545 12 10.7207629031 1.7530989073 19.6866568838
3550 1 40.5983 5.2811 21.1275 12 10.7244988602 1.7407582687 17.290975281
3551 1 40.6157 3.37046 22.8452 12 10.964293455 1.738303052 18.5953115113
3552 1 38.9664 5.20692 22.9098 12 11.3155819938 1.7888798721 18.95566812
3553 1 42.3229 7.04914 21.1813 12 10.6323042363 1.7685041888 14.9161374513
3554 1 1.72789 8.87826 21.2125 12 11.1148523676 1.7685041888 12.4581582796
3555 1 1.70892 7.07477 23.0042 12 10.7760371504 1.7685041888 13.7254108767
3556 1 0.0173748 8.79709 22.9702 12 11.0809464135 1.7756606009 14.339695604
3557 1 3.43505 7.08109 21.159 12 11.099082087 1.7685041888 11.9948847343
3558 1 5.17973 8.87246 21.2303 12 11.0471578517 1.7630940523 9.5596239772
3559 1 5.20068 7.04158 23.0108 12 10.8932079217 1.7629785544 11.1169002609
3560 1 3.37001 8.73121 23.0198 12 11.0441383078 1.7630940523 11.5246440131
3561 1 6.99012 7.07241 21.2451 12 11.0239394889 1.7544379795 9.5022186016
3562 1 8.78926 8.79295 21.2636 12 11.2490013867 1.767807184 7.0515518943
3563 1 8.72812 6.99883 23.0232 12 10.9848181639 1.7437607615 8.7365882915
3564 1 6.89262 8.85657 23.0456 12 11.3083536807 1.7630940523 8.760980782
3565 1 10.5394 7.06606 21.2617 12 10.8476310247 1.7462719703 7.065504388
3566 1 12.2152 8.82693 21.1879 12 10.9419288682 1.7688276705 4.760395371
3567 1 12.2102 7.12308 23.0 12 10.6638840971 1.7473760852 6.7642379194
3568 1 10.4556 8.81571 22.9641 12 10.926927954 1.7648492884 6.3628927878
3569 1 13.9426 6.95741 21.1303 12 11.1749230039 1.7484617995 5.7743757374
3570 1 15.846 8.83911 21.1552 12 11.2068050011 1.7775244994 3.5696247792
3571 1 15.8605 7.06021 22.9122 12 11.0907186827 1.7333432849 5.6888247239
3572 1 14.0415 8.80589 22.9034 12 11.0897781808 1.772487885 4.5438640225
3573 1 17.5889 7.0198 21.1379 12 11.118704081 1.777097285 5.1251278301
3574 1 19.412 8.82622 21.1751 12 10.8787907439 1.777097285 3.5104732463
3575 1 19.452 7.08453 22.9299 12 11.0430721558 1.777097285 5.610694884
3576 1 17.6681 8.78339 23.0253 12 10.9086907702 1.7503781235 3.8714251997
3577 1 21.1456 7.0029 21.2412 12 11.0865168382 1.7768945311 5.6862191037
3578 1 22.9454 8.82035 21.2195 12 11.174613345 1.7738216033 4.8174321517
3579 1 22.9426 7.17027 22.8679 12 11.0607043466 1.7945048196 6.5267998817
3580 1 21.2659 8.85236 22.9448 12 10.5014667329 1.7489655583 4.3530206227
3581 1 24.658 7.00808 21.236 12 11.2248226036 1.7730742939 7.223718093
3582 1 26.5101 8.79215 21.2151 12 10.8958794488 1.7735113014 7.0708220006
3583 1 26.5484 7.03844 23.0457 12 10.8820718592 1.7535779743 8.7965428332
3584 1 24.8161 8.81979 23.0438 12 11.0050974157 1.7738216033 6.4197436039
3585 1 28.2095 7.09514 21.1954 12 10.8497727814 1.7282132403 9.4122284879
3586 1 30.0567 8.76397 21.1348 12 11.1277639425 1.7672899696 9.5046340348
3587 1 29.9963 7.10094 23.0249 12 10.7884958682 1.7672899696 10.9982221745
3588 1 28.1729 8.82475 22.9645 12 10.6580507504 1.7672899696 8.598606746
3589 1 31.7178 7.04927 21.1302 12 10.978538466 1.7425545654 11.8446524612
3590 1 33.5237 8.82135 21.2704 12 10.801603295 1.7538159055 12.3866018381
3591 1 33.4264 6.96254 22.963 12 11.4524847239 1.7718384895 13.5925315375
3592 1 31.7396 8.73947 22.9126 12 11.0481933185 1.7658330261 11.2816467664
3593 1 35.3464 7.13864 21.2273 12 11.2360295928 1.7538159055 14.7706579445
3594 1 37.067 8.83381 21.2577 12 11.3400823318 1.7709319531 15.580795065
3595 1 37.0422 6.93034 22.9355 12 11.398316457 1.7849178174 16.6121818058
3596 1 35.2474 8.90098 23.0647 12 11.0977384713 1.7538159055 14.2294384959
3597 1 38.8157 7.05071 21.1384 12 11.4849741749 1.7888798721 17.866710943
3598 1 40.6197 8.89772 21.2515 12 11.019912918 1.7731155052 15.6567323239
3599 1 40.756 7.03759 22.887 12 11.0525568898 1.7888798721 16.5468775053
3600 1 38.8902 8.83823 23.0555 12 11.3839881709 1.7887724674 17.5520246125
3601 1 -0.0400451 10.6202 21.0903 12 10.8294953811 1.7664742745 13.4247520991
3602 1 1.76904 12.3647 21.2575 12 10.9708784174 1.7692307565 11.2713402064
3603 1 1.67073 10.6736 22.9697 12 10.8221969349 1.7462022585 12.1790855953
3604 1 -0.0304416 12.25 22.9299 12 10.6599938268 1.7655100497 13.2688987025
3605 1 3.46987 10.632 21.1562 12 10.9739232322 1.7676627118 10.1545303058
3606 1 5.29083 12.3801 21.2069 12 11.2710918668 1.7692307565 7.8995449002
3607 1 5.14548 10.5798 22.9553 12 11.1989019658 1.7793047522 9.1875018769
3608 1 3.49593 12.2971 22.9415 12 10.671984624 1.7636597555 9.9744924797
3609 1 7.02051 10.4917 21.1236 12 11.2592232197 1.7603574161 7.1457928037
3610 1 8.78616 12.5157 21.1572 12 11.0119503724 1.7603574161 4.6934548997
3611 1 8.72484 10.6345 23.0348 12 11.2540443851 1.7574360235 6.3728267974
3612 1 7.00528 12.3422 22.9536 12 11.3107682738 1.7603487713 6.9128161335
3613 1 10.4328 10.5753 21.2149 12 11.0068569915 1.7519195987 4.6657151524
3614 1 12.3971 12.3316 21.2313 12 10.6553651741 1.7528030119 2.0807657783
3615 1 12.297 10.5541 22.9173 12 11.0832411419 1.7524146512 4.0911681533
3616 1 10.5856 12.372 22.915 12 11.0685511751 1.757630347 4.0647153071
3617 1 14.0679 10.511 21.103 12 10.8755923022 1.7784560757 2.4831524531
3618 1 15.8309 12.4151 21.1025 10 14.1521149341 3.0671905531 0.1889491519
3619 1 15.8645 10.4942 22.9763 12 10.8464200517 1.7784560757 2.6703613085
3620 1 14.1506 12.2727 22.9044 12 10.8636472825 1.7528030119 2.1312979811
3621 1 17.6506 10.5134 21.2659 12 10.9350026304 1.7783472163 1.768746282
3622 1 19.3262 12.2339 21.2933 10 12.9646537537 2.7469176021 0.2187205503
3623 1 19.4175 10.4632 22.988 12 10.6089234953 1.7508560252 2.5361820267
3624 1 17.5806 12.3183 22.9156 11 11.6219055183 2.3683375716 0.8982001457
3625 1 21.105 10.4923 21.2146 12 10.8774999755 1.77014344 2.4593051442
3626 1 22.9144 12.3566 21.1413 12 10.9897202576 1.773675294 2.1192281886
3627 1 22.965 10.6334 22.9897 12 11.2320676328 1.7730145567 4.0164965411
3628 1 21.165 12.3288 22.8249 12 11.2026953164 1.771158332 1.9291929247
3629 1 24.8176 10.6388 21.3246 12 11.4339069532 1.7738216033 4.6388220217
3630 1 26.4441 12.456 21.2072 12 11.3744716519 1.79015264 4.6261279034
3631 1 26.512 10.5664 23.0513 12 10.7393640429 1.7686729936 6.4060138833
3632 1 24.7166 12.4691 22.8967 12 11.0895424337 1.7717625156 4.06235592
3633 1 28.2629 10.4856 21.3 12 11.367071309 1.7901529901 7.1252241755
3634 1 30.0405 12.2823 21.2106 12 11.0776638884 1.7901529901 7.8921825626
3635 1 30.0455 10.6238 22.9942 12 11.2227488267 1.7672899696 9.0417258798
3636 1 28.2435 12.3667 23.0002 12 11.1351826811 1.7897395454 6.8486013872
3637 1 31.9129 10.5131 21.1626 12 10.9231761574 1.7637120776 10.2115585145
3638 1 33.5246 12.3964 21.2677 12 11.0069986362 1.7587920997 11.1944496102
3639 1 33.5306 10.6088 23.0395 12 11.0313336881 1.7516923203 12.073230244
3640 1 31.7623 12.3682 22.9862 12 11.0142880593 1.7533657342 9.8835100271
3641 1 35.2551 10.6404 21.221 12 11.1388807597 1.7607632193 13.2842026089
3642 1 37.0866 12.3525 21.3045 12 11.0732086596 1.7617292439 14.650033894
3643 1 37.1162 10.5679 23.0571 12 10.8700724642 1.7617292439 15.3879596962
3644 1 35.3062 12.3917 22.9616 12 10.9507711965 1.7551374695 13.1695331597
3645 1 38.9251 10.5825 21.3184 12 11.1956443502 1.7709319531 16.7746453815
3646 1 40.6204 12.5169 21.1997 12 10.6136988212 1.7499099281 14.7099369511
3647 1 40.7814 10.5722 23.0071 12 11.0922931671 1.7756649889 15.2695822756
3648 1 38.9543 12.4231 22.9409 12 10.8336101851 1.7451622694 16.5172267815
3649 1 42.3484 14.1471 21.1543 12 10.7706828745 1.7614624758 12.7249170055
3650 1 1.72505 15.972 21.0207 12 10.8287955732 1.7614624758 10.6818704961
3651 1 1.74876 14.1092 22.8977 12 10.9950356025 1.7580628997 11.1170764607
3652 1 0.049115 15.7649 22.9498 12 10.8744721774 1.7695284 12.61229333
3653 1 3.49104 14.2183 21.1718 12 11.3488460829 1.7692307565 9.2040023369
3654 1 5.31568 15.8934 21.2792 12 10.5657624587 1.7596688149 7.164370206
3655 1 5.26134 14.0845 22.9538 12 10.8365987655 1.7585739929 7.7978613712
3656 1 3.60894 15.9165 23.0533 12 10.7627620291 1.7580628997 9.1386570365
3657 1 7.06226 14.1404 21.1559 12 10.8969413283 1.7588985248 5.7402844468
3658 1 8.82963 15.9524 21.3005 12 10.9178361793 1.7382363856 3.685613082
3659 1 8.8114 14.1161 22.9638 12 10.9275665686 1.757630347 4.6908056567
3660 1 6.99682 15.8134 23.029 12 10.6861048857 1.7458732796 5.8980403558
3661 1 10.6981 14.1047 21.1342 12 10.8634691581 1.757630347 2.4407303066
3662 1 12.5004 15.9057 21.1184 10 15.026419207 3.1199222845 0.2108888258
3663 1 12.3317 14.1583 22.875 12 11.0576777103 1.757413806 1.9447734497
3664 1 10.5597 15.8963 22.9238 12 11.1729164867 1.7686430943 2.695344872
3665 1 14.1495 14.0329 21.2968 9 17.9535199302 3.7722730377 0.0174277047
3666 1 14.2304 38.8846 38.857 12 11.0176613085 1.7511853467 23.3634560145
3667 1 15.9846 14.1428 22.8251 10 14.5882080094 3.2167117754 0.0981770507
3668 1 14.2278 15.8867 22.9907 10 13.7780508338 2.9252043055 0.1524266325
3669 1 10.6207 40.6679 40.5301 12 11.2058753068 1.7622060178 24.1176548493
3670 1 12.4063 38.8773 40.7082 12 10.85919127 1.7505904176 23.5121710508
3671 1 19.4365 14.1106 22.9867 10 13.4208750405 2.8296121789 0.1614831148
3672 1 17.7344 15.9439 22.9456 7 34.0788230147 4.8326035382 0.7722387507
3673 1 21.0956 14.156 21.1764 9 20.4501655961 4.0088366797 0.183221349
3674 1 22.8796 16.0336 21.0453 10 15.001493247 3.1800120516 0.1873406613
3675 1 22.855 14.1494 22.8141 12 11.1238107981 1.7391032416 1.9324930886
3676 1 21.139 15.9499 22.9417 9 17.5673679236 3.6179451446 0.0235897546
3677 1 24.6357 14.1223 21.0781 12 10.9478393253 1.7577235382 2.4034762884
3678 1 26.5415 15.9619 21.1599 12 11.0640864869 1.7577235382 3.6840673753
3679 1 26.4245 14.3153 22.9279 12 11.1555668445 1.7717625156 4.5316785585
3680 1 24.6913 15.9261 22.8051 12 11.1138011167 1.760662546 2.4721195262
3681 1 28.2087 14.0623 21.1919 12 11.2398820489 1.7901529901 5.6839037035
3682 1 30.0242 15.9711 21.2632 12 11.104031536 1.7543229081 7.1257991932
3683 1 29.9249 14.1366 22.9241 12 10.9777845847 1.7590738032 7.6397032039
3684 1 28.1926 15.9045 23.077 12 11.0686136554 1.7579810258 5.7273330925
3685 1 31.7806 14.1383 21.2966 12 10.8991829427 1.7527432388 9.1277674047
3686 1 33.4653 15.893 21.2788 12 10.8805185605 1.7537696387 10.524704654
3687 1 33.5357 14.1878 22.9629 12 10.9696275338 1.7726524536 11.0590929884
3688 1 31.7276 15.9357 22.9738 12 10.6905714511 1.7412939344 9.1103898041
3689 1 35.3173 14.1393 21.1637 12 11.0686962221 1.7570755301 12.5695696104
3690 1 37.1468 15.9239 21.2413 12 10.9319624497 1.7570755301 14.1410418546
3691 1 37.084 14.1691 22.9557 12 10.7901900839 1.764726795 14.5130744924
3692 1 35.3108 15.9003 22.975 12 11.0497370075 1.7568888671 12.6164493947
3693 1 38.8584 14.1674 21.2891 12 10.8506839085 1.7532310406 16.0654698002
3694 1 40.6404 16.0593 21.1412 12 11.2746241105 1.7695284 14.1535010647
3695 1 40.6898 14.0562 22.9827 12 10.661372979 1.7695284 14.5263703835
3696 1 38.9248 15.8017 23.0505 12 10.7425946656 1.7690229078 16.1221723054
3697 1 0.0917345 17.7063 21.2237 12 10.9378196462 1.7597251739 12.2098301688
3698 1 1.72475 19.4569 21.2795 12 10.6335455442 1.7633049974 10.6741799311
3699 1 1.74138 17.5478 22.9309 12 10.6824554487 1.7442229349 10.9210003615
3700 1 -0.0208923 19.5007 22.8277 12 10.9108166949 1.7524451976 12.641815016
3701 1 3.48597 17.62 21.3075 12 10.8436918819 1.7334139678 8.8940509695
3702 1 5.23943 19.4494 21.2416 12 11.1237271718 1.763118592 7.2118503455
3703 1 5.26496 17.622 23.0039 12 10.712880923 1.7458732796 7.4912065858
3704 1 3.4288 19.4522 22.8959 12 11.0810096333 1.7868731494 9.2558646068
3705 1 6.85868 17.5923 21.1951 12 10.7621209305 1.7624264545 5.5640320967
3706 1 8.70908 19.318 21.1815 12 11.0024825855 1.7508629413 3.779009096
3707 1 8.75078 17.6509 22.9417 12 11.0215592617 1.7660522863 4.1760251548
3708 1 7.05312 19.4532 22.9419 12 11.0266210528 1.7559448604 5.7402940989
3709 1 10.5881 17.7024 21.2756 12 11.2011195235 1.781054618 1.9201238596
3710 1 12.348 19.4362 21.1216 10 14.0759208196 2.7878129565 0.3016878665
3711 1 12.4553 17.6411 23.1156 11 12.4145243759 2.4379933399 0.8325138192
3712 1 10.5618 19.4383 22.963 12 11.2461020472 1.7795923141 2.6045028342
3713 1 12.484 40.6623 38.884 12 11.2665761752 1.7805233931 22.7017952183
3714 1 10.6983 38.8208 38.8813 12 11.080498158 1.7532062103 24.1014917275
3715 1 15.91 17.7245 22.935 7 33.7950923497 4.8326035382 0.8292261203
3716 1 14.13 19.4927 23.0083 10 13.0122714715 2.7140744333 0.1337987984
3717 1 7.0014 40.5894 40.7005 12 11.0448272751 1.7614906286 25.1524941635
3718 1 8.80597 38.872 40.6277 12 10.9017362794 1.7532062103 24.3379120022
3719 1 8.82794 40.5395 38.9027 12 11.05005912 1.7511401028 23.8569165079
3720 1 6.9994 38.8577 38.8593 12 10.8032820778 1.7614487154 25.3843144234
3721 1 3.48373 40.6784 40.7239 12 10.9032411727 1.7776281137 26.5634242396
3722 1 22.9157 19.3234 21.1841 10 13.9946336806 2.997148142 0.133485743
3723 1 23.0164 17.5177 22.8901 11 11.4495721735 2.2739618665 0.6098956926
3724 1 21.2353 19.3116 22.9304 9 19.3040844042 4.0008632785 0.1658297866
3725 1 24.6922 17.7499 21.0413 12 11.0887553024 1.7432173471 1.7751787752
3726 1 26.4964 19.4274 20.9907 12 11.2010801047 1.7511848946 3.5727746475
3727 1 26.405 17.7255 22.9597 12 11.0869149419 1.7526910357 3.8439123034
3728 1 24.7096 19.3592 22.8641 12 10.9647633115 1.7664608171 2.4112033438
3729 1 28.2867 17.6513 21.2639 12 10.8693261198 1.7473438778 5.3357860703
3730 1 29.9418 19.4358 21.1179 12 10.9444571497 1.7583735761 6.9612915194
3731 1 29.9889 17.7028 22.9211 12 10.8318722034 1.7583735761 7.3462117392
3732 1 28.1382 19.3985 22.8833 12 10.9373088908 1.7583735761 5.5271342892
3733 1 31.8066 17.7534 21.1885 12 10.8942107605 1.7505922265 8.7540928692
3734 1 33.5312 19.4392 21.1574 12 10.9192534106 1.7426151221 10.4869066712
3735 1 33.4728 17.6664 23.0903 12 11.0468890883 1.7519710027 10.7893152149
3736 1 31.7019 19.3904 22.9595 12 10.9004755285 1.7565355155 9.0060960011
3737 1 35.22 17.6415 21.2756 12 11.1924417555 1.7570755301 12.111404411
3738 1 37.0119 19.3948 21.209 12 11.229015416 1.7587150532 13.9060553926
3739 1 37.094 17.5841 22.9885 12 10.9885278615 1.7475793775 14.3063452954
3740 1 35.2291 19.445 22.9224 12 11.1142767697 1.7588298157 12.4632663266
3741 1 38.8046 17.6707 21.2926 12 10.9081207643 1.7592216965 15.6395079854
3742 1 40.5997 19.3502 21.1598 12 10.9366880026 1.7539659881 14.1347397439
3743 1 40.5839 17.5768 23.1011 12 11.2320141228 1.7695284 14.4640333433
3744 1 38.8419 19.4029 22.9596 12 10.9251874846 1.7539659881 16.0138066381
3745 1 42.37 21.2421 21.08 12 10.5809241719 1.7291067323 12.6709418406
3746 1 1.88659 23.0029 21.2219 12 10.6280944576 1.7451036234 11.1643299192
3747 1 1.69456 21.2312 22.8974 12 10.7529499313 1.7887929557 11.1766598282
3748 1 0.116761 22.9462 22.8903 12 10.9425290929 1.7655370768 13.1005416502
3749 1 3.45046 21.2583 21.152 12 10.8037186715 1.7887968973 9.2647486874
3750 1 5.25201 22.9723 21.1606 12 10.9861524752 1.763118592 7.9936903068
3751 1 5.26887 21.2496 22.9849 12 11.1805313451 1.7887968973 7.7826989313
3752 1 3.53276 23.1094 23.026 12 10.9825875147 1.7887968973 10.0122391451
3753 1 6.98882 21.3282 21.1914 12 10.9790518043 1.7647823588 5.8650342668
3754 1 8.74625 22.9353 21.1702 12 10.9303452418 1.7468718741 4.988870632
3755 1 8.82077 21.2353 22.8834 12 11.0456570243 1.76640337 4.6014832102
3756 1 7.01627 23.0039 22.9405 12 10.8649774878 1.7580728146 6.962741349
3757 1 10.5362 21.1768 21.2395 12 11.2165655921 1.7555151673 2.6785096344
3758 1 12.3682 22.9346 21.131 12 11.5152846421 1.7571218058 2.1640753509
3759 1 12.4313 21.1793 22.9824 12 11.2516784176 1.7795923141 1.9358570819
3760 1 10.671 22.9093 22.9992 12 11.2968807854 1.7828779223 4.0750030389
3761 1 14.2255 21.1098 21.1652 9 20.6004743004 4.064194417 0.200552873
3762 1 16.0029 22.7216 21.2526 10 14.6570822448 3.2833330759 0.194263383
3763 1 16.0294 21.0682 22.8971 9 17.6746498056 3.7564050537 0.1161137285
3764 1 14.2463 22.8757 23.029 12 11.2655135472 1.7568200843 2.0438169262
3765 1 5.25654 38.8214 40.648 12 11.1472050232 1.7622994454 25.5326630874
3766 1 19.3037 22.8439 21.1734 10 14.0103300394 3.142736537 0.0700326147
3767 1 19.3938 21.1253 22.8335 9 20.6327875443 4.2037715053 0.2441322554
3768 1 17.6066 22.9375 22.9868 11 11.4096146985 2.18500717 0.6220686077
3769 1 21.2447 21.193 21.1048 9 22.4650384754 4.7157115556 0.3362790039
3770 1 22.8269 22.9595 21.2038 12 10.9476768833 1.7490550458 1.9611531395
3771 1 22.9853 21.1076 23.0335 12 10.7737209302 1.7856463157 1.9021595306
3772 1 21.1885 22.8951 22.9746 12 10.8994158431 1.785401135 1.8481412131
3773 1 24.5868 21.1924 21.2327 12 11.2194535993 1.7511848946 2.3141579704
3774 1 26.4434 22.8953 21.1958 12 11.1440387532 1.7757596194 4.5300462509
3775 1 26.432 21.1136 23.0177 12 11.1886601192 1.7730518778 4.479812398
3776 1 24.6812 22.9267 22.844 12 11.0341720541 1.7750538645 3.8702905391
3777 1 28.289 21.2199 21.1666 12 11.126240102 1.7481793051 5.6570177888
3778 1 29.9655 22.9962 21.202 12 11.0819653592 1.7816316229 7.6794786462
3779 1 29.9801 21.212 22.9681 12 10.9328179779 1.7687408347 7.6315993623
3780 1 28.2647 22.8905 22.9212 12 11.2637890122 1.7856323971 6.6899680715
3781 1 31.7406 21.1545 21.281 12 11.2260520799 1.7569079893 9.0231178806
3782 1 33.541 22.8628 21.2151 12 11.1909554375 1.76855463 11.064699421
3783 1 33.5555 21.0658 23.1117 12 11.0356685796 1.7516558055 11.0388697252
3784 1 31.793 22.8707 23.0287 12 11.1567129987 1.769593571 9.7970032947
3785 1 35.2768 21.1514 21.131 12 10.9533812212 1.768424324 12.4508110418
3786 1 37.0667 22.901 21.2815 12 11.4413777338 1.8074345151 14.5161789583
3787 1 37.1112 21.1228 22.9464 12 11.2826776849 1.7581932142 14.4906929023
3788 1 35.2528 22.937 22.9096 12 11.054192464 1.7669103896 13.0273276299
3789 1 38.9091 21.1052 21.2215 12 11.1895320445 1.8073570586 15.9984765293
3790 1 40.6774 22.9214 21.1659 12 11.0340508916 1.8074345151 14.6455281179
3791 1 40.6269 21.1277 22.8718 12 11.0044612667 1.7655370768 14.5637465368
3792 1 38.9518 23.0126 23.0704 12 11.1291161743 1.8069298616 16.5778075145
3793 1 0.0318665 24.6716 21.2008 12 11.1479254841 1.7731210425 13.401913438
3794 1 1.77945 26.52 21.1728 12 11.2103955801 1.767163717 12.5990840573
3795 1 1.79809 24.7168 22.9713 12 10.8565188865 1.767163717 12.1685148133
3796 1 -0.00896643 26.4527 23.0059 12 11.174699066 1.7667776944 14.4772085163
3797 1 3.5758 24.7559 21.2093 12 10.7385224 1.7457666418 10.2140561087
3798 1 5.34355 26.4257 21.0819 12 10.8286488129 1.743263387 9.6564993492
3799 1 5.40177 24.6921 22.8758 12 10.9255833161 1.7585776414 9.0977906257
3800 1 3.57085 26.5058 22.9738 12 11.1763591396 1.7700739264 11.5258516507
3801 1 7.16454 24.8123 21.1973 12 10.948697559 1.763123484 7.2924304841
3802 1 8.89237 26.512 21.2002 12 10.9780001628 1.7752482474 7.0640232806
3803 1 8.90178 24.6596 23.0028 12 11.1859107243 1.781055996 6.3099321888
3804 1 7.10377 26.5167 22.9533 12 11.0897367418 1.7585776414 8.741915038
3805 1 10.6211 24.6527 21.1738 12 11.4913046253 1.7820275365 4.5772187502
3806 1 12.4336 26.4136 21.2321 12 11.4132735237 1.7752482474 4.7216775294
3807 1 12.507 24.6858 22.9873 12 11.4102330335 1.7820275365 4.0970542073
3808 1 10.5566 26.4841 22.9483 12 11.1689608029 1.7818394473 6.4061266208
3809 1 14.2199 24.5696 21.1645 12 11.3226567053 1.7575838619 2.4049870199
3810 1 15.8793 26.5053 21.1751 12 11.2286375072 1.7548204267 3.7006859187
3811 1 15.8463 24.6641 23.0197 12 11.181522134 1.7456136412 2.5999590419
3812 1 14.2013 26.4869 22.8941 12 11.2042057211 1.740775349 4.6241387937
3813 1 17.675 24.6178 21.2136 12 11.1810504811 1.7550679223 1.7365726226
3814 1 19.394 26.4294 21.1676 12 11.1582401187 1.766928947 3.5093380707
3815 1 19.315 24.676 22.995 12 10.9499935433 1.7500195242 2.4366667448
3816 1 17.522 26.6001 22.9767 12 11.0327087171 1.7550679223 4.0738108559
3817 1 21.0818 24.621 21.2044 12 11.2175389677 1.7513241595 2.3270905968
3818 1 22.9488 26.4474 21.1953 12 11.1057676644 1.7509138059 4.6494845305
3819 1 23.0023 24.6787 22.9519 12 10.874299285 1.7707013035 3.9479423964
3820 1 21.235 26.3436 22.9439 12 11.0218757711 1.7876285011 4.4393996983
3821 1 24.7514 24.6814 21.1815 12 11.2064079523 1.7706501977 4.4176730825
3822 1 26.4878 26.511 21.0844 12 10.7229701339 1.7452728509 6.7811642276
3823 1 26.5424 24.7485 22.9228 12 11.269102438 1.7757596194 6.240715302
3824 1 24.766 26.476 23.0005 12 10.7906566643 1.7705840733 6.2551546003
3825 1 28.1976 24.6959 21.1305 12 11.0035539304 1.7464240817 6.8132834788
3826 1 30.0469 26.421 21.1338 12 10.7265606445 1.7464240817 9.2310490437
3827 1 29.9884 24.7578 22.9055 12 10.9917953008 1.769593571 8.8838086132
3828 1 28.357 26.4585 22.8766 12 10.7455818807 1.74619007 8.5531821947
3829 1 31.7006 24.6477 21.2892 12 11.0559993523 1.7541177549 9.8334317066
3830 1 33.5652 26.5463 21.1447 12 11.0074060301 1.76343553 12.2574232988
3831 1 33.5255 24.749 22.9538 12 11.1577006824 1.7584713679 11.9374222027
3832 1 31.7457 26.4699 22.8647 12 11.232098557 1.7889687453 11.0897501882
3833 1 35.3533 24.6838 21.3087 12 11.1950932906 1.76855463 13.2423458426
3834 1 37.1337 26.5241 21.2423 12 11.2467767413 1.7632798068 15.4956710174
3835 1 37.1932 24.7132 22.9846 12 10.7765633225 1.7475621842 15.3130040839
3836 1 35.3546 26.4417 22.969 12 11.1801170933 1.76343553 14.1761687151
3837 1 38.8739 24.7373 21.2292 12 11.2003585075 1.8074345151 16.6191456495
3838 1 40.7342 26.4881 21.2267 12 11.174653438 1.7731210425 15.656428049
3839 1 40.6224 24.6697 23.0258 12 10.9763551644 1.7731210425 15.4309669885
3840 1 38.9208 26.4367 22.998 12 11.0811262948 1.759317859 17.4165548673
3841 1 0.0109806 28.285 21.1976 12 10.9759387341 1.7675223654 15.012151963
3842 1 1.77412 29.9874 21.2106 12 10.7085362144 1.7675626286 14.6532194358
3843 1 1.84189 28.2505 22.9529 12 11.2122764817 1.7695369561 13.8481563228
3844 1 0.129298 30.149 23.0309 12 11.4054473083 1.7677183426 16.3097064016
3845 1 3.5947 28.2368 21.0972 12 11.1044551432 1.7692187803 12.1365044153
3846 1 5.29649 29.9623 21.1027 12 10.9238467095 1.7558155182 11.9568876522
3847 1 5.3742 28.1628 22.8907 12 11.1265537996 1.7695369561 11.0554614092
3848 1 3.52548 30.0427 22.913 12 11.2355460813 1.7829188354 13.6454152332
3849 1 7.05983 28.2714 21.1635 12 10.8334314437 1.7444137807 9.5587935965
3850 1 8.79063 30.0397 21.1471 12 10.9137950025 1.7518749062 9.5807176993
3851 1 8.87713 28.3147 22.7687 12 10.8869390511 1.7321175528 8.6764276155
3852 1 7.02692 29.9657 22.9761 12 11.1343416237 1.7673434823 11.0958304081
3853 1 10.6409 28.2082 21.0079 12 11.0503205105 1.7750639112 7.0300902698
3854 1 12.4397 29.9794 21.0664 12 10.7206102316 1.7595447105 7.8640337427
3855 1 12.4106 28.3062 22.89 12 11.0203358726 1.7532049483 6.8936255565
3856 1 10.6623 29.9335 22.785 12 10.8151814293 1.7587877796 8.9557560695
3857 1 14.0767 28.3005 21.1616 12 11.0223335226 1.7479622449 5.8367422171
3858 1 15.8932 29.9814 21.298 12 10.9529658453 1.7481362259 7.1129352666
3859 1 15.8982 28.3358 22.9996 12 10.6704207609 1.7700444116 5.870691733
3860 1 14.1009 29.9611 22.9534 12 10.7947086128 1.740775349 7.7237024561
3861 1 17.5614 28.2269 21.2287 12 10.9564188583 1.7677261009 5.2128492656
3862 1 19.4578 30.0275 21.2624 12 11.2560374805 1.7677261009 7.022714261
3863 1 19.4788 28.1623 22.9303 12 11.1405031164 1.7783821383 5.5745155761
3864 1 17.677 29.9962 22.9103 12 10.9503295908 1.7539037871 7.3681047336
3865 1 21.1234 28.2106 21.201 12 11.0187201288 1.7656435773 5.5787856743
3866 1 23.1147 29.8899 21.2789 12 11.0904679453 1.7330390309 7.702148791
3867 1 23.0141 28.1694 22.9905 12 10.8872642303 1.7459729943 6.7416441497
3868 1 21.2973 30.0446 22.9168 12 11.1230922472 1.757096511 7.7128324812
3869 1 24.7106 28.0694 21.1677 12 10.6863008885 1.7397516723 6.7967831045
3870 1 26.4735 29.8529 21.1884 12 11.2865452959 1.7498280431 9.1886337583
3871 1 26.5265 28.0705 22.8925 12 10.9776144478 1.7464429911 8.4418148023
3872 1 24.7398 30.0113 22.9446 12 10.7113070294 1.7397516723 8.9959388628
3873 1 28.2824 28.1841 21.1914 12 10.7139666411 1.7499516787 9.1060727935
3874 1 30.0059 30.0115 21.1741 12 10.8115719946 1.7646394735 11.4528379112
3875 1 30.0353 28.292 22.9059 12 10.8463743027 1.7369723102 10.9106302775
3876 1 28.2926 29.9287 23.0084 12 10.9464129395 1.7690718031 10.9240669861
3877 1 31.7741 28.2941 21.2639 12 10.7246817559 1.7457405978 11.6697555432
3878 1 33.5016 30.0013 21.1403 12 10.7978747442 1.7620557155 13.9480496905
3879 1 33.527 28.2614 22.9212 12 11.1939222154 1.7619862142 13.4701021289
3880 1 31.7588 30.1816 22.9236 12 10.807345896 1.7617204931 13.3220656919
3881 1 35.325 28.3375 21.1351 12 10.9588053081 1.76343553 14.5962535482
3882 1 37.0935 29.9619 21.2404 12 10.8248011148 1.7401145202 16.8990990016
3883 1 37.1291 28.3292 23.0001 12 10.9166450949 1.7623852276 16.5294129725
3884 1 35.2748 30.0195 22.9245 12 10.7153136534 1.7617204931 15.8249774014
3885 1 38.9573 28.1553 21.2479 12 11.114592089 1.7553610479 17.7751085848
3886 1 40.6578 30.0103 21.2184 12 11.1274663524 1.7677183426 17.4312196343
3887 1 40.7226 28.3313 23.0233 12 11.2129836363 1.7651484784 16.7903216038
3888 1 38.8506 30.0024 22.9515 12 11.1756718281 1.7798109441 18.777039025
3889 1 0.0402195 31.8629 21.1839 12 10.8009785345 1.7677183426 17.1787806638
3890 1 1.75878 33.6383 21.1701 12 10.894061547 1.7694480612 17.003053792
3891 1 1.75358 31.8698 22.8373 12 10.9411074684 1.782918003 16.1297161429
3892 1 0.0209464 33.5306 22.9177 12 11.0429994678 1.7386260889 18.5047855943
3893 1 3.48537 31.7266 21.1721 12 11.0255199036 1.7828404478 14.46452337
3894 1 5.29851 33.5845 21.0554 12 11.0916065175 1.7691928799 14.4743243474
3895 1 5.31371 31.7804 22.8425 12 11.5306602402 1.7839612328 13.4700045797
3896 1 3.53848 33.6076 22.9169 12 11.0169964639 1.7829188354 15.9661660692
3897 1 7.03938 31.7532 21.0941 12 10.8608935531 1.7507319489 11.9760171457
3898 1 8.84159 33.4667 21.1107 12 11.2212170448 1.8019654055 12.4128248312
3899 1 8.8109 31.7238 22.8859 12 11.0052262563 1.7610054716 11.3271973787
3900 1 7.2365 33.57 22.8673 12 11.0627697127 1.7679652159 13.6371274691
3901 1 10.6329 31.6741 21.0351 12 11.1952813695 1.8019654055 10.0355499678
3902 1 12.439 33.6124 21.228 12 11.216373647 1.8019561947 11.3559251895
3903 1 12.3373 31.7136 22.882 12 11.1439121561 1.7877554691 9.8830814188
3904 1 10.6109 33.5255 22.9605 12 11.0947695623 1.8019654055 12.140998823
3905 1 14.1153 31.7706 21.1843 12 11.1905138634 1.7481362259 9.1733303154
3906 1 15.8578 33.6569 21.1149 12 11.2056162522 1.7551930804 10.6900465244
3907 1 15.9006 31.8304 22.9404 12 10.9728480151 1.7547271498 9.2283841617
3908 1 14.2508 33.5998 23.0043 12 11.0288671258 1.7890347696 11.1589798515
3909 1 17.5543 31.8354 21.2774 12 10.9347854319 1.7518459365 8.7146938455
3910 1 19.3587 33.4996 21.2059 12 10.6123201983 1.7518459365 10.3756914141
3911 1 19.3964 31.8162 22.8812 12 10.7497348891 1.757096511 9.096224357
3912 1 17.7082 33.53 22.9382 12 10.7400728783 1.7477317069 10.768931159
3913 1 21.1741 31.8539 21.1902 12 11.2216482014 1.7562119782 9.1041156961
3914 1 23.101 33.6759 21.1147 12 11.1369156338 1.7623960571 11.2334926319
3915 1 23.0207 31.7608 22.9127 12 11.370347344 1.7862992814 9.8080799228
3916 1 21.2808 33.5459 22.9344 12 11.3024725152 1.7761805894 11.0523749856
3917 1 24.7336 31.7985 21.122 12 11.2807638289 1.7310747681 9.9468675094
3918 1 26.4744 33.6554 21.2032 12 10.9046959717 1.7598226642 12.3377819391
3919 1 26.4289 31.7944 22.7636 12 11.2972131365 1.7690718031 11.1506409032
3920 1 24.7092 33.7969 22.9787 12 11.1689642695 1.756931307 12.2236148873
3921 1 28.178 31.6693 21.0599 12 11.1529677545 1.7690718031 11.5562550308
3922 1 30.006 33.6118 21.0902 12 11.1704902573 1.7600964238 14.1375389246
3923 1 29.9678 31.734 22.8224 12 10.7119444933 1.7689979552 13.1923795297
3924 1 28.2862 33.4835 22.8159 12 11.3507493466 1.7682888079 13.4779994325
3925 1 31.7236 31.794 21.1143 12 10.8241887699 1.7600964238 13.7998553754
3926 1 33.5216 33.5765 21.1533 12 11.0293829827 1.760395339 16.2614695426
3927 1 33.5724 31.831 22.9131 12 10.7614664263 1.7602810162 15.6340071588
3928 1 31.7754 33.4524 22.9496 12 11.0592199053 1.7654169088 15.5777266366
3929 1 35.2898 31.7737 21.2498 12 10.9762633985 1.7505181309 16.3902821392
3930 1 37.0537 33.6085 21.2592 12 11.0286456768 1.755862974 18.8518669003
3931 1 37.0753 31.7691 23.0023 12 10.9973769209 1.7789946693 18.2373800972
3932 1 35.3583 33.5321 22.9396 12 10.6502381523 1.7505181309 17.9800662806
3933 1 38.7983 31.8655 21.1272 12 10.8599232027 1.7798109441 19.2524431934
3934 1 40.5666 33.539 21.0915 12 10.9901079658 1.7557617445 19.6867436556
3935 1 40.7038 31.8633 22.8904 12 11.2771499112 1.7798109441 18.7424989256
3936 1 38.8914 33.5623 22.9613 12 11.0476810228 1.7796837203 20.6552230176
3937 1 0.0150977 35.4029 21.2372 12 11.2619058944 1.7557617445 19.4727639103
3938 1 1.79022 36.9852 21.2452 12 11.2032389176 1.753573711 19.3363544681
3939 1 1.76843 35.3257 23.0546 12 10.9730462197 1.7605590093 18.4093214954
3940 1 42.3713 37.0622 23.0421 12 11.0913888776 1.7861114845 20.8792945153
3941 1 3.6551 35.2554 21.2758 12 10.9335865282 1.7694480612 16.8219307704
3942 1 5.37504 37.097 21.2606 12 11.0639852457 1.7709190716 17.278258101
3943 1 5.27624 35.2766 23.0919 12 10.696203616 1.7679652159 16.141167255
3944 1 3.59847 37.0765 22.9579 12 10.8679386563 1.7649966736 18.5078804223
3945 1 7.10113 35.2769 21.2427 12 11.2484212381 1.7692957765 14.8384483333
3946 1 8.94389 37.0003 21.0866 12 11.3540571554 1.7761186948 15.5688702724
3947 1 8.96249 35.2211 22.9394 12 10.942205417 1.7761186948 14.2569500969
3948 1 7.05775 37.01 22.9415 12 10.858220967 1.7761186948 16.6338724385
3949 1 10.664 35.2853 21.1983 12 11.1226449618 1.8015800442 13.4104812524
3950 1 12.4405 37.1789 21.1233 12 10.9720820439 1.7529392963 14.7795007573
3951 1 12.4532 35.364 22.894 12 11.1375623436 1.7890347696 13.2524583114
3952 1 10.6498 37.1543 22.9258 12 11.2615722709 1.774609021 15.4607046497
3953 1 14.2388 35.4479 21.1843 12 10.7386155078 1.7273335748 12.7362191708
3954 1 16.0073 37.02 21.0966 12 10.8207304096 1.7505720125 13.9522213686
3955 1 15.8971 35.4287 22.9898 12 10.864852627 1.7518609077 12.7313257017
3956 1 14.1589 37.1608 22.9078 12 10.6544741747 1.7301631792 14.6284651703
3957 1 17.7332 35.2563 21.1161 12 11.0785124355 1.7810274884 12.0415351159
3958 1 19.4537 37.0809 21.1504 12 11.089060102 1.7654224979 13.9024390058
3959 1 19.5029 35.3219 22.8615 12 10.8264643122 1.7501969482 12.5060956662
3960 1 17.7031 37.1585 22.8831 12 10.9181230807 1.7676009724 14.2485751225
3961 1 21.1333 35.1882 21.158 12 10.8837698726 1.7655857554 12.3132150073
3962 1 23.0151 37.053 21.074 12 10.6982644502 1.7655857554 14.4780211082
3963 1 22.9838 35.4176 22.9109 12 10.8924628239 1.7589075393 13.2100106956
3964 1 21.1998 37.0545 22.9027 12 10.8187616594 1.7655857554 14.4218155375
3965 1 24.8034 35.4043 21.1266 12 10.4683886185 1.7055230034 13.3028463203
3966 1 26.5676 37.0764 21.1753 12 10.3633692293 1.7607979113 15.4503345863
3967 1 26.4941 35.4866 23.019 12 10.720714944 1.762648795 14.3758669382
3968 1 24.7491 37.0252 22.8368 12 10.5428507196 1.715734644 15.1600868784
3969 1 28.2 35.3593 21.218 12 10.7109094276 1.778933286 14.6322137567
3970 1 29.9668 36.9423 21.1194 12 10.9383452563 1.7546717308 16.86175739
3971 1 30.0505 35.3113 22.9675 12 11.0805935167 1.7639027992 15.9403997212
3972 1 28.2137 37.0927 23.0015 12 10.8284428369 1.7624101362 16.4853629106
3973 1 31.8344 35.3182 21.1585 12 11.1725602148 1.760395339 16.5407251748
3974 1 33.5867 37.1056 21.1856 12 11.2281427856 1.7603136498 18.9639687497
3975 1 33.5024 35.188 22.9958 12 11.0610615651 1.754169073 17.9089096663
3976 1 31.7814 37.047 22.962 12 11.0776816008 1.759575792 18.2908516537
3977 1 35.3397 35.3645 21.2778 12 11.06029395 1.760395339 18.7767044821
3978 1 37.0749 37.1148 21.1666 12 11.0534457221 1.755862974 21.1749416993
3979 1 37.1401 35.3902 23.0469 12 10.7519132208 1.755862974 20.4692037545
3980 1 35.3959 37.0826 22.8843 12 10.7238233575 1.7446680121 20.4327274318
3981 1 38.8521 35.3887 21.2728 12 11.2409648938 1.7642177177 21.3259331798
3982 1 40.5815 37.1606 21.1627 12 11.0318111569 1.7622639507 22.0118795302
3983 1 40.6176 35.3321 22.9529 12 11.1344706863 1.7622639507 21.0308162952
3984 1 38.8542 37.1857 22.975 12 11.0585405047 1.7753910005 22.8442110615
3985 1 0.0165085 38.8339 21.104 12 11.1392148756 1.7861114845 21.8119380983
3986 1 1.77842 40.6145 21.1408 12 10.795725176 1.7512845399 19.3215990836
3987 1 1.86194 38.8214 22.9625 12 11.4462734974 1.7861114845 20.870255353
3988 1 0.0588882 40.6232 22.8814 12 11.4365186389 1.7861114845 20.703641218
3989 1 3.51136 38.7977 21.1179 12 10.8831433894 1.7523930532 19.6945160338
3990 1 5.26402 40.6262 21.187 12 11.0800346877 1.7551080069 17.2197873512
3991 1 5.29319 38.8609 22.963 12 10.8660011569 1.7551148399 18.9539089317
3992 1 3.54583 40.6316 22.7989 12 10.9801735752 1.7543884108 18.4175417736
3993 1 7.06019 38.8814 21.2492 12 11.1770258777 1.7575966439 17.8919291586
3994 1 8.8861 40.6459 21.2043 12 10.9362972729 1.7749610509 15.5607133495
3995 1 8.69343 38.8334 22.9187 12 10.9690475001 1.7753645301 17.5694915883
3996 1 7.15343 40.6915 22.9542 12 11.0462478904 1.7551148399 16.5053595065
3997 1 10.5602 38.8356 21.0175 12 11.3579750184 1.7575966439 16.7606826121
3998 1 12.4369 40.606 21.1699 12 11.0013290619 1.7518754283 14.636601127
3999 1 12.475 38.8201 22.9531 12 10.9535439283 1.7518754283 16.5197015002
4000 1 10.5076 40.5514 22.9605 12 11.2706949877 1.7697670364 15.3914072863
4001 1 14.1317 38.8332 21.0998 12 10.7943557747 1.7505720125 16.0554552008
4002 1 15.9596 40.5414 21.1536 12 11.0364013047 1.7580611242 14.0807901481
4003 1 15.9001 38.8285 23.0197 12 10.7415900909 1.7505720125 16.0229362593
4004 1 14.2301 40.649 22.895 12 10.9117469915 1.759913629 14.4421260966
4005 1 17.6168 38.8535 21.1634 12 10.8653300858 1.7548393873 15.6111393832
4006 1 19.4618 40.5675 21.1591 12 11.3850668359 1.7831369488 13.9644003207
4007 1 19.39 38.8534 22.8809 12 10.9566526741 1.7940482162 15.8798709471
4008 1 17.6853 40.5807 22.8979 12 10.8298326832 1.7552469084 14.1392305885
4009 1 21.327 38.7448 21.2143 12 11.0943686959 1.782326656 15.8172674685
4010 1 23.0169 40.6816 21.2168 12 11.4070263444 1.7831369488 14.5675792608
4011 1 23.0474 38.8434 22.8248 12 10.8175987102 1.7614868603 16.4996137542
4012 1 21.1816 40.5513 23.0236 12 11.4670437769 1.7831369488 14.5052153616
4013 1 24.695 38.7918 21.1405 12 10.8860495923 1.7626305862 16.512609333
4014 1 26.5035 40.6679 21.2004 12 11.2761557438 1.7626305862 15.6392664304
4015 1 26.4592 38.8248 22.9117 12 11.2249257603 1.7626305862 17.3457680519
4016 1 24.7256 40.7386 22.9117 12 10.9767551216 1.7614046787 15.1794955464
4017 1 28.2277 38.7884 21.1991 12 10.6488655514 1.7624790381 17.6609641487
4018 1 29.9833 40.5057 21.2564 12 10.8141805015 1.7454501371 17.4659856538
4019 1 29.9633 38.8122 22.9817 12 11.0130369802 1.7586526107 18.7635495246
4020 1 28.2977 40.5695 22.9492 12 11.1580546154 1.7512508809 16.7843085522
4021 1 31.6928 38.707 21.1195 12 11.3211046556 1.7591313659 19.2417665035
4022 1 33.5319 40.5981 21.0791 12 11.1218809822 1.7568740972 19.5841182601
4023 1 33.5751 38.8248 23.0021 12 10.9917185088 1.759575792 20.7230519988
4024 1 31.7203 40.559 22.8256 12 11.2132432458 1.759575792 18.655246743
4025 1 35.2118 38.8053 21.1827 12 10.9928230811 1.754880665 21.2556039849
4026 1 37.0749 40.5987 21.1716 12 10.8050121641 1.7471778122 21.8460337989
4027 1 37.0898 38.9177 22.9692 12 10.932296382 1.7469185158 22.867997833
4028 1 35.1926 40.6173 22.8812 12 10.9252430031 1.7447228756 20.8454945643
4029 1 38.8865 38.7875 21.2384 12 10.9866266623 1.7445369731 23.6136636718
4030 1 40.6904 40.6812 21.1756 12 11.0838220001 1.7626471669 21.7531357261
4031 1 40.7126 38.8782 22.9006 12 11.3521783458 1.7861043509 23.1598384685
4032 1 38.7909 40.5856 22.9807 12 11.0817682929 1.762695247 23.2243002448
4033 1 42.3363 42.37 24.8186 12 10.9527532026 1.7772035342 20.0173400202
4034 1 1.63892 1.70053 24.729 12 11.0857845596 1.7614009788 17.6033608812
4035 1 1.79198 42.4161 26.5179 12 11.1023098633 1.7605989197 19.1664468104
4036 1 42.3991 1.78248 26.4646 12 10.8812677519 1.7507315861 19.1708363194
4037 1 3.63816 42.3532 24.6685 12 11.0682315517 1.7614009788 17.5047950528
4038 1 5.26346 1.71194 24.6692 12 11.1990677447 1.8147622702 15.2160195587
4039 1 5.32659 0.0373125 26.4762 12 10.652501334 1.7498426304 17.0721132196
4040 1 3.56641 1.70653 26.3014 12 11.3941793506 1.7735727113 16.7640978877
4041 1 7.11181 -0.0158333 24.7508 12 10.9011474864 1.7455256516 15.5718660297
4042 1 8.74844 1.72782 24.8432 12 11.0268277945 1.7611656136 13.4112210117
4043 1 8.8917 42.322 26.5287 12 11.159096051 1.7227722823 15.4113258284
4044 1 6.9709 1.61389 26.5519 12 11.1447368793 1.7821163031 15.0464980841
4045 1 10.5317 0.0144238 24.6834 12 10.9557712904 1.7697670364 14.037293055
4046 1 12.2954 1.75968 24.7058 12 11.0038914424 1.7564196271 11.8938420589
4047 1 12.2581 0.0383811 26.4333 12 11.2379408695 1.7770763279 14.0679337488
4048 1 10.5653 1.87274 26.4773 12 10.8308036887 1.733480704 13.0798367733
4049 1 14.0937 42.2965 24.7089 12 11.2474957287 1.7644308877 13.2628830852
4050 1 15.9141 1.76619 24.7126 12 11.1145585667 1.7640724181 11.2168591385
4051 1 15.9583 42.3661 26.447 12 10.9247096142 1.7631353123 13.4416837438
4052 1 14.2371 1.69752 26.4214 12 11.2921148732 1.7597779623 12.1449014035
4053 1 17.6897 0.0293039 24.6888 12 11.0175077492 1.7582400675 12.7614994092
4054 1 19.3621 1.71968 24.6703 12 11.1014431955 1.7652121277 11.2196451629
4055 1 19.4548 -0.0221899 26.4865 12 11.1001766168 1.7540395465 13.4326460334
4056 1 17.5928 1.8003 26.4478 12 10.9058421299 1.7540395465 11.6016861252
4057 1 21.0966 0.0679009 24.6678 12 11.1223690952 1.7637194925 12.9597535392
4058 1 23.0203 1.77142 24.6739 12 10.7339865218 1.7604343856 11.7674824494
4059 1 22.9635 0.00803492 26.3167 12 11.214728178 1.7544267214 13.8767847878
4060 1 21.1939 1.80145 26.5109 12 11.0252464202 1.7652121277 11.9896498295
4061 1 24.79 42.3364 24.6737 12 11.1213500477 1.7572486379 14.049496558
4062 1 26.5761 1.8874 24.748 12 11.0876334363 1.7640974425 13.2028080288
4063 1 26.512 0.0141372 26.514 12 10.9781670476 1.7549099405 15.2222496574
4064 1 24.737 1.7576 26.4582 12 10.9591188652 1.7549099405 12.9942111073
4065 1 28.2721 0.0624406 24.7233 12 10.9592278226 1.7505131557 15.586336844
4066 1 29.962 1.84238 24.7262 12 10.7723701633 1.7407390666 15.2146871121
4067 1 29.9129 42.3624 26.5014 12 11.1400997008 1.7463343648 17.1086300869
4068 1 28.2269 1.79204 26.4543 12 10.9266507759 1.7459680175 14.7289358772
4069 1 31.7209 0.0787163 24.7982 12 11.1449215801 1.7385534728 17.6251369925
4070 1 33.6324 1.82232 24.7498 12 11.3585494796 1.7877294127 17.5472613713
4071 1 33.493 0.0414645 26.4599 12 11.0316113807 1.7394007574 19.1734083676
4072 1 31.7396 1.79338 26.4735 12 10.9276429264 1.740111163 16.8242420549
4073 1 35.3579 0.0710651 24.5732 12 11.048564242 1.7579591854 19.8802869558
4074 1 37.0956 1.70217 24.6991 12 10.9538304007 1.7714148553 19.9824933583
4075 1 37.0791 0.0528192 26.4712 12 10.7782301253 1.7579591854 21.5639233449
4076 1 35.3497 1.70121 26.5393 12 10.9936532125 1.7717886169 19.3155743845
4077 1 38.8612 42.3012 24.7362 12 11.3618664389 1.772149978 22.4446513018
4078 1 40.7313 1.68147 24.7957 12 10.884123421 1.772149978 19.9904584713
4079 1 40.6281 42.266 26.616 12 10.8910696443 1.7431003007 21.7208699651
4080 1 38.9368 1.64958 26.4962 12 11.0245499184 1.77728669 21.8197921434
4081 1 42.3068 3.5144 24.6455 12 11.0733628176 1.7577135403 17.6487532872
4082 1 1.71707 5.2913 24.7969 12 11.0062536069 1.7606869712 15.2661136623
4083 1 1.74395 3.4985 26.4286 12 11.32854752 1.7735727113 16.8219412938
4084 1 42.2821 5.30164 26.581 12 10.9645434058 1.7521431361 17.285402693
4085 1 3.39174 3.6002 24.5798 12 11.3203690127 1.8147622702 15.058675
4086 1 5.28362 5.33396 24.6849 12 11.0135339576 1.8147622702 12.6184661097
4087 1 5.27365 3.50849 26.5759 12 11.604288602 1.8147622702 14.5451681193
4088 1 3.67904 5.24613 26.3956 12 10.8148518961 1.773536233 14.3731653199
4089 1 7.10185 3.51132 24.7526 12 11.487159429 1.8131510598 12.8476272707
4090 1 8.79376 5.25738 24.7197 12 10.8569689902 1.7624898173 10.6130338607
4091 1 8.84774 3.51476 26.5511 12 11.077917216 1.7818109302 12.6564368888
4092 1 7.02779 5.34395 26.4492 12 10.9944147836 1.7763724484 12.1960362212
4093 1 10.5044 3.5712 24.6636 12 10.9320066796 1.7624993599 11.019803281
4094 1 12.3146 5.2847 24.6416 12 11.0417704235 1.7637455091 8.8293700016
4095 1 12.362 3.47069 26.368 12 11.3903372776 1.8133819195 11.094934394
4096 1 10.5802 5.27714 26.6101 12 11.2215665689 1.7637455091 10.5801360685
4097 1 14.1206 3.60604 24.6686 12 10.9577659011 1.7558317905 9.7769163275
4098 1 15.8874 5.26004 24.6606 12 10.9662454055 1.738677709 7.9217173112
4099 1 15.9165 3.55412 26.4007 12 10.8582403923 1.7504779965 10.1331840894
4100 1 14.0897 5.3168 26.5152 12 11.1512363082 1.7637455091 9.177374841
4101 1 17.7828 3.61355 24.7095 12 10.9462490323 1.7704555229 9.3068013897
4102 1 19.4227 5.30561 24.7253 12 11.1226930892 1.755753343 7.8616840351
4103 1 19.3942 3.47998 26.4451 12 11.1536426894 1.755753343 10.214224507
4104 1 17.6841 5.35635 26.5083 12 10.7884938829 1.7542113895 8.458762764
4105 1 21.249 3.62348 24.6538 12 11.3212792614 1.7652121277 9.6250788793
4106 1 22.9865 5.35235 24.7762 12 11.3406426442 1.7945048196 8.6565855724
4107 1 22.9138 3.4782 26.5182 12 10.8115410378 1.753376199 10.9373952315
4108 1 21.234 5.29646 26.5591 12 11.038394359 1.755753343 9.0469872029
4109 1 24.667 3.53911 24.7755 12 10.8748432005 1.7392489836 10.8965582127
4110 1 26.4298 5.29383 24.8063 12 11.2167038862 1.7754874916 10.546647933
4111 1 26.4702 3.57773 26.4378 12 10.9692957698 1.7472003787 12.4133136004
4112 1 24.6516 5.232 26.5778 12 10.8837660347 1.7454898949 10.3267764484
4113 1 28.3345 3.56454 24.7393 12 10.8045784196 1.7754874916 12.9427419619
4114 1 30.0286 5.42219 24.7276 12 10.6491273908 1.7735311605 12.649399228
4115 1 29.9718 3.5343 26.4661 12 10.6752465913 1.7458705289 14.5094977449
4116 1 28.3559 5.34186 26.5538 12 10.8390122528 1.7754874916 12.3397824479
4117 1 31.7455 3.51632 24.7626 12 11.3185430602 1.7931748643 15.1148074254
4118 1 33.6608 5.10996 24.6597 12 11.2489925049 1.7721039878 15.3575991776
4119 1 33.5572 3.58592 26.436 12 11.1602850023 1.7717886169 16.8351346652
4120 1 31.7072 5.2829 26.4928 12 10.958546867 1.7668384931 14.513824982
4121 1 35.3429 3.43958 24.5957 12 10.7066381119 1.7717886169 17.5848449956
4122 1 37.0956 5.17408 24.6098 12 11.195353892 1.7729519159 17.9301502357
4123 1 37.0935 3.47993 26.4448 12 11.1515745049 1.77728669 19.4427658831
4124 1 35.3485 5.23849 26.4564 12 11.264514056 1.7716166444 17.1801828606
4125 1 38.9371 3.4203 24.6582 12 11.1392838848 1.77728669 20.2863150274
4126 1 40.654 5.2977 24.7104 12 11.0434198258 1.7453556478 17.9248118257
4127 1 40.6684 3.44457 26.4785 12 10.8432976782 1.7770639134 19.4824600197
4128 1 38.8604 5.20136 26.3953 12 11.1414331362 1.77728669 19.9107123468
4129 1 0.0142371 7.00587 24.763 12 11.0196552572 1.760657617 15.6489351019
4130 1 1.795 8.81108 24.7876 12 10.9897615154 1.7606869712 13.3888460699
4131 1 1.79514 6.93682 26.5446 12 11.0057791843 1.7604604851 14.9563114531
4132 1 0.0237078 8.75381 26.558 12 11.0536278125 1.7574287412 15.5471009626
4133 1 3.53685 7.00099 24.7655 12 10.6999509248 1.7606869712 12.9095935192
4134 1 5.19388 8.75408 24.7619 12 11.1595404971 1.7793047522 10.7172208551
4135 1 5.22325 7.11119 26.562 12 10.7296226294 1.7197854603 12.2883021104
4136 1 3.44664 8.912 26.5591 12 10.9252567981 1.7562357964 12.7696256533
4137 1 7.06906 6.93767 24.7168 12 10.8385443415 1.7432797634 10.3689712682
4138 1 8.73923 8.88115 24.7284 12 11.2967749498 1.774963376 8.0538636833
4139 1 8.87883 7.02835 26.4071 12 10.9842935666 1.774963376 10.0414508343
4140 1 7.00753 8.68204 26.5184 12 11.3026731573 1.774963376 10.2173929437
4141 1 10.6055 7.0848 24.8225 12 10.9399852321 1.7639566966 8.3597479625
4142 1 12.2655 8.80265 24.7696 12 11.0423319197 1.772487885 6.3576870067
4143 1 12.3849 7.02704 26.5359 12 10.691551305 1.7628419968 8.5779247603
4144 1 10.5874 8.75997 26.5392 12 10.8222050889 1.7744181926 8.2208762115
4145 1 14.0909 7.06873 24.5943 12 10.9248325126 1.7720452931 6.7735823474
4146 1 15.854 8.74362 24.722 12 10.613190639 1.7710972304 4.9826545598
4147 1 15.9232 6.99866 26.3636 12 10.8170322108 1.7503509071 7.2415106563
4148 1 14.1742 8.71946 26.4377 12 11.040287303 1.7914962175 6.7039191573
4149 1 17.6062 7.07383 24.6812 12 10.7956107415 1.7477173237 6.0658227963
4150 1 19.4945 8.79175 24.7473 12 10.8538274237 1.7508450394 4.900170763
4151 1 19.48 7.05914 26.5193 12 10.8876161707 1.754690854 7.3074490825
4152 1 17.6786 8.74233 26.4389 12 11.0286228368 1.7503509071 5.8216021057
4153 1 21.2427 7.09944 24.7449 12 11.0154960237 1.7502533174 6.6050880978
4154 1 22.869 8.78699 24.7171 12 10.9752711152 1.7736312504 6.0374564732
4155 1 23.0085 7.03436 26.5709 12 10.9589190537 1.7725655811 8.3270306433
4156 1 21.1396 8.75519 26.5501 12 11.1718040625 1.7736312504 6.5405909633
4157 1 24.7365 7.10657 24.7329 12 11.1311062963 1.7535779743 8.2268528462
4158 1 26.4878 8.82469 24.7347 12 10.6759160943 1.785056721 8.098368847
4159 1 26.4942 7.03458 26.5037 12 11.1654845075 1.7868294697 10.1372693124
4160 1 24.7007 8.89616 26.4482 12 10.9771269892 1.785056721 8.0268081433
4161 1 28.2544 7.10799 24.712 12 10.7959254459 1.7754874916 10.3333885902
4162 1 29.9848 8.82363 24.7429 12 11.0116673953 1.7639429183 10.6032456344
4163 1 30.0182 7.08525 26.5658 12 10.5540642846 1.7477931317 12.320780692
4164 1 28.2879 8.80961 26.5505 12 10.9473761769 1.784769957 10.2165219534
4165 1 31.7498 6.96625 24.7835 12 11.0765356859 1.7721039878 12.9258599822
4166 1 33.4497 8.79832 24.715 12 11.1621013998 1.7657949888 13.2695855955
4167 1 33.5661 7.00453 26.5147 12 11.2793200078 1.7721039878 14.9662660617
4168 1 31.7822 8.82516 26.5079 12 10.8585212756 1.7676412919 12.7641958909
4169 1 35.2763 7.08214 24.6503 12 11.4926291364 1.7765712651 15.5148054565
4170 1 37.0993 8.82491 24.7322 12 11.2246758324 1.7770176107 16.3703091229
4171 1 37.0655 6.91882 26.4798 12 11.398304075 1.7770176107 17.7102883789
4172 1 35.3033 8.82367 26.5019 12 11.4312873181 1.7902600052 15.4873305267
4173 1 38.8735 7.00649 24.7063 12 11.3583324182 1.7888798721 18.6038121596
4174 1 40.6622 8.7451 24.845 12 11.2128199622 1.7756649889 16.4528637066
4175 1 40.5924 6.9669 26.5793 12 10.9616091571 1.766473645 17.8310664932
4176 1 38.8409 8.77513 26.4705 12 10.8645819825 1.766473645 18.4726823373
4177 1 0.050534 10.5189 24.8452 12 11.1196105692 1.7656673321 14.2098360779
4178 1 1.76857 12.4186 24.5951 12 10.85563705 1.7656673321 11.9438556263
4179 1 1.73899 10.6354 26.595 12 10.748142342 1.7166030164 13.3651484054
4180 1 3.79373e-04 12.3459 26.4656 12 11.1100071094 1.778389589 14.1961412219
4181 1 3.41085 10.6215 24.767 12 10.8694795049 1.7793047522 11.286508176
4182 1 5.09631 12.3193 24.7256 12 11.0805671163 1.7788260252 9.1715608175
4183 1 5.22799 10.4916 26.5704 12 11.1187441288 1.7780380377 10.7231620488
4184 1 3.5035 12.2927 26.5226 12 11.0435831989 1.7361920402 11.2850896705
4185 1 6.96094 10.6339 24.8393 12 11.393542358 1.7793047522 8.5077685719
4186 1 8.79689 12.4146 24.71 12 11.1637592366 1.7715164857 6.27610368
4187 1 8.76998 10.5912 26.5451 12 11.2757990676 1.7742965443 8.1147107879
4188 1 6.94936 12.38 26.5507 12 11.2519310435 1.7715164857 8.5930432663
4189 1 10.5732 10.665 24.7116 12 11.2299284253 1.7650488537 5.9126796413
4190 1 12.3056 12.3728 24.7319 12 11.1687171886 1.7557935517 4.0755902459
4191 1 12.3153 10.5495 26.4001 12 11.21071644 1.7914962175 6.2703981874
4192 1 10.5907 12.4355 26.5151 12 11.1656200704 1.7702125393 6.0228773191
4193 1 14.1122 10.6147 24.555 12 11.0012633187 1.7900236713 4.2679906697
4194 1 15.9226 12.278 24.609 12 10.9508537709 1.7538957683 2.5646950704
4195 1 15.8933 10.4952 26.2984 12 11.1330313198 1.7914962175 4.9293913985
4196 1 14.0847 12.3065 26.4342 12 11.3342281032 1.7914633315 4.5402362076
4197 1 17.6165 10.6002 24.6587 12 10.7619030874 1.7508560252 3.2720370067
4198 1 19.3637 12.3021 24.6475 12 11.2390480273 1.7709726735 2.41512408
4199 1 19.3502 10.6243 26.4851 12 11.2161224312 1.7635152245 4.8751613628
4200 1 17.6562 12.3618 26.4717 12 11.2351181643 1.7538957683 4.0035502805
4201 1 21.1216 10.5033 24.6673 12 11.0136380722 1.7691453729 4.1268150225
4202 1 22.9899 12.4176 24.6163 12 11.3123899116 1.771158332 3.9863140093
4203 1 22.9405 10.6596 26.3447 12 11.344343798 1.7736312504 6.0616591708
4204 1 21.1824 12.4211 26.3538 12 11.2877951139 1.771158332 4.2934462874
4205 1 24.8073 10.5908 24.7296 12 11.0534966464 1.7570856641 6.0475838839
4206 1 26.4961 12.36 24.7954 12 11.0318998495 1.7717625156 6.4085079289
4207 1 26.5191 10.6251 26.5342 12 10.9617716307 1.7845195611 8.1592413427
4208 1 24.7236 12.4631 26.49 12 10.9985906957 1.7564325689 6.0834955886
4209 1 28.2737 10.5803 24.6675 12 10.9808047451 1.759756549 8.4457369689
4210 1 29.9718 12.4558 24.7122 12 10.7432734686 1.7533850942 8.912550538
4211 1 30.0322 10.6492 26.447 12 10.8913232407 1.759756549 10.598776613
4212 1 28.2815 12.4403 26.4644 12 10.6789317481 1.7589794415 8.5550981587
4213 1 31.7467 10.5717 24.8105 12 10.895580228 1.7506563591 11.1807780572
4214 1 33.4694 12.387 24.7681 12 11.2334296194 1.7726524536 11.9289955838
4215 1 33.4797 10.6472 26.433 12 11.0705389268 1.7902600052 13.2159443922
4216 1 31.6835 12.4132 26.4835 12 10.9306700873 1.7506563591 11.1087858655
4217 1 35.3612 10.5985 24.7116 12 11.0173961064 1.7898734186 14.2039884894
4218 1 37.0983 12.3711 24.5541 12 10.9226307565 1.764726795 15.1949894018
4219 1 37.1185 10.6482 26.4703 12 11.2428318578 1.7881464582 16.2948392884
4220 1 35.4106 12.3955 26.4171 12 11.4671705258 1.7902600052 14.2406794206
4221 1 38.8954 10.644 24.7048 12 11.1077773486 1.7649564983 17.363050149
4222 1 40.6686 12.3532 24.6931 12 10.9135131863 1.7705998938 15.2240256281
4223 1 40.612 10.4197 26.5238 12 11.2168364856 1.778389589 16.4051404525
4224 1 38.8989 12.3895 26.426 12 11.4419617095 1.778389589 17.3535644811
4225 1 0.013127 14.0633 24.6388 12 10.8136612635 1.764493647 13.1920043536
4226 1 1.74631 15.9445 24.6481 12 10.9423714556 1.7447770203 11.3763956584
4227 1 1.7803 14.0178 26.5185 12 11.2195307013 1.7447770203 12.2802863098
4228 1 42.3952 15.8106 26.5297 12 11.5246863374 1.7571465043 13.7187607733
4229 1 3.48926 14.2086 24.7102 12 11.055772188 1.7580628997 9.9660482585
4230 1 5.35778 15.8441 24.7572 12 10.6966596976 1.7468257323 8.0868660302
4231 1 5.17305 14.0961 26.5682 12 10.9757464869 1.744899835 9.4431313917
4232 1 3.41832 15.8854 26.547 12 11.2405195286 1.7561955975 10.5907432889
4233 1 6.91216 14.0801 24.7196 12 11.0489406723 1.7483215907 7.0728040663
4234 1 8.74686 15.9103 24.6174 12 11.223889475 1.7688039357 5.0519198716
4235 1 8.80882 14.1564 26.3564 12 11.4162603714 1.8234336648 6.4462753384
4236 1 6.95391 15.8618 26.5967 12 10.9810574661 1.765257103 7.5572118724
4237 1 10.549 14.192 24.6432 12 10.8392703825 1.7688039357 4.1503556444
4238 1 12.3649 15.8591 24.7505 12 11.2054670172 1.7670633272 2.4744931559
4239 1 12.3052 14.1628 26.3722 12 11.1338815954 1.7773301045 4.3017410043
4240 1 10.5598 15.8803 26.483 12 11.3252282188 1.7688039357 4.8670718888
4241 1 14.1921 14.0861 24.556 12 11.3754857263 1.7773301045 2.1606375993
4242 1 15.9374 15.9054 24.6983 12 11.0876238436 1.7547178908 1.3104225913
4243 1 15.9148 14.1414 26.439 12 11.342986187 1.7768007709 3.4260636772
4244 1 14.1599 15.8525 26.4458 12 11.1127000258 1.7773301045 3.3844993014
4245 1 17.6681 14.144 24.6659 12 11.155621764 1.7439681271 1.5581175892
4246 1 19.3497 15.9361 24.6996 11 11.6429509382 2.3818557103 0.8079556027
4247 1 19.4571 14.0823 26.5931 12 11.2094489126 1.7695783539 3.4142472017
4248 1 17.6799 15.8369 26.5097 12 11.1771897882 1.7665036664 2.547608336
4249 1 21.0989 14.273 24.7473 12 11.0943227583 1.771158332 2.1049083275
4250 1 22.944 15.7756 24.594 12 11.1140054846 1.7830213364 2.2797850447
4251 1 22.8509 14.1122 26.5172 12 11.0618550652 1.7664645584 4.2535316282
4252 1 21.1323 15.9182 26.4787 12 11.1752223954 1.7664645584 2.687178424
4253 1 24.6827 14.1113 24.6625 12 11.0884751837 1.760662546 4.2636820593
4254 1 26.5133 15.9251 24.7783 12 11.0418300484 1.760662546 4.8507954518
4255 1 26.5238 14.0585 26.5252 12 10.6722486483 1.7581182771 6.5873785017
4256 1 24.7067 15.7762 26.4372 12 11.1446818969 1.7764124545 4.7317883443
4257 1 28.1927 14.0921 24.7973 12 10.8042406179 1.7590738032 6.8961049941
4258 1 30.053 15.8805 24.7244 12 10.9913727272 1.740742704 7.9802945229
4259 1 29.9519 14.1885 26.4691 12 10.7638622099 1.7312557753 9.0444658357
4260 1 28.2942 16.0497 26.4868 12 11.0696799507 1.7223603367 7.1507575727
4261 1 31.716 14.1527 24.6668 12 10.8498624197 1.7660097338 9.8444466131
4262 1 33.3785 15.9145 24.7884 12 11.1236706482 1.7726524536 11.1444889209
4263 1 33.4936 14.1696 26.5304 12 11.4067722514 1.7723084753 12.1198717508
4264 1 31.7124 15.8608 26.6053 12 10.7753745281 1.7324553184 10.1730245
4265 1 35.3614 14.1358 24.6904 12 11.2367836414 1.7726524536 13.2319383031
4266 1 37.1197 15.9292 24.7247 12 10.7567441217 1.7641752853 14.7483657757
4267 1 37.0903 14.1767 26.4826 12 11.1868222611 1.7790174463 15.395926581
4268 1 35.3349 15.9145 26.4762 12 11.136385611 1.7641168031 13.4752084615
4269 1 38.9004 14.1542 24.7661 12 10.8535497313 1.764726795 16.5914082794
4270 1 40.7153 15.7932 24.7498 12 10.8804220334 1.7643856676 14.7097430935
4271 1 40.7065 14.036 26.4733 12 10.8931156879 1.7722635063 15.4039730586
4272 1 38.9401 15.7506 26.5945 12 11.1536321488 1.7838441541 16.9565240891
4273 1 0.109679 17.5853 24.6056 12 11.1763483113 1.7571465043 12.8857055037
4274 1 1.74951 19.4643 24.6317 12 11.2091750762 1.7803691001 11.2991349718
4275 1 1.70147 17.7718 26.465 12 11.3505247767 1.7571465043 12.0294746622
4276 1 0.0161966 19.4639 26.4041 12 11.3383537083 1.7657965888 13.5295217568
4277 1 3.58723 17.6255 24.7413 12 11.2445285314 1.7814041138 9.6321564972
4278 1 5.33624 19.496 24.6342 12 11.108966067 1.7814041138 7.9505925667
4279 1 5.29823 17.6907 26.5207 12 10.7785250873 1.7546895819 8.7574349535
4280 1 3.52707 19.4211 26.4531 12 11.0542188686 1.7814041138 10.3791006965
4281 1 6.93486 17.6242 24.7724 12 11.0019691976 1.7628286146 6.5575721409
4282 1 8.74483 19.4313 24.6701 12 11.1349196556 1.76640337 5.0187856386
4283 1 8.7962 17.6789 26.4747 12 11.1895662095 1.7662538008 5.7766284781
4284 1 7.01869 19.4448 26.5085 12 11.0791888457 1.7514524391 7.4383990729
4285 1 10.6342 17.7232 24.7486 12 11.3461668894 1.7688039357 3.2608382078
4286 1 12.4358 19.3821 24.7994 12 10.7127996427 1.7738693156 2.4228823903
4287 1 12.5006 17.7688 26.4285 12 11.2921615115 1.7663717799 3.6739914272
4288 1 10.4762 19.3823 26.5279 12 11.1355053395 1.7663717799 4.9185809437
4289 1 14.277 17.7452 24.7998 12 10.8720122008 1.7372993949 1.4731758262
4290 1 15.8743 19.5328 24.6512 11 11.4691777024 2.2856901191 0.6573816031
4291 1 15.8295 17.6146 26.5475 12 11.2833031496 1.7572714968 2.5302751684
4292 1 14.1712 19.5521 26.5939 12 10.9276176086 1.7654643966 3.1984269802
4293 1 17.679 17.7411 24.697 10 13.5363881166 2.8158635186 0.2428528615
4294 1 19.4662 19.3694 24.6157 10 13.549159647 2.8577920251 0.2547235374
4295 1 19.2875 17.6299 26.4534 12 10.9045659695 1.7569126493 1.9372068451
4296 1 17.6568 19.3886 26.5662 12 10.9091119027 1.7573059921 2.0697492385
4297 1 21.1951 17.6467 24.7693 11 11.7397626948 2.2918429586 0.6495974164
4298 1 22.9333 19.3493 24.6913 12 11.0114252427 1.7826364299 2.1031716036
4299 1 23.0871 17.6226 26.4778 12 11.1355151786 1.7819628944 3.1984235241
4300 1 21.1507 19.3191 26.5387 12 11.2948159082 1.7573059921 2.544772478
4301 1 24.7535 17.6179 24.7492 12 11.0592984197 1.7830213364 3.1515326022
4302 1 26.4816 19.4278 24.7447 12 10.7742236173 1.7664608171 4.8502747132
4303 1 26.4448 17.6593 26.4668 12 10.9194547227 1.7693363793 5.5622722072
4304 1 24.6716 19.4259 26.5435 12 10.8145780578 1.7655950678 4.6208195559
4305 1 28.284 17.7288 24.7203 12 11.0671134948 1.7526910357 6.1376102841
4306 1 30.0385 19.4449 24.687 12 11.1788096267 1.7571389575 7.9210994617
4307 1 30.0624 17.6903 26.538 12 11.0949699001 1.7387385967 8.5208016224
4308 1 28.1733 19.3322 26.6361 12 11.1562302984 1.7370752962 7.1961852931
4309 1 31.7556 17.6531 24.7925 12 10.9745725451 1.7570837343 9.4694977685
4310 1 33.6125 19.4049 24.8426 12 10.9860897181 1.7570837343 11.3273961867
4311 1 33.5021 17.5634 26.6432 12 10.9366577822 1.7539600996 11.695952074
4312 1 31.8922 19.4653 26.5603 12 10.8855151344 1.7570837343 10.3452610272
4313 1 35.3371 17.6095 24.7352 12 11.1141981718 1.7588298157 12.9503368628
4314 1 37.1546 19.3743 24.686 12 11.1400981937 1.7588298157 14.6976701823
4315 1 37.085 17.6252 26.472 12 11.2181081078 1.7838441541 15.051149462
4316 1 35.3233 19.4108 26.4283 12 11.0861764648 1.7588298157 13.4472430997
4317 1 38.9249 17.4772 24.7867 12 11.0392263762 1.7812317461 16.4270502221
4318 1 40.7402 19.4162 24.6587 12 11.3134378973 1.7630261242 14.6141240717
4319 1 40.6376 17.6593 26.5459 12 11.4772374243 1.7838441541 15.2877405834
4320 1 38.9197 19.381 26.4067 12 11.4520235561 1.7804011461 16.8359868511
4321 1 0.0353971 21.262 24.6379 12 11.0878950704 1.7609426168 13.1301493312
4322 1 1.7722 22.9886 24.7967 12 11.0814545194 1.7492493362 11.9899884728
4323 1 1.89854 21.2515 26.5091 12 11.1176638786 1.7609426168 12.0530963028
4324 1 42.3716 22.9647 26.5425 12 11.0029855659 1.7852540094 14.1911493556
4325 1 3.49882 21.2225 24.7252 12 11.0816614292 1.7887968973 9.9112100714
4326 1 5.33455 23.013 24.7777 12 10.7916973083 1.7539080473 8.9347790182
4327 1 5.25777 21.1781 26.4615 12 11.0848285203 1.7541407591 9.1808200072
4328 1 3.59567 22.962 26.51 12 10.8287478369 1.7541910769 11.0713043841
4329 1 7.10932 21.2075 24.6968 12 10.9203530228 1.7659239038 6.7645422916
4330 1 8.85801 22.957 24.7121 12 11.1201358384 1.7833522402 6.2383234118
4331 1 8.82457 21.2444 26.4228 12 11.131311615 1.7780331213 6.4494066695
4332 1 7.10197 22.9437 26.4698 12 10.8528718292 1.7541407591 8.3748192336
4333 1 10.6491 21.1059 24.692 12 11.2448544261 1.7828185032 4.0409403827
4334 1 12.4188 22.9126 24.8364 12 11.2647958925 1.7833522402 4.0294822895
4335 1 12.3034 21.1196 26.51 12 10.7768439905 1.7487190274 4.3448180602
4336 1 10.6275 22.959 26.5971 12 10.8696444472 1.7833522402 6.0520943107
4337 1 14.1138 21.1583 24.8313 12 10.7601383542 1.7352375473 2.211377274
4338 1 15.8673 22.9094 24.7539 12 11.2902253309 1.7737281254 2.3560889449
4339 1 16.027 21.1606 26.5581 12 10.9269862699 1.754685975 2.7393944934
4340 1 14.2306 22.8574 26.5635 12 10.8971648245 1.7496746433 4.244624888
4341 1 17.7642 20.995 24.741 11 11.9088865976 2.3919972097 0.8179114135
4342 1 19.3883 22.998 24.6639 12 11.0701681625 1.7737281254 2.1894101921
4343 1 19.3883 21.1572 26.4196 12 11.0799424481 1.7573059921 2.5976968343
4344 1 17.7412 22.9455 26.5505 12 11.2101265598 1.7737281254 3.4715844483
4345 1 21.1775 21.1401 24.6723 12 10.8887154199 1.7859465149 1.9399324859
4346 1 22.8289 22.8827 24.6743 12 10.7743118108 1.7587152213 3.7142100277
4347 1 22.8326 21.0864 26.4391 12 11.3402831203 1.7732030173 4.0059421041
4348 1 21.1688 22.8283 26.4029 12 11.0861374168 1.7517920272 4.0171122681
4349 1 24.6355 21.1438 24.68 12 10.9417358014 1.7664608171 4.0029933713
4350 1 26.4258 22.855 24.7397 12 11.3193624901 1.7856323971 6.0723072353
4351 1 26.338 21.0804 26.4343 12 10.9170924485 1.7470741742 6.1876091341
4352 1 24.66 22.9105 26.5211 12 11.1686067734 1.7570168414 5.9285416433
4353 1 28.2579 21.0394 24.7449 12 11.2832463813 1.7856323971 6.718496701
4354 1 30.0724 22.9244 24.8021 12 11.3991225522 1.7852231749 8.9177350504
4355 1 30.0281 21.1405 26.5679 12 11.1701272806 1.7437307704 9.1310532478
4356 1 28.2568 22.867 26.4893 12 11.2325061931 1.7856323971 8.350238065
4357 1 31.832 21.1585 24.6631 12 11.0239269024 1.7570837343 9.8197343081
4358 1 33.6328 23.0652 24.7481 12 11.2289446978 1.7613337697 12.0118216022
4359 1 33.5758 21.2475 26.5465 12 10.8591756226 1.7605881181 12.1417876705
4360 1 31.8183 22.9131 26.4927 12 11.1823809599 1.7613337697 11.0648014868
4361 1 35.4034 21.1961 24.791 12 11.1613280661 1.7579523232 13.2025326373
4362 1 37.067 22.988 24.6834 12 10.9363820235 1.7640259487 15.1333943307
4363 1 37.1965 21.1711 26.424 12 11.156529462 1.7735173063 15.3792200957
4364 1 35.3365 22.9884 26.5379 12 11.0681303874 1.7674020197 14.1032629852
4365 1 38.9483 21.0932 24.7118 12 11.0644432591 1.7708961349 16.497929234
4366 1 40.6872 22.9719 24.6898 12 10.8378546785 1.7655370768 15.1871161971
4367 1 40.7676 21.2966 26.4943 12 11.0643372938 1.7753394339 15.2806775308
4368 1 38.8594 22.9101 26.3724 12 11.2574364601 1.7753394339 17.2305603849
4369 1 0.0117764 24.6708 24.7663 12 11.1839934095 1.7861306872 14.1658904297
4370 1 1.75192 26.4781 24.7058 12 11.044945713 1.7701004547 13.505549602
4371 1 1.84806 24.7961 26.5997 12 11.2772116142 1.7861312498 13.2509090853
4372 1 -0.00879877 26.5867 26.4697 12 11.1338458246 1.7861312498 15.5305370794
4373 1 3.56416 24.7702 24.7117 12 10.9013141639 1.7701202875 11.1833258036
4374 1 5.30161 26.4538 24.7163 12 11.1291729358 1.7701202875 10.6532098064
4375 1 5.29461 24.7004 26.4366 12 10.565291807 1.7539399994 10.5142763827
4376 1 3.55302 26.5165 26.5186 12 11.1690178374 1.7701202875 12.7369533266
4377 1 7.02044 24.6756 24.826 12 10.9083311184 1.7585776414 8.4814690367
4378 1 8.82948 26.4754 24.6285 12 11.1989781095 1.7458717157 8.0754221253
4379 1 8.88362 24.6854 26.455 12 11.0126279779 1.7458717157 7.9811080217
4380 1 7.05928 26.5706 26.4083 12 11.0069592216 1.7522216565 10.1673908998
4381 1 10.7062 24.7826 24.7319 12 11.0912183256 1.7833522402 6.0023847946
4382 1 12.4013 26.4452 24.672 12 11.1580693906 1.7532049483 6.3040692451
4383 1 12.3176 24.7032 26.6011 12 10.9019941958 1.7496746433 6.230540491
4384 1 10.7208 26.4161 26.4895 12 10.9668785424 1.7458717157 8.0493197753
4385 1 14.1337 24.7195 24.893 12 11.0721098553 1.7496746433 4.4150058303
4386 1 15.8613 26.5249 24.7028 12 11.0363412047 1.7765862201 4.8747164098
4387 1 15.9293 24.7172 26.5273 12 10.9428481483 1.7765862201 4.777847269
4388 1 14.104 26.4173 26.5214 12 11.376037528 1.7765862201 6.51003363
4389 1 17.5812 24.7941 24.7778 12 10.9886109156 1.7651750126 3.199489215
4390 1 19.4298 26.4066 24.621 12 11.1272245495 1.7875782404 4.7216732144
4391 1 19.441 24.7267 26.4439 12 11.0972519581 1.7604478601 4.6371285675
4392 1 17.6778 26.4352 26.5364 12 10.9087107511 1.7758677925 5.6044645816
4393 1 21.1586 24.6315 24.638 12 10.8603072574 1.7876285011 4.0043845079
4394 1 23.0178 26.4296 24.7068 12 10.9945453872 1.7876285011 6.1214430782
4395 1 22.894 24.6476 26.452 12 11.3200972707 1.7516959639 5.8719045274
4396 1 21.199 26.5047 26.5152 12 11.2026853379 1.7876285011 6.4400421755
4397 1 24.6598 24.6528 24.7236 12 11.2238715453 1.7707013035 5.6719221161
4398 1 26.5787 26.3724 24.6805 12 11.1796202131 1.7667159396 7.8878792806
4399 1 26.4772 24.6023 26.3872 12 11.1405323666 1.7815583848 7.776226807
4400 1 24.6965 26.5214 26.4888 12 11.413131841 1.7667159396 7.9123328553
4401 1 28.2529 24.638 24.7027 12 11.110003164 1.7849804727 8.2323440976
4402 1 29.8958 26.4099 24.766 12 10.9949844674 1.7889687453 10.3656640777
4403 1 30.1009 24.7626 26.4958 12 11.1096033396 1.7830157573 10.5216843341
4404 1 28.2342 26.5005 26.5271 12 11.0884221852 1.7829998547 9.944757579
4405 1 31.8699 24.7633 24.7513 12 11.227128291 1.7889687453 11.1451493725
4406 1 33.6743 26.5032 24.7458 12 11.3183267905 1.7826750745 13.3538145738
4407 1 33.4864 24.7859 26.5541 12 11.3589606783 1.7703699132 13.1823779226
4408 1 31.8075 26.5191 26.4537 12 11.0051018394 1.7884764166 12.6130055243
4409 1 35.4943 24.6767 24.6671 12 10.8139691907 1.764312984 14.1875263218
4410 1 37.0296 26.5088 24.7081 12 10.9929371601 1.7607918531 16.1911451509
4411 1 37.0077 24.736 26.4724 12 10.9021471439 1.76737058 16.1116406363
4412 1 35.252 26.5377 26.439 12 11.2274677279 1.789831695 15.3205810356
4413 1 38.8949 24.6858 24.8229 12 10.7557798586 1.7600314211 17.3310817506
4414 1 40.5448 26.4503 24.7214 12 10.9977162373 1.7660436966 16.5400363827
4415 1 40.6999 24.7362 26.4852 12 11.1418429354 1.7861312498 16.2086649065
4416 1 38.7723 26.4549 26.5538 12 11.0028605236 1.7643769014 18.29819696
4417 1 42.3758 28.1344 24.7026 12 11.0008398244 1.7678105151 15.7902247597
4418 1 1.79825 30.0325 24.8029 12 11.0451255441 1.7678105151 15.357146567
4419 1 1.72959 28.2304 26.5157 12 11.0539652379 1.7678105151 15.0002170882
4420 1 -0.0248179 29.9087 26.4554 12 11.1060039602 1.7611774258 17.2185764435
4421 1 3.48436 28.3091 24.7509 12 11.141852123 1.7701202875 13.063329526
4422 1 5.29525 29.8883 24.7013 12 11.1986940754 1.7839612328 12.6666677095
4423 1 5.30527 28.3501 26.542 12 10.8889218193 1.7450411278 12.3942541892
4424 1 3.55569 30.0003 26.5564 12 10.8866816662 1.7469347386 14.580968241
4425 1 7.0991 28.2223 24.7605 12 10.9065538781 1.7664786071 10.3716201318
4426 1 8.93172 29.9077 24.6584 12 11.0573944885 1.7673434823 10.5213769163
4427 1 8.95174 28.269 26.4298 12 10.8571648309 1.7443587174 10.1065529026
4428 1 7.03109 29.9237 26.4967 12 10.8601988543 1.7673434823 12.2908404517
4429 1 10.6047 28.2172 24.6541 12 11.1289963966 1.7532049483 8.4166568311
4430 1 12.3046 30.0798 24.6515 12 10.9444417251 1.7515586928 9.0498715907
4431 1 12.4061 28.2566 26.4625 12 11.1464369141 1.7754268223 8.5588060339
4432 1 10.709 30.0481 26.48 12 10.8978899122 1.777414615 10.6110685103
4433 1 14.1003 28.3516 24.755 12 11.2756785495 1.7756047644 7.0117358415
4434 1 15.9796 30.0599 24.7314 12 11.1703920682 1.7700844117 8.0017668813
4435 1 15.9587 28.2662 26.5379 12 11.3138670033 1.7765862201 7.1951096118
4436 1 14.09 30.034 26.5012 12 10.985418237 1.7720810715 9.1867087052
4437 1 17.6685 28.1852 24.7873 12 11.0951991443 1.7798419944 6.0921934368
4438 1 19.4811 29.9593 24.6354 12 11.1593830807 1.7798419944 7.8400353102
4439 1 19.4675 28.2408 26.5149 12 11.2148114058 1.7798419944 7.2145243459
4440 1 17.6764 30.0188 26.4594 12 10.8769832462 1.7538431404 8.4618523715
4441 1 21.2313 28.2156 24.6683 12 11.0861570336 1.7876128773 6.6991138553
4442 1 23.0151 30.0492 24.6897 12 10.7851995424 1.7862992814 8.8952653989
4443 1 22.8771 28.3011 26.3911 12 10.810678476 1.7498401009 8.3402060514
4444 1 21.2589 29.9276 26.467 12 10.766940349 1.7399300253 9.0238485337
4445 1 24.7349 28.2699 24.6318 12 10.9598332392 1.7526678117 8.2619764727
4446 1 26.4461 29.9951 24.5907 12 11.2185033574 1.7589827497 10.4244424988
4447 1 26.5492 28.2553 26.3665 12 11.3639368741 1.7649281801 9.9008234919
4448 1 24.663 30.0141 26.4555 12 11.1170746785 1.7547984027 10.3876350833
4449 1 28.4011 28.1907 24.7014 12 10.8629086971 1.7522211496 10.2924081439
4450 1 29.9854 30.1037 24.6104 12 10.508389465 1.7400391332 12.6241188534
4451 1 30.1423 28.2003 26.3765 12 11.0403920187 1.7520664807 12.1377677972
4452 1 28.303 30.0214 26.3368 12 11.1435153725 1.7522211496 12.0911531134
4453 1 31.8102 28.3229 24.6515 12 11.5224029883 1.7889687453 12.7823692174
4454 1 33.4963 30.1597 24.6852 12 11.0703127884 1.7615894583 15.0977000721
4455 1 33.5956 28.3411 26.5421 12 11.3951770222 1.7606859388 14.8857499117
4456 1 31.7564 30.0097 26.5085 12 11.0376887048 1.7501816762 14.3998098955
4457 1 35.3154 28.3857 24.6434 12 10.8225874641 1.7623852276 15.4962680845
4458 1 37.057 29.987 24.6782 12 10.607293 1.7559027468 17.7068750179
4459 1 37.078 28.2775 26.3252 12 10.8856613931 1.7508568299 17.5040181371
4460 1 35.309 30.096 26.349 12 11.1848549893 1.7587351394 17.0049510978
4461 1 38.8473 28.3008 24.7481 12 10.8913458585 1.7607918531 18.4616780816
4462 1 40.658 30.0881 24.7288 12 11.0222676516 1.7615224008 18.1844115883
4463 1 40.511 28.2914 26.3913 12 10.9923541008 1.7660436966 17.8923918054
4464 1 38.8589 30.1191 26.4649 12 10.8474883607 1.755892687 19.8197561353
4465 1 0.0430239 31.9025 24.8191 12 10.8315069652 1.7663754507 17.8144732511
4466 1 1.88702 33.5478 24.71 12 11.1470530947 1.7663754507 17.4952502038
4467 1 1.84686 31.6705 26.4333 12 10.7326483222 1.7612739278 16.7648971089
4468 1 0.146951 33.4091 26.4259 12 10.9712241825 1.7629301879 19.0689664066
4469 1 3.57585 31.7149 24.7342 12 11.1612432536 1.7835337671 15.0875460578
4470 1 5.39423 33.4518 24.6584 12 11.2429178326 1.7839612328 15.1300356946
4471 1 5.35789 31.7231 26.5169 12 11.0922524531 1.7838337542 14.5271492537
4472 1 3.58049 33.3683 26.4792 12 11.2836141898 1.761158405 16.7583832702
4473 1 7.164 31.7797 24.6765 12 11.4238742808 1.7839612328 12.8773131486
4474 1 8.91652 33.4801 24.7473 12 10.8499125259 1.7480067701 13.3518226288
4475 1 8.86331 31.6476 26.485 12 11.3020910916 1.7491654537 12.6641722181
4476 1 7.07301 33.6228 26.3876 12 11.2317112469 1.7558628282 14.9989641109
4477 1 10.5076 31.6936 24.5503 12 10.8911134281 1.7610154221 11.1181636695
4478 1 12.3433 33.3994 24.7926 12 11.3164509948 1.7890347696 11.9139157709
4479 1 12.4481 31.7259 26.5116 12 10.687628452 1.7499628813 11.15270532
4480 1 10.6032 33.5284 26.4212 12 11.073917312 1.7499628813 13.2809814018
4481 1 14.1721 31.8218 24.6519 12 11.2199846005 1.7525871267 9.9500620592
4482 1 16.005 33.5921 24.7142 12 10.8075496591 1.7545907297 11.353473285
4483 1 15.897 31.8486 26.4447 12 10.8657068234 1.7547271498 10.2539105262
4484 1 14.1988 33.6317 26.5233 12 10.9342483816 1.7533014203 12.2599308779
4485 1 17.744 31.7713 24.7167 12 10.886640224 1.7547271498 9.4950531472
4486 1 19.4629 33.5429 24.5984 12 11.0886283626 1.7764323271 11.1979393681
4487 1 19.4101 31.7097 26.429 12 10.8682687067 1.7520951251 10.1304144462
4488 1 17.7116 33.5213 26.4268 12 10.9386004359 1.7523679818 11.6642716161
4489 1 21.1359 31.6765 24.7357 12 11.2490259543 1.7862992814 9.7003250499
4490 1 22.9984 33.6126 24.82 12 11.3978892669 1.7862992814 11.997895473
4491 1 22.9118 31.7723 26.4992 12 11.1165176147 1.7857403131 11.0253795253
4492 1 21.1828 33.5051 26.5166 12 11.35100652 1.7852142149 12.0522885522
4493 1 24.7418 31.798 24.6237 12 11.1622577351 1.7845635705 11.0680760617
4494 1 26.4134 33.5629 24.7066 12 11.388185356 1.7598226642 13.2849843918
4495 1 26.4784 31.7096 26.4231 12 11.3387381125 1.7578364256 12.5055799093
4496 1 24.7477 33.5121 26.5409 12 11.1925833421 1.7547984027 13.1801816977
4497 1 28.2534 31.8198 24.5918 12 11.2548448468 1.7690718031 12.7831849174
4498 1 30.0589 33.5753 24.6782 12 11.0978736681 1.766424126 15.1597204356
4499 1 29.9457 31.6734 26.4194 12 10.9709974245 1.7643527819 14.2689018758
4500 1 28.1818 33.6344 26.4752 12 11.1445539271 1.7643527819 14.8510972525
4501 1 31.6512 31.795 24.7412 12 10.711566491 1.7636336294 14.9335271876
4502 1 33.5817 33.4649 24.6947 12 10.9242898959 1.766424126 17.3390533032
4503 1 33.4537 31.83 26.4824 12 11.0577172719 1.7507257975 16.7148620085
4504 1 31.7713 33.5069 26.5108 12 10.9072585616 1.766424126 16.7352764406
4505 1 35.354 31.8078 24.6149 12 10.7876873456 1.7348956436 17.4208609396
4506 1 37.0783 33.6289 24.6869 12 11.1783733612 1.7715460236 19.8161008899
4507 1 37.1533 31.8254 26.4547 12 11.2935423527 1.7600820282 19.3669795404
4508 1 35.3259 33.5492 26.456 12 11.2844767817 1.7761633815 19.1076777711
4509 1 38.9416 31.8067 24.6799 12 11.1371208629 1.7798109441 20.1759730094
4510 1 40.6712 33.5701 24.7292 12 10.8896114657 1.769601208 20.181193693
4511 1 40.7227 31.7307 26.4386 12 10.9266281311 1.7629301879 19.4965241855
4512 1 39.0006 33.5067 26.5276 12 11.4323866015 1.7785027528 21.7252510543
4513 1 42.4071 35.3113 24.6899 12 11.229965631 1.7620941345 20.013451876
4514 1 1.78729 37.152 24.6908 12 11.3713101076 1.773178004 20.0664424274
4515 1 1.85209 35.4303 26.567 12 11.3204618032 1.761158405 19.3399567121
4516 1 0.0791701 37.1743 26.5703 12 11.1928767675 1.7620941345 21.7125141056
4517 1 3.61975 35.3114 24.7581 12 11.2145927612 1.772986811 17.5960878406
4518 1 5.31071 37.0825 24.6019 12 10.8540130211 1.773178004 17.9495886289
4519 1 5.33097 35.3689 26.5007 12 11.5094336395 1.761158405 17.2558403914
4520 1 3.53261 37.1472 26.6061 12 10.9345625036 1.773178004 19.6095916256
4521 1 7.10208 35.273 24.6285 12 10.8827106702 1.7480067701 15.5976420534
4522 1 8.87149 37.0943 24.6318 12 10.9495917561 1.7761186948 16.4092373621
4523 1 8.85708 35.4127 26.2944 12 10.9289229944 1.7495318867 15.5313742805
4524 1 7.10153 37.0793 26.4342 12 11.4584021517 1.7889539852 17.7193751432
4525 1 10.7081 35.283 24.5836 12 11.050813909 1.7495318867 14.1093255033
4526 1 12.4244 37.2297 24.6604 12 11.0466608589 1.7446262238 15.3661492137
4527 1 12.3462 35.3324 26.4368 12 11.290749503 1.7610894007 14.2073001244
4528 1 10.5677 37.0809 26.3765 12 11.0092266052 1.7474266339 16.2812396986
4529 1 14.1289 35.2342 24.5816 12 11.0966574276 1.7533014203 13.1091970679
4530 1 15.8395 37.1039 24.6265 12 10.8562029301 1.7680228989 14.7487785023
4531 1 15.9639 35.3569 26.3831 12 11.0687673097 1.7533014203 13.4946944931
4532 1 14.1028 37.1218 26.413 12 11.1941501046 1.7533014203 15.4424782014
4533 1 17.7281 35.3028 24.6058 12 11.0614151563 1.7680228989 12.9107335757
4534 1 19.4059 37.0885 24.6903 12 11.0724376564 1.7940482162 14.6412643173
4535 1 19.3733 35.347 26.4841 12 11.3108145073 1.7846196399 13.4979481207
4536 1 17.6558 37.1694 26.4481 12 11.0336119033 1.7680228989 15.1555831309
4537 1 21.1827 35.3416 24.6916 12 11.138389765 1.7852142149 13.1221283022
4538 1 22.9396 37.1541 24.6335 12 10.7780769575 1.7655363746 15.2003501399
4539 1 22.9572 35.344 26.4272 12 11.2192059804 1.7852142149 14.0614875186
4540 1 21.2422 37.0842 26.3944 12 11.133190103 1.7850887515 15.2775658939
4541 1 24.7193 35.403 24.7349 12 10.7197172746 1.7586812047 14.1679075683
4542 1 26.4093 37.1465 24.7547 12 10.6761596798 1.7386981823 16.3254717347
4543 1 26.3805 35.4162 26.4907 12 10.805348033 1.744044215 15.4372419319
4544 1 24.7674 37.091 26.5265 12 10.809260902 1.7655363746 16.2165804155
4545 1 28.2313 35.2704 24.7384 12 11.0658065492 1.7639027992 15.5054173011
4546 1 30.009 37.0306 24.7152 12 10.7569811081 1.7515485547 17.7783583137
4547 1 29.9608 35.2996 26.3772 12 10.9864620587 1.7632749271 16.9981395713
4548 1 28.1648 37.0444 26.4666 12 10.867344405 1.7672036363 17.5538503073
4549 1 31.7793 35.388 24.6796 12 11.0240955055 1.766424126 17.5225996843
4550 1 33.672 37.1261 24.6322 12 11.0901537607 1.7550370198 19.9290537118
4551 1 33.4885 35.2788 26.4043 12 11.2830517101 1.7761633815 19.0501309931
4552 1 31.7701 37.1592 26.4853 12 11.1633212625 1.7501336544 19.4291519695
4553 1 35.2892 35.2723 24.6601 12 10.9651818949 1.7740628981 19.6510302053
4554 1 37.0541 37.1317 24.6513 12 11.0505484026 1.7753910005 22.05550384
4555 1 37.1275 35.4489 26.4216 12 11.5621413075 1.7785027528 21.5789865003
4556 1 35.3683 37.0926 26.4613 12 11.1809682233 1.7818477731 21.5596601992
4557 1 38.9284 35.3421 24.6955 12 11.172978334 1.7785027528 22.2177758677
4558 1 40.6586 37.0682 24.7823 12 11.2409988495 1.7742468593 22.4504872484
4559 1 40.8042 35.2525 26.4669 12 11.1291612815 1.7779213079 21.5272183208
4560 1 38.9428 37.0568 26.5665 12 11.330674233 1.7785027528 23.9113869928
4561 1 42.3686 38.8278 24.7564 12 11.3872401697 1.7846856071 22.4316186406
4562 1 1.76286 40.6218 24.8103 12 11.4867428837 1.7772069797 19.9794494192
4563 1 1.82726 38.8475 26.59 12 11.066365378 1.755479621 21.7724226355
4564 1 0.0368185 40.6294 26.5253 12 10.9709888852 1.7727797058 21.5655422372
4565 1 3.65546 38.9341 24.7357 12 11.177401011 1.773178004 20.1311457226
4566 1 5.36069 40.6053 24.6945 12 11.0688225717 1.7551148399 17.8783897225
4567 1 5.21712 38.8169 26.5488 12 11.0396146794 1.7829923864 19.9955275746
4568 1 3.54433 40.6415 26.5266 12 11.1126652789 1.755479621 19.430552421
4569 1 7.05155 38.7647 24.6728 12 11.1787618144 1.7889539852 18.5862807162
4570 1 8.80769 40.5583 24.7939 12 11.0172243414 1.7380365962 16.3997221971
4571 1 8.94566 38.9236 26.5408 12 11.3035554744 1.7889539852 18.26704319
4572 1 6.92037 40.6394 26.5041 12 11.1679465597 1.7889539852 17.6923300207
4573 1 10.5626 38.8831 24.646 12 10.7839496708 1.7369446225 17.2434159501
4574 1 12.3375 40.6427 24.6601 12 11.0268778521 1.776260524 15.1298307401
4575 1 12.2874 38.8826 26.4956 12 11.0906016529 1.7768234603 17.3181508785
4576 1 10.6588 40.6245 26.3965 12 10.982038674 1.7803622483 16.1313300147
4577 1 14.1149 38.9922 24.7107 12 10.7718860798 1.7497862335 16.4268205267
4578 1 15.9549 40.5721 24.6594 12 10.706766752 1.7607140313 14.6890464892
4579 1 15.8511 38.799 26.4564 12 10.7679496925 1.7484461478 16.8236295227
4580 1 14.2093 40.7019 26.4679 12 10.9724431297 1.7770763279 15.2806571116
4581 1 17.6016 38.8329 24.6861 12 10.8633917213 1.7940482162 16.2637988616
4582 1 19.4502 40.6748 24.7297 12 11.2600278989 1.7940482162 14.5693878829
4583 1 19.4517 38.8379 26.5228 12 11.2224637181 1.7938305005 16.8144294557
4584 1 17.596 40.5377 26.459 12 11.0268056659 1.7514666081 15.0742221259
4585 1 21.211 38.7546 24.5825 12 11.0230958591 1.7937585499 16.3879008921
4586 1 23.0252 40.6209 24.7339 12 11.0408232243 1.762714356 15.1086117878
4587 1 22.8958 38.8912 26.5088 12 10.8611531569 1.7655363746 17.1730171442
4588 1 21.2226 40.5429 26.4107 12 11.165675134 1.7388890768 15.3320450193
4589 1 24.5846 38.7903 24.6762 12 11.0474101084 1.7577370607 17.1880662343
4590 1 26.5365 40.5259 24.6971 12 11.3237740477 1.7577370607 16.369895113
4591 1 26.4796 38.8964 26.4219 12 10.6992828189 1.7429687457 18.1984994318
4592 1 24.6867 40.5717 26.4523 12 10.9373581487 1.7568684974 16.0853145464
4593 1 28.2889 38.7745 24.8043 12 10.780858595 1.7424954578 18.4738920548
4594 1 30.107 40.6508 24.7149 12 11.0156853867 1.7433297881 18.0610914138
4595 1 30.0037 38.9054 26.3493 12 10.8021112585 1.7463343648 19.7969974275
4596 1 28.3021 40.7 26.3793 12 10.7171393084 1.7359126363 17.4658009154
4597 1 31.7902 38.8219 24.7047 12 11.0347502082 1.759575792 20.1358665804
4598 1 33.4171 40.6899 24.7237 12 11.0609036956 1.7571647659 20.0154096168
4599 1 33.6179 38.7666 26.5473 12 10.9823051505 1.7571647659 21.703396565
4600 1 31.9075 40.5943 26.4532 12 10.8329514297 1.7463343648 19.6111996207
4601 1 35.2921 38.8901 24.6645 12 10.8399723685 1.7571647659 22.2197004092
4602 1 37.0148 40.5928 24.6743 12 10.9612052963 1.7579591854 22.3522397036
4603 1 37.0172 38.9115 26.5042 12 11.2038064046 1.7482005457 23.8984865186
4604 1 35.2886 40.7155 26.3031 12 11.2670586857 1.7482005457 21.5392212444
4605 1 38.8549 38.8829 24.8951 12 11.5052330375 1.7753910005 24.514704994
4606 1 40.6381 40.6708 24.7044 12 11.2952325818 1.7772069797 22.338451451
4607 1 40.5933 38.961 26.5449 12 11.1196668865 1.7598341544 23.9704600651
4608 1 38.755 40.7116 26.6504 12 10.9082809643 1.7482005457 23.9374156034
4609 1 42.3614 0.0518404 28.2337 12 11.0363293907 1.7417857941 20.8808207689
4610 1 1.8133 1.7436 28.2084 12 11.3205075514 1.7607672491 18.5316578126
4611 1 1.73413 0.0247578 30.055 12 11.0569728804 1.7426292641 20.4979191741
4612 1 -0.00346644 1.70963 30.0112 12 11.2249776878 1.7504396712 20.5132946763
4613 1 3.5983 0.00542655 28.266 12 11.1484854535 1.7561018277 18.6957966387
4614 1 5.29182 1.66459 28.3528 12 11.2329187664 1.7607672491 16.6122828126
4615 1 5.38028 42.3353 30.0965 12 10.6888248714 1.7587474534 18.6706050168
4616 1 3.53631 1.74826 30.0875 12 11.0659613874 1.7473391602 18.3263426762
4617 1 7.02311 42.329 28.2162 12 10.7220230174 1.7590267536 16.9903214321
4618 1 8.86386 1.69871 28.2714 12 11.1346904868 1.7529893265 14.7991144583
4619 1 8.93373 -0.0431685 29.9475 12 11.0076831196 1.7601232598 16.9213748733
4620 1 7.1039 1.72541 29.9088 12 11.1694609629 1.760591726 16.470797426
4621 1 10.6337 42.3707 28.2235 12 11.072461819 1.7803622483 15.4129941117
4622 1 12.307 1.74958 28.2231 12 11.1535119026 1.8097223054 13.4495923227
4623 1 12.3282 42.3708 29.9419 12 11.4418659192 1.7799578498 15.7762597197
4624 1 10.6794 1.81225 30.0519 12 10.9533790016 1.760757366 14.9794579534
4625 1 14.1102 -0.0320121 28.2327 12 11.0814370743 1.7618071799 14.4509134287
4626 1 15.8985 1.74628 28.1679 12 10.860550884 1.7635355361 12.5328773386
4627 1 15.8229 42.3336 29.912 12 11.0835039222 1.7652950331 14.9913253038
4628 1 14.0919 1.76409 30.0476 12 11.3573240209 1.7652950331 13.8920716481
4629 1 17.6522 42.4069 28.1915 12 11.1456859594 1.7529771591 13.9751195754
4630 1 19.3774 1.80624 28.2681 12 11.1444222113 1.7540395465 12.5263244822
4631 1 19.361 42.3431 30.0311 12 11.1614333772 1.7764510117 15.0316104625
4632 1 17.623 1.72925 29.9781 12 11.0972972827 1.7652269757 13.4138466625
4633 1 21.1459 0.0337188 28.1119 12 11.1438273953 1.7553531314 14.2580213051
4634 1 22.8828 1.7584 28.2276 12 10.9373736269 1.7541061808 13.1877431502
4635 1 23.0081 0.0564204 30.014 12 10.8601189581 1.7553531314 15.5540375027
4636 1 21.1037 1.7013 29.9849 12 11.1379463589 1.7627808808 13.8557276592
4637 1 24.6445 42.3823 28.1768 12 10.9855177114 1.7553531314 15.1702586651
4638 1 26.4071 1.65334 28.216 12 10.9532966281 1.7646629283 14.5749463946
4639 1 26.4156 42.3254 30.0095 12 10.8752025965 1.7647816262 16.7722493493
4640 1 24.6538 1.67339 30.0909 12 10.5710643076 1.7647816262 14.8313534517
4641 1 28.1621 42.3227 28.2802 12 10.9103121905 1.7437405539 16.7856594014
4642 1 30.0715 1.69472 28.1968 12 11.2236542427 1.7444341016 16.5573968467
4643 1 30.0574 42.3285 29.9754 12 11.0545893393 1.7437646318 18.5585433699
4644 1 28.1929 1.65389 29.9263 12 11.0034919532 1.7647143879 16.3307174514
4645 1 31.8307 42.2497 28.2286 12 11.0948128705 1.7425532758 18.9165995768
4646 1 33.5167 1.8391 28.1993 12 11.0780774455 1.7439625548 18.5458657769
4647 1 33.6286 0.017542 29.9071 12 11.1494646492 1.7428471051 20.5276865101
4648 1 31.8614 1.72492 29.9983 12 11.1083307537 1.7603241984 18.3993246202
4649 1 35.4166 42.3466 28.2197 12 10.9495745116 1.7323737381 21.0616872198
4650 1 37.0607 1.79042 28.1679 12 10.7536046519 1.755149532 21.0376403046
4651 1 36.9744 42.3481 30.0024 12 10.9692234961 1.755149532 22.7767441549
4652 1 35.2707 1.82315 29.962 12 11.1260279831 1.755149532 20.4602079487
4653 1 38.7337 0.00700591 28.232 12 10.7968879382 1.7567718738 23.3255783187
4654 1 40.5129 1.78864 28.3468 12 10.966257761 1.7431003007 21.1580152509
4655 1 40.6445 42.355 29.984 12 11.0968499868 1.7567718738 22.7734409274
4656 1 38.7709 1.71474 30.0275 12 11.343887058 1.761906372 23.0568021558
4657 1 42.307 3.5178 28.1896 12 11.0902561813 1.7509771272 18.8016328459
4658 1 1.67904 5.22728 28.2618 12 11.0622378568 1.759170715 16.5980659673
4659 1 1.75928 3.4753 30.0367 12 11.2755670548 1.759170715 18.3296559592
4660 1 -0.0356109 5.19991 30.0121 12 11.2830904147 1.7631228186 18.6921733797
4661 1 3.39141 3.57582 28.2944 12 11.5220625366 1.767298112 16.3823245074
4662 1 5.37327 5.32545 28.1343 12 10.8964683213 1.7301003038 13.9940125685
4663 1 5.28106 3.64134 29.963 12 11.3130178204 1.7595102137 16.081494904
4664 1 3.47767 5.44127 30.0635 13 10.9542987516 1.7589943277 16.1602849141
4665 1 7.09771 3.57048 28.3029 12 11.1706950594 1.7821163031 14.3168488364
4666 1 8.77542 5.2327 28.3257 12 10.881471096 1.7701928595 12.4101835283
4667 1 8.95262 3.53229 30.0703 12 11.1207066652 1.7698261835 14.5301621193
4668 1 7.01946 5.30898 30.0488 12 11.1108191212 1.7701928595 14.2243840385
4669 1 10.5992 3.47824 28.3056 12 10.9644464547 1.8133819195 12.7844835018
4670 1 12.4166 5.43037 28.217 12 10.9862788699 1.8133819195 10.7022388467
4671 1 12.4247 3.49491 30.0106 12 11.1233648358 1.8127282394 13.1403282897
4672 1 10.5982 5.33314 29.9837 12 11.0660924191 1.7690304984 12.61572519
4673 1 14.2106 3.47996 28.1608 12 11.3074962521 1.8133819195 11.4637756349
4674 1 15.9855 5.21926 28.2028 12 10.7871646954 1.7553834777 9.7181025949
4675 1 15.9324 3.43605 29.9999 12 10.959262837 1.7652950331 12.2199849063
4676 1 14.1009 5.26966 29.8867 12 11.2970602192 1.7645646386 11.2805195781
4677 1 17.5714 3.53231 28.2532 12 10.9475695629 1.7518653938 10.9435574004
4678 1 19.3788 5.28445 28.2306 12 10.9165843617 1.755753343 9.6964846805
4679 1 19.5396 3.60084 30.0924 12 11.139021878 1.7518653938 12.1832355079
4680 1 17.6347 5.32292 30.0031 12 11.0760779163 1.7840438414 10.7561803285
4681 1 21.1283 3.50892 28.269 12 10.9379523597 1.7493891271 11.4328739119
4682 1 22.9815 5.24015 28.2494 12 10.818101328 1.7435205835 10.5947180539
4683 1 23.0107 3.47897 30.0311 12 11.0973422937 1.7435205835 12.9925108894
4684 1 21.2029 5.33477 30.0061 12 10.9566347032 1.7416244379 11.2738223026
4685 1 24.6959 3.39601 28.2548 12 10.9394435204 1.7471248788 12.547097563
4686 1 26.5283 5.32989 28.2192 12 11.258329465 1.7893960327 12.1578516735
4687 1 26.4456 3.4323 29.9224 12 10.8614463101 1.7647816262 14.2769112168
4688 1 24.6783 5.27625 29.9438 12 11.165703029 1.7416244379 12.3519899058
4689 1 28.2153 3.5605 28.2268 12 10.9115090749 1.7472003787 14.2358616039
4690 1 30.0233 5.20194 28.309 12 10.7441535045 1.7685833073 14.2649439417
4691 1 29.9115 3.37887 29.9058 12 10.9461552467 1.760751623 16.1855197926
4692 1 28.2331 5.1678 30.0391 12 11.0537603925 1.7743587221 14.2722792315
4693 1 31.7555 3.48002 28.2216 12 10.8746729 1.7686516332 16.3676781717
4694 1 33.5585 5.35824 28.2909 12 11.1940220438 1.7686516332 16.5580439271
4695 1 33.4844 3.52173 29.9013 12 11.0486919318 1.759103501 18.2517474297
4696 1 31.8169 5.25829 30.0697 12 11.0793163334 1.7686516332 16.301098007
4697 1 35.454 3.54854 28.2564 12 11.1493450873 1.7693414288 18.9030864958
4698 1 37.2226 5.33823 28.3243 12 11.0986784711 1.7490067195 19.3342079798
4699 1 37.0828 3.55082 30.0621 12 11.008658257 1.761906372 20.8686158248
4700 1 35.375 5.28521 30.0792 12 11.2640636827 1.7548055603 18.7718734865
4701 1 38.8295 3.5099 28.2099 12 11.0783411045 1.7772809439 21.4026559745
4702 1 40.5254 5.26173 28.318 12 11.1101167379 1.7458647119 19.3594768107
4703 1 40.5965 3.45214 30.0416 12 11.061544058 1.761906372 20.8782875462
4704 1 38.8455 5.26156 30.2007 12 10.9266749205 1.7615727388 21.4662288146
4705 1 42.3788 7.03292 28.3095 12 11.078784041 1.7590049994 17.0978237158
4706 1 1.69874 8.77041 28.3251 12 10.7400576825 1.7590049994 15.0016637899
4707 1 1.68735 7.02007 30.059 12 10.7289636501 1.7590588267 16.6220864871
4708 1 42.3709 8.79249 29.9935 12 10.9674639404 1.7556558568 17.1317593881
4709 1 3.47386 6.99267 28.1455 12 10.9132285198 1.7589425868 14.3598675592
4710 1 5.202 8.84568 28.2992 12 11.114665948 1.7565056336 12.3384169228
4711 1 5.25267 7.06636 29.9577 12 11.0933099284 1.7546046753 14.1378924425
4712 1 3.37254 8.63545 30.0758 13 11.0464332738 1.7565056336 14.666434436
4713 1 7.15818 7.05038 28.3023 12 11.1636268823 1.7546046753 12.0409114505
4714 1 8.90307 8.86509 28.2703 12 11.0662102549 1.774963376 10.0639475872
4715 1 8.87699 7.07548 30.0341 12 11.1113468511 1.7701928595 12.3056863565
4716 1 7.12186 8.88872 30.0087 12 11.2871330157 1.7566342229 12.0811845376
4717 1 10.5411 7.02441 28.2967 12 10.783185904 1.7454007186 10.474744606
4718 1 12.3469 8.74865 28.1649 12 11.1189740202 1.77863909 8.5139570925
4719 1 12.3665 7.0688 30.059 12 11.3477426617 1.7816902314 10.8328433811
4720 1 10.6582 8.862 30.0392 12 11.2913936506 1.7919297865 10.4448830237
4721 1 14.1548 7.07804 28.2215 12 10.8123363271 1.7462768021 8.9546750531
4722 1 15.8467 8.80479 28.2182 12 11.125738538 1.7679850381 7.4312726462
4723 1 15.8428 6.94171 30.0495 12 11.0420644553 1.7553834777 9.9522331733
4724 1 14.2119 8.87695 29.971 12 11.3335942112 1.7816902314 9.1207492611
4725 1 17.5926 7.01321 28.237 12 10.8388488155 1.7377736979 8.3132523993
4726 1 19.3293 8.82385 28.2389 12 10.8746333542 1.752061944 7.341628651
4727 1 19.4303 7.04334 29.9397 12 11.0107956467 1.7427975503 9.7696112174
4728 1 17.5903 8.84994 29.9089 12 11.1287557761 1.7516663665 8.6912831022
4729 1 21.1921 6.94649 28.2984 12 10.7031192631 1.7323892644 8.989271835
4730 1 23.0526 8.86939 28.2547 12 11.0752380832 1.7736312504 8.366903475
4731 1 23.0101 7.14598 29.9782 12 11.1137029751 1.7479928759 10.5598250887
4732 1 21.1469 8.76822 29.8337 12 11.0545402712 1.7483369323 8.9114170597
4733 1 24.7612 7.13809 28.2158 12 11.1493530516 1.7896921642 10.1678333062
4734 1 26.549 8.92407 28.3005 12 11.2291941556 1.7896921642 10.1711726057
4735 1 26.4355 7.1257 30.1249 12 11.4179531552 1.7896921642 12.2974692335
4736 1 24.755 8.9686 30.0782 12 10.9332897531 1.7462554028 10.3754197083
4737 1 28.3298 7.05429 28.2085 12 11.0381652831 1.7896921642 12.1248097476
4738 1 29.9932 8.89192 28.2635 12 11.0120813384 1.7676412919 12.3076674082
4739 1 30.0129 6.99739 30.0023 12 11.0445876448 1.7731427862 14.2398832272
4740 1 28.3687 8.7638 30.0585 12 11.2248338777 1.7761045338 12.3675015823
4741 1 31.7055 7.00914 28.1855 12 11.0487202857 1.7686516332 14.3395897409
4742 1 33.5553 8.83422 28.1813 12 11.1669952193 1.767286841 14.8875615637
4743 1 33.5426 7.07128 29.9828 12 11.3540040848 1.7677135285 16.5859429173
4744 1 31.8061 8.79815 30.0414 12 11.4624906256 1.7676412919 14.6099615976
4745 1 35.325 7.03664 28.255 12 11.0892000926 1.7536721414 17.0807935635
4746 1 37.1806 8.81567 28.2158 12 10.9738592669 1.7511980201 17.711541171
4747 1 37.1292 7.10021 29.9049 12 11.016426447 1.7415106187 19.1854454234
4748 1 35.3292 8.76048 30.0493 12 11.1558276998 1.7567152811 17.177307091
4749 1 38.8965 7.1173 28.245 12 10.8751766384 1.7661588449 19.796825138
4750 1 40.5453 8.88141 28.3163 12 10.9507105179 1.7563689561 17.733291816
4751 1 40.5306 7.02058 30.112 12 11.1299175606 1.7563118725 19.3545763844
4752 1 38.7679 8.83091 30.146 12 10.9600708961 1.7563689561 19.8384045062
4753 1 0.0335311 10.5487 28.2331 12 11.0122995163 1.7534967765 15.5074325111
4754 1 1.59416 12.4059 28.3775 12 10.863363709 1.7369521414 13.736360279
4755 1 1.66526 10.48 30.0921 12 11.0069014041 1.7527200644 15.2031516607
4756 1 42.3621 12.3221 30.1773 12 10.8596084675 1.7527200644 16.0411409215
4757 1 3.33796 10.6811 28.3523 12 10.9377363082 1.7565056336 12.9481917773
4758 1 5.19788 12.3426 28.4436 12 10.8836244046 1.7375943129 10.9513743382
4759 1 5.11334 10.5156 30.0309 12 10.9639894387 1.7607855557 12.5659101286
4760 1 3.40318 12.3202 30.0909 12 10.8944724665 1.7436796005 13.2653339138
4761 1 6.94857 10.6028 28.2527 12 11.1674260242 1.7537151907 10.2576874716
4762 1 8.78849 12.2844 28.2466 12 11.2347057513 1.8230966466 8.2861547983
4763 1 8.90848 10.5871 30.0955 12 11.0540078194 1.7566342229 10.2946253137
4764 1 7.06792 12.2938 30.0061 12 10.9026690987 1.7489369112 10.5711331203
4765 1 10.5477 10.5863 28.1994 12 10.9798676344 1.7627195865 8.2282481139
4766 1 12.3841 12.4479 28.157 12 11.0557406087 1.7627195865 6.4918333336
4767 1 12.3261 10.6635 29.9628 12 11.1741224763 1.781645947 8.793133537
4768 1 10.6359 12.3408 29.9527 12 11.0357097595 1.7491026996 8.6469987936
4769 1 14.0626 10.5384 28.2138 12 11.3085887959 1.7914962175 6.8394885888
4770 1 15.7119 12.3369 28.1016 12 11.4487581956 1.7679874919 5.5916970831
4771 1 15.8799 10.7056 30.0233 12 11.2843275381 1.765168546 8.0035747767
4772 1 14.0446 12.4567 30.012 12 10.9185288412 1.753867287 7.6771236728
4773 1 17.5886 10.6098 28.1634 12 11.2694421792 1.7679874919 6.3285233542
4774 1 19.5198 12.3168 28.3184 12 11.1927149445 1.7680849071 5.664576628
4775 1 19.4533 10.5239 29.984 12 11.0006451632 1.7520620096 7.9255653501
4776 1 17.6297 12.3447 29.9974 12 11.423282641 1.7516663665 7.0804488417
4777 1 21.2336 10.6005 28.1821 12 11.2367218349 1.7635152245 6.6414089655
4778 1 22.9409 12.3534 28.3033 12 11.0984671785 1.744300671 6.538257731
4779 1 22.9299 10.646 30.0632 12 11.1411194827 1.7483369323 8.7493060924
4780 1 21.1227 12.3036 30.1204 12 11.006479625 1.7515593793 7.5027856828
4781 1 24.7064 10.5881 28.1454 12 11.053294451 1.7436351994 8.1720686371
4782 1 26.5409 12.3171 28.2387 12 10.9783978997 1.7404396354 8.3431220122
4783 1 26.5306 10.5833 30.0065 12 11.1066588452 1.7507371384 10.3212392905
4784 1 24.7268 12.3878 29.9609 12 11.188148826 1.7751412786 8.5257670717
4785 1 28.3151 10.6063 28.2171 12 10.886203415 1.758851579 10.3304463908
4786 1 29.9523 12.3495 28.3127 12 11.088124909 1.7368803809 10.7537440214
4787 1 30.0152 10.6876 30.1065 12 11.0383334804 1.7507371384 12.5278508667
4788 1 28.1319 12.3962 30.0956 12 11.0570573223 1.7465219847 10.5404793427
4789 1 31.8352 10.5971 28.1659 12 11.0900164234 1.7673315519 12.8383552852
4790 1 33.6034 12.3193 28.1768 12 11.3994170962 1.7644562306 13.4700314744
4791 1 33.6014 10.5552 30.0072 12 10.9217768467 1.7507082884 15.0824159181
4792 1 31.7911 12.2931 29.9432 12 10.9680764557 1.7575761857 12.9841006255
4793 1 35.4294 10.5144 28.2936 12 11.3387367764 1.7902600052 15.6679556724
4794 1 37.1198 12.4093 28.3305 12 11.336218658 1.7789003699 16.4857138039
4795 1 37.1667 10.6478 29.9653 12 10.985418456 1.7393597553 17.7884973802
4796 1 35.2785 12.342 30.0259 12 10.7790808861 1.7627303725 15.6766444961
4797 1 38.8919 10.5464 28.1832 12 11.0572299 1.7712237307 18.4720283479
4798 1 40.7428 12.4745 28.3733 12 11.1933193253 1.778389589 16.4359210549
4799 1 40.5872 10.5901 29.9915 12 11.0176745854 1.7563689561 17.8567687769
4800 1 38.9387 12.3469 30.0199 12 10.8148733705 1.7770309128 18.7618247145
4801 1 -0.0241448 14.0766 28.3617 12 10.7896017301 1.7424315374 14.6996586111
4802 1 1.63654 15.8267 28.2562 12 11.0838056149 1.75266704 12.9359574954
4803 1 1.75114 14.1912 30.1215 12 10.9065125995 1.7380127452 14.0565383102
4804 1 42.2814 15.8993 29.9821 12 10.866376765 1.7578586086 15.2789337202
4805 1 3.48154 14.0869 28.2961 12 10.9405132613 1.7435764549 11.7217577608
4806 1 5.21106 15.8722 28.2344 12 10.91814551 1.7468257323 9.8596993642
4807 1 5.32939 14.0665 30.0284 12 10.8122969766 1.7548820666 11.2991887891
4808 1 3.47187 15.7931 30.0217 12 11.2028958096 1.7585091918 12.2951589049
4809 1 6.98652 14.0656 28.2138 12 11.1516166162 1.8234336648 8.9493061657
4810 1 8.88062 15.9603 28.1648 12 11.1996406587 1.8234336648 7.1448248393
4811 1 8.79248 14.0786 30.05 12 11.1374141438 1.8214524137 9.0962066684
4812 1 7.00877 15.8772 29.9345 12 10.9894931234 1.7472646395 9.6624959206
4813 1 10.6241 14.1348 28.3451 12 11.229818274 1.8234336648 6.7201615924
4814 1 12.3312 16.0276 28.2414 12 11.153004466 1.7506983947 5.5977732224
4815 1 12.3795 14.1689 30.0787 12 10.8642384048 1.7266980802 7.6652229881
4816 1 10.4993 15.8167 29.9957 12 10.8336490684 1.7472646395 7.9364405999
4817 1 14.0351 14.1937 28.3013 12 10.9744118061 1.7763330656 5.6034231675
4818 1 15.7968 15.8357 28.2348 12 11.0089216859 1.7665036664 4.5974174394
4819 1 15.8723 14.1006 29.9964 12 11.0920480146 1.7654557606 6.7413460866
4820 1 14.0785 15.8642 30.0206 12 10.7235597215 1.7545431694 6.6879861899
4821 1 17.7329 14.0708 28.2933 12 11.2970793051 1.76988244 4.7913379016
4822 1 19.4361 15.9327 28.2501 12 11.0878239612 1.76988244 3.9080200881
4823 1 19.4473 14.1609 30.1433 12 11.1375915272 1.76988244 6.3282911484
4824 1 17.6453 15.7809 30.0342 12 11.0219029284 1.7665036664 5.8618633177
4825 1 21.2669 14.1024 28.3715 12 11.1378204282 1.76988244 5.1397504834
4826 1 22.8959 15.9518 28.271 12 10.9659587823 1.7764124545 4.8060845072
4827 1 23.0416 14.1233 30.0983 12 10.9857014327 1.744300671 7.132722736
4828 1 21.2476 15.8535 29.9955 12 10.913102142 1.7336144679 5.8637818983
4829 1 24.6719 14.0872 28.2064 12 11.0026929655 1.7764124545 6.4504732838
4830 1 26.5137 15.7746 28.1994 12 11.0679341778 1.7754048526 7.167393306
4831 1 26.4746 14.1164 30.0625 12 10.9456299562 1.7432836502 8.8375877514
4832 1 24.7407 15.9341 29.9891 12 10.9229185824 1.7763661496 7.1480410116
4833 1 28.2228 14.2211 28.2218 12 10.9279380695 1.7327404829 8.7227926041
4834 1 30.0788 15.7866 28.3772 12 10.9145028775 1.7579030566 9.7134578259
4835 1 29.9864 14.0811 30.108 12 11.0021153026 1.7579798441 11.1981591227
4836 1 28.2453 15.8122 30.1119 12 11.1737325524 1.7579030566 9.6635456861
4837 1 31.7006 14.0703 28.2925 12 11.0110239588 1.7586464732 11.3750618929
4838 1 33.4728 16.0015 28.3087 12 10.8074425146 1.7630590996 12.4611801963
4839 1 33.6186 14.2174 29.97 12 11.0169201969 1.7586464732 13.7626028617
4840 1 31.7732 15.9278 30.0168 12 10.839848789 1.7586464732 12.0091215281
4841 1 35.3144 14.1973 28.2303 12 11.3010540683 1.7766660694 14.381026974
4842 1 37.0808 15.9791 28.2461 12 11.1976675415 1.7790174463 15.6933130948
4843 1 37.0304 14.1948 30.0347 12 11.1516264178 1.7790174463 16.6592958754
4844 1 35.2932 16.0725 30.0081 12 10.7189473738 1.7627810471 14.8586137012
4845 1 38.9319 14.0836 28.2715 12 11.11514794 1.7790174463 17.700828809
4846 1 40.6105 15.9584 28.3418 12 11.1101788604 1.7424315374 16.0657852468
4847 1 40.588 14.1784 30.1205 12 10.6816735198 1.7767849023 17.0777275607
4848 1 38.764 15.9235 29.9961 12 10.9113107612 1.7766533502 17.9275210665
4849 1 -0.0127134 17.7011 28.3118 12 11.1846414101 1.7570519336 14.3325248615
4850 1 1.76118 19.4935 28.2934 12 11.2414770254 1.7635585496 12.8085304386
4851 1 1.69516 17.585 30.0508 12 11.101466614 1.756354196 13.6312636114
4852 1 0.0295667 19.4029 30.1348 12 10.9709276683 1.7578586086 15.2025038458
4853 1 3.48382 17.6241 28.2481 12 11.3690809918 1.7635585496 11.1678775674
4854 1 5.27322 19.358 28.1712 12 10.8636235654 1.7635585496 9.7585582177
4855 1 5.42461 17.766 29.9624 12 11.2188700999 1.7880780019 10.6159754897
4856 1 3.49354 19.32 30.1227 12 11.2668331104 1.7635585496 12.309107778
4857 1 7.04047 17.6171 28.1771 12 10.649595189 1.7492250131 8.2187938475
4858 1 8.76347 19.3852 28.4008 12 11.0053270296 1.7780331213 7.3983809044
4859 1 8.76825 17.6249 30.0168 12 10.90692023 1.7472646395 8.5281100948
4860 1 7.03021 19.4547 30.0198 12 10.9144275672 1.7902490091 9.7153820767
4861 1 10.6279 17.7188 28.3016 12 11.1999464227 1.7663717799 6.1376114388
4862 1 12.4159 19.4822 28.2904 12 11.2029558867 1.7654643966 5.5982621199
4863 1 12.3848 17.5971 30.0932 12 10.9233620262 1.7511521438 7.0782326482
4864 1 10.5439 19.4892 29.9489 12 11.0461362546 1.7559380039 7.8491300748
4865 1 14.1255 17.5634 28.3916 12 11.0933121397 1.7654643966 4.8309547637
4866 1 15.9404 19.3864 28.3593 12 10.9967392392 1.7654468493 4.0314574875
4867 1 15.907 17.5491 30.1838 12 10.975251737 1.740041921 5.9036218476
4868 1 14.2177 19.4242 30.1073 12 11.2317799932 1.7654643966 6.1835430343
4869 1 17.5655 17.6369 28.3339 12 10.9891008507 1.7665036664 3.7812405035
4870 1 19.3305 19.3004 28.286 12 11.2785711164 1.7703900045 3.786796454
4871 1 19.3701 17.4875 30.0382 12 11.1490856133 1.7703900045 5.522673944
4872 1 17.5455 19.4029 30.1031 12 11.0396027839 1.7703900045 5.5971418872
4873 1 21.244 17.6807 28.2634 12 10.8615318525 1.730762761 3.9715202508
4874 1 22.9781 19.3298 28.3352 12 11.1190768529 1.7732030173 4.9020696889
4875 1 23.0174 17.5015 30.0925 12 10.8856075549 1.7854967415 6.2085175316
4876 1 21.223 19.2356 30.003 12 11.0797826678 1.7702954203 5.7408370138
4877 1 24.7882 17.6355 28.254 12 10.8655456327 1.7764124545 5.6545289262
4878 1 26.3556 19.3666 28.2834 12 10.9067343209 1.7675801219 7.0067212642
4879 1 26.5354 17.5852 29.9967 12 11.0111383384 1.7693363793 8.122135144
4880 1 24.7524 19.3951 30.0982 12 10.9207546901 1.7553268282 7.259789499
4881 1 28.3293 17.6211 28.3526 12 11.1797875739 1.7693363793 8.227493948
4882 1 30.0706 19.4766 28.2405 12 10.8323792429 1.740240308 9.6484549191
4883 1 30.0188 17.801 30.0424 12 10.803085448 1.7579030566 10.6192784531
4884 1 28.2459 19.383 30.0769 12 11.0742630312 1.7482628557 9.5931346824
4885 1 31.7329 17.6981 28.3125 12 10.6537298849 1.7257449494 10.8623083114
4886 1 33.5461 19.4647 28.2396 12 10.8390188249 1.7575275323 12.5386221868
4887 1 33.5346 17.7707 30.0305 12 10.6803786569 1.7259499926 13.3145621819
4888 1 31.7327 19.4827 29.9921 12 10.6633946118 1.7527983448 12.0029345828
4889 1 35.2918 17.7185 28.3221 12 10.9717806777 1.7630590996 13.9984452461
4890 1 37.048 19.4687 28.1963 12 11.2890574102 1.7581016304 15.6790745138
4891 1 37.0804 17.8267 30.0879 12 10.9097381255 1.7497166523 16.3849628611
4892 1 35.2971 19.4843 30.1152 12 11.1514315812 1.7750191103 14.9643050301
4893 1 38.8564 17.7432 28.3949 12 11.0590604449 1.7838441541 17.3259179733
4894 1 40.6816 19.3718 28.2682 12 11.065717672 1.7657965888 15.8916510644
4895 1 40.5385 17.7329 30.1326 12 10.7713572062 1.7578586086 16.7948046683
4896 1 38.872 19.4766 29.9726 12 10.5812343299 1.7386327934 18.0410889085
4897 1 -0.00643427 21.1996 28.2119 12 11.0130971877 1.7591563664 14.4870249592
4898 1 1.82853 23.0001 28.2627 12 11.2214093896 1.7555285728 13.3775437234
4899 1 1.72159 21.1801 30.0407 12 11.180807457 1.7555285728 14.0233262138
4900 1 0.0329074 22.9374 29.9567 12 11.7022790125 1.7847207819 15.7044433832
4901 1 3.56093 21.152 28.2943 12 11.2721804861 1.7634413743 11.5632358199
4902 1 5.32915 23.0386 28.2892 12 11.0059525443 1.7541910769 10.724147201
4903 1 5.31816 21.1589 30.0623 12 11.2016834395 1.7525272383 11.2882519766
4904 1 3.5622 22.9968 30.0288 12 11.0317050183 1.7547590296 13.0540104113
4905 1 6.98261 21.1858 28.2864 12 11.1140706049 1.7780331213 8.9491003946
4906 1 8.80959 22.9284 28.2354 12 10.9319315858 1.7780331213 8.1724684432
4907 1 8.84557 21.2069 29.9873 12 10.8545273846 1.7770258061 8.9540526552
4908 1 7.06384 22.9372 30.0079 12 11.0395188451 1.7739116642 10.494498728
4909 1 10.5838 21.1869 28.1346 12 10.8974885223 1.7778648756 6.5037989486
4910 1 12.3342 22.9762 28.3098 12 10.9186897326 1.755280345 6.5178068096
4911 1 12.322 21.1991 30.0392 12 11.214060653 1.7654937319 7.2456329459
4912 1 10.5359 23.0349 30.0224 12 11.1039876727 1.755280345 8.7012606993
4913 1 14.0996 21.2322 28.2918 12 10.9256738415 1.7654937319 4.9112196002
4914 1 15.8787 22.9398 28.2071 12 10.8428643061 1.7552277365 5.0165137329
4915 1 15.9149 21.1925 29.9645 12 10.9677796258 1.76528326 5.8501931148
4916 1 14.1166 23.0144 30.0859 12 10.8956456784 1.7654937319 7.1137896341
4917 1 17.7211 21.2085 28.2853 12 10.9552129463 1.741298556 3.9957671837
4918 1 19.5137 22.9442 28.2695 12 10.9990987419 1.7731310954 5.0358924364
4919 1 19.4685 21.175 30.1499 12 11.120742745 1.7731310954 5.960731194
4920 1 17.7137 22.8936 29.981 12 11.0056620168 1.7728811771 6.1832017736
4921 1 21.0391 21.1161 28.3398 12 11.2542589654 1.7732030173 4.6317072362
4922 1 22.9672 22.8522 28.335 12 11.2548280228 1.7732030173 6.3105277979
4923 1 22.8661 21.0578 30.0258 12 11.0649448187 1.7706733461 6.7680001793
4924 1 21.2807 22.9117 29.982 12 10.877750788 1.7731310954 6.9297006748
4925 1 24.7008 21.2094 28.3423 12 10.9860778919 1.7664611289 6.4349061815
4926 1 26.4301 23.0126 28.1596 12 11.005961811 1.7623721806 8.0597341941
4927 1 26.4785 21.1719 30.019 12 11.1593952381 1.7523758988 8.7044149723
4928 1 24.8141 22.9293 29.9788 12 10.9676560219 1.754893276 8.4423283345
4929 1 28.106 21.2325 28.1696 12 11.4021027958 1.760212562 8.5714706084
4930 1 30.0436 22.9283 28.2682 12 11.4670464463 1.762930507 10.6533921929
4931 1 29.8878 21.2159 30.0452 12 11.3697528692 1.762930507 11.048522952
4932 1 28.1919 23.055 30.1411 12 11.4742028233 1.762930507 10.4592598969
4933 1 31.8551 21.1471 28.2796 12 10.8884256771 1.7527580728 11.5056069875
4934 1 33.5353 22.9793 28.2807 12 11.4273692472 1.7701893934 13.3598041042
4935 1 33.5537 21.1894 30.0329 12 11.2215720558 1.7737319028 13.8129566284
4936 1 31.7051 23.1161 30.1092 12 11.3327296438 1.762930507 12.9990821613
4937 1 35.3624 21.2687 28.1817 12 11.3450901228 1.7750191103 14.4351585767
4938 1 37.0904 23.0195 28.3309 12 11.2723061371 1.7674020197 16.3721700838
4939 1 37.1514 21.2433 30.0667 12 11.1702271637 1.7750191103 16.8395561721
4940 1 35.316 23.019 30.0916 12 11.1022058421 1.7750191103 15.7571659231
4941 1 38.8481 21.1955 28.3158 12 11.353786713 1.7753394339 17.5962239193
4942 1 40.6239 22.873 28.2013 12 11.2083831792 1.7813266227 16.3674315525
4943 1 40.6494 21.0085 29.9764 12 11.283158403 1.7847207819 16.8517291277
4944 1 38.9244 23.0897 30.0505 12 11.1878879288 1.7847207819 18.7131936488
4945 1 42.3834 24.8153 28.3302 12 11.2749296652 1.7861312498 15.5253190504
4946 1 1.72639 26.5165 28.2817 12 10.9884989674 1.7622470218 14.8874914293
4947 1 1.77675 24.7574 30.0529 12 11.3288337728 1.7636016764 14.9872640637
4948 1 42.3916 26.5514 30.0045 12 11.0929478245 1.7639168146 17.0377225261
4949 1 3.62625 24.739 28.232 12 10.7455122333 1.7598676533 12.6329433331
4950 1 5.33614 26.4141 28.1781 12 10.9199552489 1.7573494971 12.1664119814
4951 1 5.35306 24.7368 29.938 12 10.7982928619 1.751808056 12.2726045446
4952 1 3.64017 26.4804 30.0301 12 11.2209276239 1.762284198 14.3192021776
4953 1 7.13365 24.7909 28.1711 12 10.9819046988 1.7522216565 10.0873678426
4954 1 8.85651 26.5444 28.1048 12 10.9216793538 1.7518396633 10.0517154394
4955 1 8.73537 24.7116 30.0354 12 11.0180282928 1.7497356184 10.2766056398
4956 1 7.0421 26.4981 29.9542 12 10.6683327808 1.7509124895 12.0901156311
4957 1 10.5608 24.7508 28.2388 12 10.8451562109 1.7497356184 8.1695283557
4958 1 12.3797 26.5494 28.3803 12 10.9578985537 1.7462847131 8.4222103145
4959 1 12.2952 24.7392 30.0689 12 10.8678609499 1.755280345 8.6636670767
4960 1 10.4735 26.5467 29.954 12 10.9341653862 1.7497304626 10.3528824471
4961 1 14.1128 24.5953 28.386 12 10.9412611703 1.7496746433 6.5851225083
4962 1 15.8547 26.3745 28.3069 12 11.171883029 1.775791849 7.1552136726
4963 1 15.9674 24.6978 30.0361 12 11.1322971652 1.7702394331 7.4112216488
4964 1 14.0598 26.4419 30.021 12 11.0862752519 1.7661442933 8.92578561
4965 1 17.7094 24.7573 28.2953 12 10.9651441756 1.7455226897 5.9847514153
4966 1 19.3925 26.447 28.2727 12 10.8058073841 1.7579382086 7.1090023315
4967 1 19.4243 24.7468 30.0655 12 10.8922168712 1.7723225053 7.4413602027
4968 1 17.7521 26.5474 30.0797 12 11.0623536226 1.770834092 8.5087483462
4969 1 21.1922 24.6504 28.2333 12 11.2212991852 1.7492906536 6.3380713846
4970 1 22.8235 26.6146 28.1629 12 11.2403240609 1.7549029524 8.1106973497
4971 1 22.9799 24.7263 29.9961 12 11.0405342598 1.7535996206 8.4441138459
4972 1 21.1095 26.5167 29.9595 12 11.11887067 1.7549029524 8.7137807498
4973 1 24.6747 24.8041 28.2021 12 11.2509386192 1.762057357 8.0554668175
4974 1 26.464 26.5353 28.2017 12 11.2640338295 1.7724717434 9.9029999003
4975 1 26.3731 24.726 29.9561 12 11.1185681316 1.7777357053 10.080656251
4976 1 24.6123 26.5477 29.986 12 11.2922676777 1.7777357053 10.1338526057
4977 1 28.2407 24.7253 28.2639 12 11.3584312059 1.7830157573 10.1047060976
4978 1 30.0816 26.4571 28.2562 12 10.8889062198 1.7419950538 12.1544145709
4979 1 29.9671 24.7448 30.0254 12 11.0063985147 1.7626797057 12.3014265903
4980 1 28.2137 26.5574 29.9294 12 11.111505567 1.7761386108 12.0049685429
4981 1 31.7041 24.8553 28.271 12 11.0253839915 1.7703699132 12.6676927999
4982 1 33.461 26.6215 28.3996 12 11.3575129427 1.789831695 14.8027790863
4983 1 33.6173 24.8033 30.087 12 11.1079113609 1.7703699132 15.0283462974
4984 1 31.7093 26.5909 30.0578 12 10.7775726123 1.7470071361 14.3622857215
4985 1 35.381 24.7877 28.3055 12 11.1606701778 1.789831695 15.4655140411
4986 1 37.0591 26.5345 28.1966 12 10.8259359369 1.7895009061 17.4829299953
4987 1 37.0644 24.9355 29.9616 12 10.6627664409 1.7305760187 17.6605681384
4988 1 35.3016 26.6101 30.0169 12 10.6636650809 1.789831695 16.9812325929
4989 1 38.825 24.7017 28.244 12 11.0634161809 1.7782238192 18.315111243
4990 1 40.5879 26.4798 28.2468 12 11.1647363344 1.7757823642 17.6140189441
4991 1 40.5524 24.7805 30.0314 12 11.1190695411 1.7782238192 17.8009149032
4992 1 38.8395 26.4991 29.9402 12 10.8721835554 1.7359122343 19.6469181118
4993 1 42.4277 28.2598 28.2769 12 10.9692170107 1.7611774258 17.033775991
4994 1 1.75598 30.09 28.3161 12 10.7863847245 1.7611774258 16.654433756
4995 1 1.84808 28.2759 29.9692 12 10.9483599584 1.7630743466 16.467860068
4996 1 0.0247823 30.0027 30.0326 12 10.8822377424 1.7597262954 18.6736188345
4997 1 3.54864 28.3095 28.384 12 10.9406312445 1.760672082 14.4917269323
4998 1 5.38184 29.9729 28.3001 12 10.5252645269 1.7411076534 14.1585412144
4999 1 5.40157 28.2925 29.9754 12 10.74602776 1.7405022502 14.0988187156
5000 1 3.58031 30.0338 29.9419 12 10.7678052117 1.7411076534 16.1874045807
5001 1 7.12211 28.2886 28.2997 12 10.4891872368 1.7522216565 12.1478923266
5002 1 8.78676 29.8505 28.175 12 10.9351674956 1.777414615 12.2396857477
5003 1 8.72935 28.2006 30.0147 12 10.7569494003 1.7601354626 12.2704207463
5004 1 7.08065 30.0731 29.985 12 10.7577329886 1.7601354626 14.2563228523
5005 1 10.6087 28.237 28.2431 12 10.9368371437 1.7769503387 10.3134309992
5006 1 12.3492 30.029 28.2036 12 10.8813792649 1.7794247533 10.7730472692
5007 1 12.3061 28.1708 30.1105 12 11.0694372367 1.7794247533 10.6225993233
5008 1 10.5922 30.0256 30.0264 12 11.1695464122 1.7781319957 12.5507460119
5009 1 14.1501 28.277 28.2945 12 11.256773367 1.7756047644 8.8463842113
5010 1 15.939 30.0721 28.197 12 10.9913539542 1.7391646105 9.5868140035
5011 1 15.9404 28.2515 29.9893 12 11.3413401524 1.770834092 9.5578026775
5012 1 14.2043 30.063 29.9133 12 11.2135388805 1.7794247533 11.0912010763
5013 1 17.6554 28.1694 28.2794 12 10.9324455039 1.7495218772 8.0627741016
5014 1 19.303 30.1202 28.2073 12 10.8368918599 1.7436975778 9.6361728119
5015 1 19.353 28.3619 29.9568 12 11.0349675647 1.7634664841 9.5997254752
5016 1 17.5615 30.0806 29.9951 12 10.8982135488 1.7471726013 10.6268972175
5017 1 21.0868 28.388 28.2604 12 10.9262503179 1.7383328998 8.8337610263
5018 1 23.0171 30.0779 28.2057 12 11.0029867637 1.7383328998 10.6963122399
5019 1 22.8804 28.3804 29.9548 12 11.2143470963 1.7701620339 10.4324830362
5020 1 21.0459 30.0867 30.0597 12 11.3616188994 1.7503787032 11.1892574058
5021 1 24.7053 28.3 28.1958 12 11.1801304539 1.7545993277 10.1111883276
5022 1 26.4726 29.9759 28.2781 12 11.2011269855 1.742748565 12.0975715393
5023 1 26.5317 28.2633 30.0417 12 11.0372343076 1.7777357053 12.0961957851
5024 1 24.7823 30.0471 30.0185 12 10.9787367499 1.7545993277 12.3990049501
5025 1 28.299 28.3031 28.2007 12 11.0948793584 1.7522211496 11.8881478119
5026 1 29.9448 30.0001 28.2692 12 10.9130460395 1.7424206343 13.9277375284
5027 1 29.9151 28.2197 30.0685 12 10.6751635647 1.7404320153 13.9271734787
5028 1 28.1969 30.0023 30.0353 12 10.9240552898 1.7600633883 13.9474608647
5029 1 31.7619 28.3666 28.2685 12 11.0687620722 1.7502462444 14.2457459828
5030 1 33.5881 30.1152 28.3483 12 11.1495032833 1.7586815776 16.5117478962
5031 1 33.5036 28.3629 30.0865 12 10.7940138399 1.7544431733 16.4400217095
5032 1 31.5657 30.006 30.0787 12 10.8697807281 1.7538348492 15.8909951825
5033 1 35.4169 28.3571 28.1957 12 11.1532071027 1.7898270641 17.0127858238
5034 1 37.1208 30.0457 28.1782 12 11.0710357186 1.7587351394 19.1091308738
5035 1 37.0978 28.1868 30.0449 12 10.6813895341 1.7431007795 19.0458463995
5036 1 35.3303 29.9813 29.9303 12 10.8209680251 1.7556185782 18.4471948269
5037 1 38.8887 28.3369 28.1416 12 11.0405763617 1.7465225864 19.7193351769
5038 1 40.6604 29.964 28.2548 12 11.0854527879 1.7611774258 19.241248941
5039 1 40.724 28.2417 30.0901 12 11.0362620871 1.7460167294 19.0982399826
5040 1 38.8125 29.9056 29.9241 12 11.0700151724 1.7723450961 21.1073185472
5041 1 0.0823858 31.7803 28.2248 12 11.0248051506 1.7611759682 18.7550955598
5042 1 1.80315 33.5959 28.3505 12 11.1008346552 1.7496515256 18.7166444867
5043 1 1.68375 31.7361 30.0377 12 10.9818777689 1.7639037895 18.4113587288
5044 1 42.3822 33.6235 30.0567 12 10.8301980595 1.7460807213 20.6642269176
5045 1 3.57191 31.7677 28.3077 12 10.902004607 1.7496515256 16.3926758403
5046 1 5.20065 33.5897 28.1907 12 11.190613596 1.7606429737 16.656102062
5047 1 5.28298 31.8361 29.9827 12 11.1581179631 1.7568781758 16.2899609388
5048 1 3.43178 33.5679 30.1005 12 11.093408418 1.7635696455 18.4935967613
5049 1 7.06259 31.8279 28.1586 12 11.2782529442 1.7579420789 14.4275305985
5050 1 8.83973 33.6099 28.2106 12 11.2550729141 1.7422398957 14.9500344918
5051 1 8.93532 31.7419 29.8753 12 11.2725723859 1.7589000064 14.4375458935
5052 1 7.11362 33.5826 29.9671 12 11.3399787701 1.7656318141 16.6169008689
5053 1 10.6322 31.8438 28.1757 12 10.8601756064 1.777414615 12.8357643053
5054 1 12.3719 33.4845 28.1754 12 10.8861882963 1.7610894007 13.3749965931
5055 1 12.4193 31.7197 29.9291 12 10.8823603186 1.7794247533 12.8945886547
5056 1 10.7248 33.4715 29.9788 12 10.9403139628 1.7796503503 14.9172408682
5057 1 14.1371 31.8052 28.153 12 10.781673654 1.73908212 11.3927837852
5058 1 15.9122 33.5798 28.1467 12 10.9676201896 1.7641047543 12.5147239995
5059 1 15.8754 31.8805 30.1124 12 10.9727742753 1.7639872478 12.1695937904
5060 1 14.0598 33.5905 29.979 12 11.2100432375 1.7641047543 13.8043211413
5061 1 17.5942 31.835 28.2276 12 10.7844625993 1.7523679818 10.916322338
5062 1 19.3579 33.4899 28.2972 12 10.9410230205 1.7496081103 12.5124692899
5063 1 19.3628 31.8463 30.0191 12 10.7651438441 1.7471726013 12.0890997645
5064 1 17.5827 33.6055 30.0096 12 10.8465160125 1.7641047543 13.370765788
5065 1 21.0893 31.7625 28.203 12 11.0113633414 1.7488769778 11.3735515188
5066 1 22.948 33.5451 28.2739 12 11.1702468276 1.7593144504 13.3473141507
5067 1 23.0369 31.8155 29.9271 12 11.3513045921 1.7682879582 12.9877704656
5068 1 21.1636 33.4445 30.0105 12 11.2693491887 1.7848404263 13.7080623266
5069 1 24.8077 31.7913 28.3063 12 10.9098281345 1.7516836233 12.7244306695
5070 1 26.5185 33.5652 28.1963 12 11.0276814468 1.748653201 14.7359043942
5071 1 26.4536 31.8216 30.1104 12 11.0253874904 1.7600633883 14.4277219245
5072 1 24.7425 33.5736 30.0125 12 11.1953451162 1.7795221483 14.9353551324
5073 1 28.2147 31.7752 28.224 12 11.1664126308 1.7600633883 14.157347412
5074 1 29.9409 33.4286 28.1971 12 11.1617928 1.7643527819 16.2360058399
5075 1 29.9681 31.7478 29.9815 12 10.7847993967 1.7600633883 15.93397382
5076 1 28.2338 33.5629 30.0403 12 11.058696577 1.7600234752 16.4001921675
5077 1 31.7837 31.7724 28.2512 12 11.1548614524 1.7538348492 16.1913951524
5078 1 33.5185 33.6744 28.2415 12 11.2417789801 1.7787636138 18.5507464001
5079 1 33.5189 31.8434 30.0148 12 11.2313248728 1.7787636138 18.1642865946
5080 1 31.6929 33.6005 30.0276 12 11.1592702284 1.7746807865 18.1378523613
5081 1 35.2774 31.8642 28.2415 12 11.3371369068 1.7587351394 18.6734599034
5082 1 37.1026 33.6621 28.1911 12 11.2855165865 1.7679667233 21.0251250236
5083 1 37.0196 31.7918 29.9579 12 11.3305506746 1.7625925764 20.6162761457
5084 1 35.3828 33.5892 30.079 12 11.280551882 1.7787636138 20.4745506792
5085 1 38.8577 31.8084 28.2863 12 11.1106101827 1.7590758731 21.3491602994
5086 1 40.8174 33.4927 28.2725 12 10.8518956994 1.7629301879 20.9858977095
5087 1 40.6486 31.6674 29.9511 12 11.2266798872 1.7590758731 20.7871360594
5088 1 38.9847 33.5136 29.9589 12 11.1097084085 1.759365494 22.9900793472
5089 1 0.0718986 35.2338 28.2383 12 10.7967142652 1.7475572643 20.8855813264
5090 1 1.74566 37.0344 28.314 12 10.7106761827 1.7391155662 21.14705255
5091 1 1.73214 35.29 30.1456 12 10.9365636028 1.766039702 20.6453158129
5092 1 0.0278937 37.1025 29.9513 12 11.2320077633 1.7362910888 22.8199888445
5093 1 3.4106 35.3465 28.2877 12 11.0762642125 1.761158405 18.9510831643
5094 1 5.29876 37.1043 28.3015 12 11.2196933256 1.7806463342 19.3365456603
5095 1 5.23432 35.2358 30.0107 12 11.5632757089 1.7723675528 18.6966136698
5096 1 3.47362 37.1394 30.1768 12 11.4245642134 1.7723675528 21.0374289132
5097 1 7.11157 35.2592 28.2742 12 11.1234460459 1.7806463342 17.0374886335
5098 1 8.86137 36.9342 28.2344 12 11.1047571792 1.7805683898 17.5134755288
5099 1 8.85817 35.3529 30.1043 12 10.9527346 1.7785126347 17.1806214267
5100 1 7.00851 36.9729 30.057 12 11.1860600743 1.7946842137 19.1902479248
5101 1 10.5287 35.2923 28.154 12 11.1633222238 1.7798495023 15.4928199252
5102 1 12.3147 37.0526 28.1391 12 11.2034779426 1.7619440489 16.3988608568
5103 1 12.4541 35.2465 29.948 12 11.0864327734 1.7798495023 15.602103625
5104 1 10.6197 37.0824 29.981 12 10.9552200746 1.7798495023 17.7558124545
5105 1 14.2311 35.3614 28.169 12 11.2224154196 1.7619440489 14.4195638368
5106 1 15.927 37.1256 28.2414 12 10.9884202826 1.7592761382 15.7655672098
5107 1 15.9352 35.391 30.0615 12 11.0495398918 1.7641047543 15.0024608976
5108 1 14.1177 36.9984 30.1275 12 11.215201246 1.7619440489 16.7142917455
5109 1 17.5959 35.3699 28.1811 12 10.924895923 1.7298028535 14.0318322803
5110 1 19.3756 37.0544 28.3411 12 11.1752199321 1.7577994126 15.7462900149
5111 1 19.2894 35.3157 29.9834 12 11.2678561331 1.7848404263 14.9001931383
5112 1 17.6338 37.0764 30.0565 12 10.9417777437 1.7510572637 16.3826106535
5113 1 21.0173 35.2841 28.2544 12 11.4833470794 1.7852142149 14.3546152314
5114 1 22.9832 37.0398 28.2079 12 11.1895570034 1.7644406035 16.2646280773
5115 1 22.8514 35.284 29.9988 12 11.377986867 1.7848404263 15.6302448349
5116 1 21.1858 37.15 30.1341 12 11.3794432025 1.7845184293 16.8652594874
5117 1 24.6889 35.3185 28.3274 12 11.1202226999 1.7795755316 15.3842999033
5118 1 26.4465 37.203 28.2198 12 11.0650467184 1.7685338198 17.5709836432
5119 1 26.659 35.367 29.9256 12 11.2337200878 1.7795755316 16.9974826578
5120 1 24.6445 37.1153 30.0146 12 11.125463191 1.7795755316 17.6268215302
5121 1 28.2321 35.3621 28.1926 12 11.0728203536 1.7685338198 16.9135358511
5122 1 29.9687 37.2896 28.1238 12 11.4544387885 1.7685338198 19.2292592129
5123 1 29.9656 35.4085 29.9462 12 11.3240773052 1.7517926182 18.5027998841
5124 1 28.306 37.1824 30.0282 12 11.0258929011 1.7685338198 19.1525371179
5125 1 31.6585 35.2049 28.1301 12 11.3062483784 1.7517926182 18.4627457952
5126 1 33.5326 36.9768 28.2002 12 11.3930561073 1.7815279521 20.8759890279
5127 1 33.5094 35.3937 30.1121 12 11.3261939675 1.7787636138 20.4475727132
5128 1 31.8429 37.0917 29.9323 12 11.2391334479 1.7609307761 20.6830272323
5129 1 35.3451 35.2723 28.3188 12 11.2948319739 1.7818477731 20.8464771611
5130 1 37.1223 37.1634 28.291 12 11.2290985561 1.7818477731 23.300501734
5131 1 37.1866 35.2931 29.9379 12 11.1081582739 1.7677607794 22.6917293783
5132 1 35.3978 37.0917 30.0422 12 11.1686216177 1.7814678145 22.7286878816
5133 1 39.1052 35.2721 28.2621 12 11.2484933721 1.7777290851 23.2921415443
5134 1 40.755 37.1436 28.1979 12 11.0992189073 1.7381846748 23.3076085172
5135 1 40.7597 35.3344 29.9428 12 10.9821529562 1.7907625927 22.7509981984
5136 1 38.9818 37.1201 29.9634 12 11.2692284584 1.7717603494 25.0868209956
5137 1 0.0597543 39.0403 28.276 12 11.0311476983 1.7381846748 23.2278683451
5138 1 1.83108 40.7451 28.3454 12 10.9738575439 1.755479621 20.958259717
5139 1 1.77035 38.9591 30.0449 12 11.1187177931 1.7676835657 22.9653817777
5140 1 0.0241217 40.7137 30.0607 12 10.7458629198 1.7426306879 22.7007128738
5141 1 3.4907 38.8118 28.3078 12 10.8187816712 1.7423586903 21.5135843565
5142 1 5.28335 40.5645 28.266 12 10.9136439956 1.7399478069 19.2321313021
5143 1 5.2921 38.8057 30.0575 12 11.0439313194 1.7715770023 21.2950816374
5144 1 3.58103 40.6162 30.0556 12 10.9419680587 1.7426252049 20.8005393649
5145 1 7.08315 38.8179 28.2799 12 11.2490222893 1.7889472613 19.7225990706
5146 1 8.76919 40.5537 28.3042 12 10.9800920138 1.7752099369 17.61112242
5147 1 8.80629 38.707 30.0488 12 11.0304512917 1.748121289 19.7583054296
5148 1 7.07505 40.6341 29.9245 12 10.7697504833 1.7601232598 19.01109289
5149 1 10.5675 38.8296 28.3089 12 11.1102736564 1.7803622483 18.4532816573
5150 1 12.532 40.5822 28.257 12 11.1157684477 1.7803622483 16.4122623083
5151 1 12.4033 38.7136 29.9668 12 11.179581927 1.7798982912 18.5581639801
5152 1 10.5886 40.5887 29.9655 12 11.1908844245 1.7798813499 17.7364765044
5153 1 14.0955 38.8573 28.2032 12 10.8941041098 1.7619440489 17.5968275165
5154 1 15.8529 40.5486 28.2179 12 10.7134677165 1.7358349562 15.7769711373
5155 1 15.8912 38.7673 29.9202 12 10.8888689356 1.7538410187 17.9257052261
5156 1 14.1918 40.553 29.977 12 10.8656882016 1.7799578498 16.806945007
5157 1 17.692 38.9492 28.1924 12 10.8934756961 1.7577458961 17.1447520877
5158 1 19.441 40.6599 28.1907 12 11.090010102 1.7559534194 15.662858713
5159 1 19.3712 38.9514 30.0309 12 11.2508772883 1.7577994126 17.970349501
5160 1 17.5567 40.6612 29.9998 12 10.8497287896 1.7458671681 16.3630663324
5161 1 21.2012 38.7457 28.2516 12 11.1986837376 1.7577994126 17.4804476969
5162 1 22.8903 40.6015 28.2226 12 11.224597069 1.7553531314 16.2338021313
5163 1 22.9687 38.836 29.9625 12 11.0178603127 1.7421944731 18.5639139672
5164 1 21.1273 40.7487 29.9626 12 11.2451334965 1.7430373765 16.6147474184
5165 1 24.7482 38.9059 28.2381 12 10.7814971181 1.7435103039 18.201485915
5166 1 26.4375 40.6862 28.1253 12 10.5814293325 1.7288277102 17.2211910247
5167 1 26.4386 38.9838 29.9525 12 10.9933905209 1.7421944731 19.389819157
5168 1 24.7256 40.6763 29.9076 12 10.8296709867 1.7419370622 17.4132603862
5169 1 28.1925 39.0361 28.1677 12 11.0752440589 1.7651313042 19.3476572817
5170 1 30.0088 40.5496 28.2723 12 10.9985583476 1.7463343648 19.1031748505
5171 1 30.1415 38.8504 30.0052 12 11.0138618906 1.7299122734 21.1278328585
5172 1 28.2401 40.6086 29.9928 12 11.0363752508 1.7854149279 18.8636757532
5173 1 31.8456 38.9464 28.1847 12 11.0080783572 1.7345905939 21.3171128798
5174 1 33.6523 40.6597 28.1659 12 10.903672205 1.7306506179 21.1212736372
5175 1 33.5279 38.8962 30.1187 12 11.1120495176 1.7629308625 22.9980445184
5176 1 31.8678 40.664 29.9798 12 10.8566330119 1.7546591686 20.7521848341
5177 1 35.2735 38.8329 28.2552 12 11.0900105018 1.7818477731 23.2916457984
5178 1 37.0102 40.5884 28.36 12 10.7618965094 1.7490628141 23.3448033062
5179 1 37.132 38.852 29.9721 12 10.7200705628 1.7489972229 25.0056151851
5180 1 35.3024 40.5196 30.0721 12 10.7167339157 1.7484450743 22.9114640964
5181 1 38.8576 38.9105 28.2328 12 10.7783014731 1.7347723384 25.6190099549
5182 1 40.6123 40.6857 28.2934 12 10.6185162614 1.7365831174 23.2575234296
5183 1 40.6627 38.9365 30.0092 12 10.7835339503 1.7381846748 25.0019048308
5184 1 38.8386 40.5787 29.9682 12 10.8208798229 1.7565715944 25.108391371
5185 1 -0.0264454 0.0764014 31.9107 12 10.8952445993 1.7455314434 22.4018353194
5186 1 1.75675 1.66057 31.824 12 10.8427780151 1.7396953108 20.3148372211
5187 1 1.75221 -0.0149611 33.5958 12 10.9220679106 1.7466379872 22.3197261241
5188 1 42.4028 1.65905 33.6275 12 10.8715980405 1.7466379872 22.3915197176
5189 1 3.6863 42.3623 31.683 12 10.9317346737 1.7352958495 20.2856130127
5190 1 5.41836 1.8038 31.6863 12 11.1841450709 1.7958422281 18.1999463986
5191 1 5.3382 42.3691 33.5032 12 11.1165030066 1.7949487525 20.56293266
5192 1 3.5026 1.65952 33.5019 12 11.2951116183 1.7958422281 20.3242210174
5193 1 7.16217 0.0368269 31.7563 12 10.9415686009 1.7601232598 18.6535179059
5194 1 8.87312 1.71751 31.7378 12 11.0247361261 1.760757366 16.797095139
5195 1 8.84887 42.3473 33.5722 12 10.8302734527 1.7612732387 19.163310303
5196 1 7.09876 1.65714 33.4607 12 10.8813945695 1.7950781782 18.6794577664
5197 1 10.6062 42.3895 31.8735 12 11.2345161442 1.7686408982 17.4193238319
5198 1 12.4227 1.77344 31.8542 12 10.8350299983 1.7686408982 15.4848720064
5199 1 12.4512 0.0426592 33.5 12 10.9393682073 1.7671971615 17.742381295
5200 1 10.6133 1.70219 33.598 12 10.8058952837 1.7603009827 17.3265000779
5201 1 14.1259 42.2586 31.7624 12 11.4754346997 1.7686408982 16.3831709212
5202 1 15.9688 1.86977 31.7914 12 11.0020909825 1.7652950331 14.5585791452
5203 1 15.8836 42.3736 33.5044 12 10.8883951016 1.7801119492 17.1232091897
5204 1 14.1839 1.79101 33.4579 12 10.7137437061 1.735422963 16.0693967528
5205 1 17.5842 42.4093 31.7345 12 11.1260571485 1.7742887981 15.8623503972
5206 1 19.3812 1.82793 31.7759 12 11.4419890175 1.7764510117 14.5834460024
5207 1 19.3658 0.0655709 33.5747 12 11.2695104724 1.7764510117 17.0817811206
5208 1 17.5127 1.82618 33.5992 12 10.8887942303 1.7681390094 15.7701551566
5209 1 21.2273 0.0328372 31.741 12 11.1088636881 1.7764510117 16.226283916
5210 1 22.9855 1.72437 31.7569 12 10.7624584228 1.7595637425 15.3696494507
5211 1 23.0075 0.0496869 33.4788 12 10.7833496014 1.7400686531 17.7122079249
5212 1 21.2615 1.7516 33.5353 12 10.9922673517 1.791582729 16.1800724375
5213 1 24.7891 0.0196305 31.7757 12 10.5610937702 1.7531766451 17.0922933655
5214 1 26.4803 1.83123 31.7477 12 10.6950237056 1.7647816262 16.445625672
5215 1 26.388 0.0430805 33.5389 12 10.6400144924 1.7552785543 18.732385475
5216 1 24.8386 1.66781 33.6308 12 10.8498367083 1.7532279319 17.2055811833
5217 1 28.2109 0.0503157 31.7319 12 11.1933947191 1.7857120749 18.3987151419
5218 1 30.0221 1.68415 31.6409 12 11.0712482486 1.7407166591 18.2561112242
5219 1 29.9226 42.4066 33.4947 12 11.1599903625 1.7710700915 20.3122724118
5220 1 28.1682 1.6977 33.562 12 11.00351307 1.7644664651 18.459588382
5221 1 31.8009 42.3193 31.803 12 10.8826973681 1.7556473429 20.4594135657
5222 1 33.57 1.67543 31.8097 12 11.1604656975 1.7429591899 20.3595553679
5223 1 33.4488 0.0310624 33.5269 12 10.5442915722 1.7368594485 22.2344553378
5224 1 31.7411 1.59659 33.4586 12 10.6914473525 1.734304587 20.3217308108
5225 1 35.3368 42.2996 31.7181 12 10.7817477246 1.7468626317 22.4878696415
5226 1 36.9553 1.66252 31.7655 12 11.0538247785 1.7604774647 22.5361210205
5227 1 37.1595 42.3902 33.4902 12 11.087876443 1.784265807 24.4674947044
5228 1 35.238 1.66643 33.5294 12 10.8583687408 1.730885393 22.3262013494
5229 1 38.8444 42.275 31.7343 12 11.2023479175 1.7594105931 24.8018857572
5230 1 40.5331 1.81917 31.7697 12 11.2256561286 1.7587631952 22.5602668091
5231 1 40.6287 42.3713 33.4303 12 11.1327594312 1.7530517122 24.3544078157
5232 1 38.8062 1.66469 33.5388 12 11.125984533 1.7655527442 24.7058939176
5233 1 42.3951 3.40718 31.8833 12 11.268218216 1.7631228186 20.5137058292
5234 1 1.85069 5.28528 31.7742 12 11.1430924569 1.7631228186 18.2611264545
5235 1 1.7757 3.39856 33.5116 12 11.1339120642 1.7486081971 20.3011306136
5236 1 42.3863 5.24438 33.5269 12 11.1419512103 1.7631228186 20.5091082352
5237 1 3.57225 3.50808 31.7477 12 11.1727552173 1.757048161 18.1384072047
5238 1 5.17176 5.30746 31.7723 12 10.913769158 1.7574994517 16.2590114683
5239 1 5.40245 3.58361 33.496 12 11.2321005539 1.7958422281 18.2566962328
5240 1 3.49527 5.34351 33.5713 12 10.8611255792 1.7506690427 18.2727926542
5241 1 7.1016 3.58289 31.8135 12 11.1706954307 1.760591726 16.3916245947
5242 1 8.93918 5.27419 31.8577 12 11.1755351109 1.7701928595 14.56601509
5243 1 8.8734 3.43508 33.4434 12 11.0197137511 1.751299918 16.7697627897
5244 1 7.025 5.27707 33.557 12 10.9057859973 1.752041963 16.5436434355
5245 1 10.726 3.48602 31.8365 12 11.0093244327 1.760757366 14.9678632951
5246 1 12.4039 5.31244 31.8252 12 11.2032459412 1.7730312166 13.1640812236
5247 1 12.4682 3.5115 33.5711 12 10.8530371067 1.7717062325 15.5219909249
5248 1 10.6571 5.24023 33.6425 12 11.185601376 1.7709927707 15.0762830254
5249 1 14.1085 3.52214 31.7666 12 10.9073615553 1.7645646386 13.7382918613
5250 1 15.914 5.26903 31.8419 12 11.0695340965 1.781810892 12.3404777622
5251 1 15.936 3.56278 33.5617 12 10.4508048651 1.7669424812 14.718805606
5252 1 14.2217 5.31837 33.5803 12 10.8946066089 1.7717498303 14.0173634089
5253 1 17.6637 3.53874 31.7353 12 11.0045793963 1.7840438414 13.238317473
5254 1 19.51 5.24871 31.9206 12 11.1347044643 1.7840438414 12.4236801963
5255 1 19.4799 3.52807 33.6039 12 11.3441119303 1.791582729 14.7856894615
5256 1 17.5844 5.34223 33.5622 12 11.2232710632 1.7840438414 13.6013436922
5257 1 21.282 3.55047 31.7853 12 11.1089297244 1.7914330338 13.7414059554
5258 1 23.0287 5.38499 31.7557 12 11.2249438037 1.7536564224 12.9213896225
5259 1 23.0711 3.45633 33.4763 12 11.4212473284 1.7915300471 15.4058026587
5260 1 21.3088 5.33215 33.5055 12 11.1139439249 1.791582729 13.8498694493
5261 1 24.8348 3.51925 31.6608 12 10.8130419812 1.7532279319 14.6646914394
5262 1 26.4703 5.24412 31.6805 12 11.1153770773 1.7498706113 14.3653027052
5263 1 26.492 3.52233 33.5021 12 10.8137418706 1.7599911285 16.5857831782
5264 1 24.81 5.20377 33.5397 12 11.1058126715 1.7596451854 14.9164028452
5265 1 28.2577 3.4771 31.7555 12 11.1036045736 1.7644664651 16.3173984602
5266 1 29.9549 5.16906 31.8172 12 11.216914431 1.7604208737 16.3183858553
5267 1 30.1134 3.36581 33.5959 12 11.1770992221 1.7644664651 18.5539822517
5268 1 28.2785 5.21277 33.6021 12 11.1414154933 1.7644664651 16.5635178108
5269 1 31.7298 3.46112 31.7389 12 11.2010649115 1.760751623 18.1992785858
5270 1 33.6198 5.13724 31.7895 12 11.2740970617 1.7705660808 18.5182423662
5271 1 33.4854 3.44132 33.6182 12 11.1964424727 1.7708655836 20.3704289114
5272 1 31.8184 5.20127 33.5579 12 11.0621100922 1.7708655836 18.4234396747
5273 1 35.375 3.49685 31.7898 12 10.8841097606 1.7401102417 20.501940319
5274 1 37.1195 5.33854 31.7943 12 10.7071682114 1.7374880058 20.9034271146
5275 1 37.0206 3.48006 33.4522 12 10.8174243542 1.7331458575 22.5437987451
5276 1 35.356 5.26768 33.4642 12 10.9761580948 1.7708655836 20.5779556856
5277 1 38.8219 3.54074 31.9315 12 10.9419228711 1.761906372 23.0403198795
5278 1 40.6466 5.22914 31.78 12 10.8356797904 1.7586570611 20.8503999882
5279 1 40.6119 3.5645 33.5907 12 11.0717317087 1.7356941466 22.578882997
5280 1 38.841 5.35074 33.5261 12 10.9270779732 1.7244767858 23.0136982016
5281 1 42.3661 6.98738 31.7868 12 10.9292483726 1.761981674 18.7905466922
5282 1 1.64475 8.72104 31.8973 12 10.7503000164 1.7313387527 16.8389665138
5283 1 1.70567 7.06193 33.5491 12 10.8132172462 1.7398535504 18.4716327495
5284 1 0.0358217 8.84319 33.5653 12 11.0251093262 1.7544702929 18.9033163813
5285 1 3.52602 7.0572 31.8469 12 10.6630979158 1.7362497062 16.3127836326
5286 1 5.34462 8.75398 31.7342 12 11.1919995235 1.7607855557 14.2570764608
5287 1 5.40662 7.08647 33.6437 12 10.939761073 1.752041963 16.3225746372
5288 1 3.4928 8.79449 33.5211 12 11.0975200076 1.7445213142 16.5312079078
5289 1 7.01401 7.01696 31.7982 12 11.1662835417 1.7546046753 14.3476682927
5290 1 8.82482 8.79033 31.8444 12 11.1578414815 1.791895159 12.5476495806
5291 1 8.74257 7.06267 33.4571 12 11.1428379977 1.7617572655 14.6995507078
5292 1 7.02876 8.91768 33.614 12 10.8357622437 1.7700451316 14.5828273869
5293 1 10.6596 7.01722 31.8016 12 11.1812062831 1.7919297865 12.7312064312
5294 1 12.4106 8.90973 31.9101 12 11.3219522687 1.7919297865 11.155396598
5295 1 12.3558 7.06205 33.6019 12 11.1276545625 1.7744136417 13.471110226
5296 1 10.5615 8.82273 33.6208 12 11.0555315772 1.7919297865 13.2451084879
5297 1 14.2047 7.03155 31.8764 12 11.3024553063 1.7744136417 11.6886331249
5298 1 15.8788 8.81925 31.7352 12 11.293287194 1.7499665823 10.4050181256
5299 1 15.8713 7.1142 33.6584 12 11.1815725716 1.7647382082 12.9061145644
5300 1 14.078 8.90728 33.5752 12 11.1400531784 1.7592692066 12.1661335981
5301 1 17.6787 7.10525 31.7031 12 11.4594533581 1.7840355037 11.1013956217
5302 1 19.435 8.83922 31.7137 12 10.9835823149 1.74254141 10.2341475998
5303 1 19.4796 7.05052 33.5432 12 11.1971764924 1.7716014738 12.7190222337
5304 1 17.7738 8.80703 33.5841 12 11.2980016486 1.7575545582 11.9270834886
5305 1 21.1575 7.0039 31.7483 12 11.0445050166 1.7465247055 11.4466774267
5306 1 22.9014 8.81092 31.7405 12 11.1229633203 1.7483369323 10.9484557296
5307 1 22.9709 7.09723 33.5223 12 11.2641494349 1.7596451854 13.2501769147
5308 1 21.1113 8.83977 33.5831 12 11.0942739886 1.7502942923 12.0683374573
5309 1 24.7551 7.17218 31.8101 12 11.1367278789 1.7596451854 12.5564861137
5310 1 26.4852 8.93342 31.8644 12 11.1375996945 1.7760409212 12.4592831015
5311 1 26.5282 6.96699 33.6292 12 11.0181874055 1.7614676661 14.7784136758
5312 1 24.8406 8.79617 33.5829 12 10.8009553604 1.7537604419 13.1443022449
5313 1 28.1995 7.04736 31.7451 12 11.3499061489 1.7761950191 14.2952884681
5314 1 30.1431 8.73693 31.8098 12 11.1006612461 1.7761950191 14.5127720642
5315 1 30.0462 6.99354 33.5302 12 11.0833540086 1.7614676661 16.435849744
5316 1 28.3568 8.75407 33.6115 12 11.3743122636 1.7761950191 14.6754973946
5317 1 31.7148 6.90518 31.7092 12 11.0842322795 1.7656385295 16.3661937043
5318 1 33.6173 8.81068 31.8541 12 10.9795007944 1.7627211065 16.8742545034
5319 1 33.4904 6.99127 33.5005 12 11.1381330816 1.770700987 18.5241125644
5320 1 31.8652 8.8196 33.504 12 11.121237504 1.7573929992 16.6031641142
5321 1 35.3786 7.13913 31.847 12 11.1630280565 1.7677135285 18.8857075169
5322 1 37.1323 8.96744 31.8434 12 11.0012661103 1.757692354 19.3282806783
5323 1 37.0333 7.17115 33.51 12 10.8486994192 1.7450417364 20.93961957
5324 1 35.2646 8.89458 33.5817 12 10.9872963831 1.7602000202 18.9493178548
5325 1 38.8239 7.08764 31.8769 12 10.7286931631 1.7415106187 21.4284698018
5326 1 40.621 8.72647 31.8221 12 11.0176736712 1.7563689561 19.4214515675
5327 1 40.6596 6.97158 33.559 12 11.1082190569 1.7544702929 20.9624880733
5328 1 38.9093 8.86563 33.5122 12 10.8336710292 1.7521704926 21.5508327115
5329 1 42.2648 10.5152 31.82 12 11.0726633637 1.7517668178 17.5327682089
5330 1 1.71456 12.3289 31.8886 12 10.904132045 1.7369797499 15.5910728206
5331 1 1.78619 10.6024 33.4884 12 11.1123088516 1.7931325114 17.0050939866
5332 1 42.3143 12.3346 33.5496 12 11.3474456259 1.7769898316 17.9501621735
5333 1 3.4942 10.5597 31.7392 12 10.978567468 1.7599180795 14.7131488435
5334 1 5.30322 12.3101 31.7411 12 11.0213759417 1.760620326 12.9311042571
5335 1 5.26958 10.5572 33.5445 12 10.9475457699 1.7607855557 14.7896282637
5336 1 3.50466 12.3373 33.4805 12 10.8578576427 1.7691700021 15.342581537
5337 1 7.03299 10.5993 31.7551 12 10.9636192543 1.7607855557 12.4649730204
5338 1 8.87484 12.3436 31.8115 12 10.8604944718 1.747378269 10.9433925934
5339 1 8.81249 10.5868 33.4892 12 10.8491265688 1.770717213 12.9912071398
5340 1 7.14098 12.3064 33.5141 12 11.0394337093 1.7549028061 13.2043237697
5341 1 10.6279 10.6637 31.8355 12 10.9484824345 1.7918376727 10.9329861958
5342 1 12.3678 12.3073 31.8296 12 10.9404710408 1.7474719417 9.8161368633
5343 1 12.2765 10.602 33.6531 12 10.8026466714 1.7511006972 12.0325416316
5344 1 10.5817 12.2923 33.723 12 10.9733777378 1.7474719417 12.0201687604
5345 1 14.0483 10.6053 31.7077 12 10.9750219867 1.753867287 9.8143277005
5346 1 15.7053 12.4909 31.7797 12 11.2220337975 1.7477255554 8.906505733
5347 1 15.8697 10.5907 33.4873 12 11.6055851243 1.7575545582 11.143846228
5348 1 14.0659 12.2911 33.6131 12 11.118381262 1.7483281338 11.0553275191
5349 1 17.6637 10.531 31.7659 12 11.3743517483 1.7556803214 9.5059855303
5350 1 19.3801 12.2634 31.8815 12 11.0201211009 1.7613221645 8.7642134026
5351 1 19.3796 10.6011 33.5461 12 10.8755623096 1.7892417491 11.044274725
5352 1 17.694 12.381 33.6914 12 11.0739683047 1.7573570864 10.4017417564
5353 1 21.1191 10.4937 31.7972 12 10.9049198673 1.7440382681 9.8156076994
5354 1 22.9034 12.3182 31.8171 12 11.043754275 1.7751412786 9.3199146251
5355 1 22.9579 10.4678 33.5425 12 11.0216844554 1.7507118595 11.6739088487
5356 1 21.1682 12.304 33.6032 12 10.9430806208 1.7513517154 10.3791955707
5357 1 24.694 10.5636 31.8489 12 10.8652621458 1.7728564207 10.8695072793
5358 1 26.4451 12.2849 31.7994 12 11.1084393391 1.7751412786 10.7845961629
5359 1 26.6157 10.6471 33.5948 12 11.2392153971 1.7718467914 12.9583526399
5360 1 24.7296 12.2352 33.5228 12 11.1083094602 1.7744287209 11.3883564475
5361 1 28.4179 10.588 31.7889 12 11.1967875773 1.7761950191 12.5732291982
5362 1 30.0962 12.3984 31.7884 12 10.6505213112 1.7578993421 12.9684533586
5363 1 30.1431 10.6249 33.5434 12 11.2202562014 1.7718467914 14.8060587725
5364 1 28.4099 12.3727 33.5434 12 11.3795438437 1.7905914596 13.1014285353
5365 1 31.8525 10.6455 31.7148 12 10.8339462429 1.7491789488 14.7538314669
5366 1 33.5873 12.4462 31.6229 12 10.7524752119 1.7462607893 15.2068348895
5367 1 33.5174 10.6583 33.4355 12 11.0087463483 1.7509178276 16.9444469958
5368 1 31.8008 12.3583 33.4959 12 11.0177944574 1.7791356961 15.2681951478
5369 1 35.2794 10.6428 31.6506 12 10.8820831183 1.757692354 17.1352310529
5370 1 37.0714 12.4352 31.6732 12 11.1391299616 1.7478182724 17.9208700979
5371 1 37.0821 10.6331 33.5459 12 11.132737731 1.7507964782 19.5240345104
5372 1 35.3356 12.3838 33.3888 12 11.0559595764 1.7509178276 17.5752509517
5373 1 38.916 10.7076 31.8468 12 10.9864273885 1.7472002353 20.0496433124
5374 1 40.5462 12.4074 31.7019 12 10.737641099 1.7478182724 18.2872255069
5375 1 40.5678 10.6187 33.603 12 10.8892881696 1.7541567462 19.8066088467
5376 1 38.8639 12.488 33.6147 12 11.0672120207 1.7478182724 20.378839744
5377 1 -0.0149191 14.0638 31.8053 12 10.9052266913 1.7765504699 16.4241724445
5378 1 1.66587 15.9028 31.8172 12 11.0411954635 1.7530780009 14.7839424045
5379 1 1.77396 14.2026 33.4921 12 11.1894765061 1.7769898316 16.0689114567
5380 1 42.3356 15.8816 33.615 12 11.0292547411 1.7769898316 17.262533274
5381 1 3.55187 14.1552 31.8207 12 11.0102436406 1.7548902776 13.7079273399
5382 1 5.38031 15.8803 31.6942 12 11.0412298219 1.7889443948 12.0252873078
5383 1 5.25052 14.0566 33.5378 12 11.0743575399 1.7549028061 13.8804252212
5384 1 3.65837 15.9398 33.5423 12 11.1913326992 1.7705679253 14.5199552094
5385 1 7.05703 14.0616 31.7025 12 10.9821565345 1.7548902776 11.3938315511
5386 1 8.87155 15.8302 31.7724 12 10.7536506193 1.7472646395 10.1904307428
5387 1 8.86122 14.0869 33.5565 12 11.1077922209 1.7514279027 12.0805330428
5388 1 7.0845 15.7853 33.5104 12 11.0290623402 1.7691914189 12.5347193313
5389 1 10.569 14.1099 31.7939 12 11.0389380394 1.7441981463 9.8204930352
5390 1 12.2722 15.917 31.8336 12 10.7320913125 1.749404399 8.9111477388
5391 1 12.276 14.1227 33.5663 12 10.8524633645 1.7474719417 10.9393518203
5392 1 10.596 15.8991 33.5989 12 10.7384053283 1.763300682 11.155425233
5393 1 13.9872 14.1409 31.9036 12 10.8276526927 1.7545431694 8.9696580928
5394 1 15.8982 15.7823 31.7643 12 11.1446858112 1.7557442031 7.7691387844
5395 1 15.9168 14.0804 33.5833 12 11.2689103175 1.7738598532 9.9990339031
5396 1 14.0777 15.8562 33.5437 12 11.1813387157 1.7738598532 9.9156311428
5397 1 17.6529 13.9743 31.8301 12 11.0137230352 1.7609594393 8.1226800598
5398 1 19.3565 15.81 31.9296 12 10.9378614532 1.7600268168 7.532058599
5399 1 19.3879 14.0687 33.6588 12 10.7161474925 1.7613221645 9.6255824864
5400 1 17.6562 15.8624 33.6255 12 11.1181699844 1.7734093737 9.2894933708
5401 1 21.2064 14.1257 31.7857 12 11.0852296891 1.7613221645 8.0125462306
5402 1 22.9319 15.826 31.9896 12 11.0730995514 1.7854967415 8.1770518476
5403 1 22.9555 14.0001 33.5274 12 11.0909729497 1.7741678192 10.0999821336
5404 1 21.1598 15.8 33.66 12 10.9958549466 1.7545093098 9.3808405519
5405 1 24.6827 14.1743 31.7365 12 11.0243465567 1.7751412786 9.0845500038
5406 1 26.4646 15.8845 31.7845 12 10.8305147298 1.7387171181 9.5736790975
5407 1 26.5077 14.0719 33.5589 12 11.0367822103 1.7727124501 11.4616429619
5408 1 24.8454 15.7713 33.6444 12 11.1229489231 1.7729625087 10.3580600092
5409 1 28.1565 14.1348 31.8877 12 10.992700708 1.7579798441 11.1650337295
5410 1 30.1667 15.8894 31.8555 12 11.1380917768 1.7579798441 12.1860260637
5411 1 30.0832 14.1469 33.613 12 10.9833350552 1.768729524 13.6384680505
5412 1 28.2559 15.9091 33.5546 12 11.3822744495 1.7513225225 12.0372306959
5413 1 31.7484 14.0973 31.7942 12 11.0592176627 1.7689653441 13.5315201618
5414 1 33.5726 15.9343 31.6456 12 11.0748908439 1.7766896268 14.4141479522
5415 1 33.6252 14.1155 33.537 12 11.3309953813 1.7766896268 16.0144023882
5416 1 31.7464 15.9793 33.5163 12 11.0483370544 1.7766896268 14.4433787643
5417 1 35.235 14.2418 31.6973 12 10.6907631341 1.7466455568 16.0139198907
5418 1 37.0554 15.9927 31.7409 12 11.1068202319 1.7784213306 17.2647442695
5419 1 36.9365 14.109 33.509 12 11.2346440852 1.7784213306 18.4399559609
5420 1 35.2891 15.909 33.5598 12 11.2380858861 1.7797842643 16.9509625031
5421 1 38.793 14.2268 31.8174 12 11.2118673759 1.7770309128 19.013754143
5422 1 40.6052 15.9728 31.7107 12 11.120394487 1.7577348423 17.5717671068
5423 1 40.6467 14.2168 33.5109 12 11.122402861 1.7765484653 18.7648970099
5424 1 38.8369 15.952 33.6729 12 11.4321285259 1.7784213306 19.8119915985
5425 1 -0.00913106 17.6719 31.8685 12 10.9881196031 1.7578586086 16.0570713941
5426 1 1.73522 19.4028 31.8491 12 10.7320733632 1.7530780009 14.7482690139
5427 1 1.78312 17.6465 33.6319 12 11.0506145442 1.7530780009 15.7824823857
5428 1 0.0307656 19.4322 33.5481 12 11.0961129348 1.7998802232 17.1306752288
5429 1 3.53221 17.5817 31.7451 12 11.375133741 1.7889443948 13.2154728645
5430 1 5.28314 19.4495 31.8758 12 11.1685090512 1.7902720906 12.2257911852
5431 1 5.38231 17.6113 33.6403 12 11.0743633366 1.7889443948 13.4206667951
5432 1 3.58892 19.4338 33.5011 12 10.776200295 1.7465243275 14.5418310345
5433 1 7.10185 17.4591 31.7837 12 11.1153523145 1.7902720906 10.9166014641
5434 1 8.84404 19.3767 31.7127 12 11.3594278152 1.7902720906 10.1257599903
5435 1 8.91736 17.5605 33.5387 12 11.0359489768 1.7857914145 11.6218951897
5436 1 7.04191 19.3427 33.5914 12 11.485047526 1.7902720906 12.5984693135
5437 1 10.5723 17.5635 31.7178 12 10.9493404237 1.7528678295 9.2935842253
5438 1 12.3452 19.3797 31.7812 12 11.1859841865 1.7559380039 8.5057333168
5439 1 12.3496 17.5895 33.7148 12 10.9255761465 1.7512058468 10.3854067859
5440 1 10.6412 19.3303 33.4561 12 11.0447989887 1.7842774257 10.8180475688
5441 1 14.0303 17.6334 31.821 12 10.9465342948 1.7545431694 8.0427976538
5442 1 15.9391 19.4676 31.8694 12 10.7324235045 1.7599197482 7.5026029627
5443 1 15.839 17.5884 33.4873 12 11.327313184 1.7738598532 9.1055314959
5444 1 14.134 19.4298 33.4721 12 11.0632286406 1.7529966949 9.4130637782
5445 1 17.6338 17.6637 31.8169 12 10.8770941991 1.7588262996 7.2424184717
5446 1 19.4355 19.3726 31.8178 12 11.0692242478 1.7703900045 7.314461463
5447 1 19.3896 17.6267 33.5106 12 10.9615035718 1.7588262996 8.9912632082
5448 1 17.6327 19.4293 33.5402 12 10.9951243038 1.7586810055 9.0224742245
5449 1 21.0762 17.5163 31.796 12 11.3097513906 1.7854967415 7.4407109995
5450 1 22.93 19.3871 31.7688 12 11.2480670753 1.7854967415 7.9361165401
5451 1 22.994 17.6503 33.6503 12 11.3217568412 1.7854866148 9.5977553982
5452 1 21.1398 19.4285 33.6075 12 10.9875722158 1.7549219533 9.2485711486
5453 1 24.6951 17.5951 31.807 12 11.0042954419 1.7831715939 8.4714258909
5454 1 26.4118 19.3706 31.7703 12 10.8544837168 1.7482565175 9.5316198613
5455 1 26.5306 17.6702 33.4596 12 11.1816204212 1.757988952 10.8250767366
5456 1 24.6913 19.4299 33.5265 12 10.9378007397 1.7619425981 10.1820312566
5457 1 28.3485 17.6888 31.7845 12 11.3180833097 1.7419176649 10.6684740469
5458 1 30.1285 19.6051 31.7536 12 10.856334639 1.7532273937 12.1133894096
5459 1 30.1555 17.7288 33.6542 12 11.0772619851 1.7465623607 13.2680529157
5460 1 28.3143 19.3812 33.5629 12 11.288388608 1.7644335154 12.0857617942
5461 1 31.7584 17.7322 31.6869 12 10.9053152702 1.7532273937 13.0103319727
5462 1 33.629 19.5114 31.7716 12 11.0666172579 1.77377455 14.5752462492
5463 1 33.5092 17.7083 33.4715 12 11.3604925354 1.7797842643 15.5098897082
5464 1 31.7798 19.4357 33.5532 12 11.110050534 1.7739077125 14.5135334711
5465 1 35.3489 17.7474 31.7666 12 10.9615035937 1.7779942469 15.7982824345
5466 1 37.1687 19.6614 31.832 12 11.073414234 1.7576161198 17.4629346907
5467 1 37.0663 17.7473 33.636 12 11.4757631278 1.7797126214 18.2935745427
5468 1 35.3196 19.4645 33.5589 12 11.4133604639 1.7797842643 16.9978585802
5469 1 38.82 17.657 31.8289 12 11.1227073482 1.764149146 18.7470034466
5470 1 40.6135 19.3848 31.8627 12 10.8737755293 1.7480725735 17.6468196069
5471 1 40.5942 17.7194 33.6659 12 11.0372005597 1.7641471587 18.5801077075
5472 1 38.8282 19.4783 33.5706 12 11.0114101003 1.764149146 19.7732120666
5473 1 42.4106 21.2118 31.8067 12 11.0812864237 1.7723676636 16.4103536147
5474 1 1.90791 23.0332 31.7651 12 11.0726448352 1.7714982029 15.3541057484
5475 1 1.83954 21.1294 33.4163 12 10.6712961375 1.7484263834 15.9747286327
5476 1 0.120769 22.9224 33.4907 12 11.4453636469 1.7734375384 17.714453715
5477 1 3.53593 21.1402 31.7756 12 10.7203181186 1.7459620207 13.6820316157
5478 1 5.28945 22.9552 31.8137 12 11.3832312963 1.7739116642 12.9233685585
5479 1 5.29402 21.1789 33.5495 12 11.1348917198 1.7752543431 13.8269652924
5480 1 3.44859 22.8291 33.5747 12 10.8397407156 1.7731817514 15.3657562904
5481 1 7.18158 21.2071 31.7692 12 11.1707316555 1.7828325875 11.3269157847
5482 1 8.84306 22.9839 31.7787 12 10.8229960788 1.7736443628 10.8735748411
5483 1 8.9188 21.1755 33.5584 12 10.9691119649 1.7849296664 11.9904167503
5484 1 7.19047 22.888 33.5441 12 11.0928270603 1.7752543431 13.111728112
5485 1 10.5955 21.2581 31.7793 12 10.960738629 1.7559380039 9.6385930445
5486 1 12.413 22.8989 31.8134 12 10.8438691843 1.755280345 9.1436672059
5487 1 12.337 21.2301 33.5027 12 11.0297239057 1.7529966949 10.1880235068
5488 1 10.5673 22.963 33.5176 12 11.0542232335 1.7542751286 11.4388900034
5489 1 14.1517 21.1729 31.8198 12 11.0610308626 1.7654937319 7.9902813604
5490 1 15.9225 22.9807 31.7622 12 11.359664193 1.8076580967 8.0553562483
5491 1 15.935 21.2365 33.5029 12 10.9149475205 1.8075787487 9.2883447536
5492 1 14.0506 23.0591 33.6176 12 11.0969802374 1.8076580967 10.2047822765
5493 1 17.6894 21.2757 31.7595 12 10.9124101655 1.7597865922 7.4172070913
5494 1 19.4439 23.0687 31.8102 12 11.1428886655 1.7787758707 8.1154881972
5495 1 19.4342 21.1831 33.4935 12 11.2787804287 1.7974169871 9.2010899918
5496 1 17.6683 22.9726 33.5967 12 11.3276718375 1.8075100689 9.5881669138
5497 1 21.1452 21.1338 31.8195 12 10.9615352769 1.7663776225 7.7857827759
5498 1 22.9709 22.9687 31.7315 12 11.085232566 1.7662208757 8.9328021002
5499 1 22.9812 21.2208 33.4813 12 10.8268464217 1.75670972 9.8665877197
5500 1 21.2815 22.933 33.5107 12 11.1671493917 1.7826410415 9.9746101882
5501 1 24.7374 21.1748 31.8455 12 11.1491761698 1.7570538318 9.1996694478
5502 1 26.3849 23.0751 31.8106 12 11.0398105871 1.7581474011 10.6749870314
5503 1 26.5132 21.1275 33.6204 12 11.5065834502 1.7715039634 11.4979698112
5504 1 24.6593 23.0349 33.5575 12 10.9782477275 1.7578531043 11.1578140002
5505 1 28.1536 21.1058 31.8385 12 11.3360915431 1.7701184881 11.0725115512
5506 1 30.0175 22.9766 31.878 12 11.2569019223 1.7605039711 12.7954322506
5507 1 30.0329 21.2542 33.5274 12 11.3139653283 1.7715039634 13.551195913
5508 1 28.2088 23.1327 33.5599 12 11.3509715432 1.7715039634 13.0019970991
5509 1 31.8253 21.3394 31.7462 12 11.2816562521 1.7542064618 13.5874326492
5510 1 33.5869 23.0823 31.7527 12 10.8505014685 1.7542064618 15.3603099608
5511 1 33.5863 21.3377 33.6096 12 11.1707798139 1.7739077125 16.0887766922
5512 1 31.7691 23.1123 33.6552 12 11.0301314367 1.7542064618 15.2240582879
5513 1 35.2944 21.3657 31.967 12 11.1144244213 1.7718383331 16.320018225
5514 1 37.154 23.0625 31.6761 12 11.213385424 1.7379424504 18.0829576152
5515 1 37.0787 21.3912 33.5318 12 11.2701728546 1.7568334844 18.6352980256
5516 1 35.216 23.1539 33.6925 12 10.9341377061 1.7437812385 17.7582042432
5517 1 38.921 21.2039 31.7659 12 11.0616955242 1.7490193224 19.1512351814
5518 1 40.6132 23.032 31.8792 12 11.4187651505 1.7847207819 18.2698441707
5519 1 40.7173 21.1794 33.5127 12 11.2269213742 1.7785142419 18.7243531955
5520 1 38.907 23.0445 33.5813 12 11.091704524 1.7596145691 20.4968074512
5521 1 42.3072 24.7841 31.7835 12 11.624153906 1.7734375384 17.3919019085
5522 1 1.88557 26.5248 31.8305 12 11.622345299 1.7649543575 16.5550239501
5523 1 1.89889 24.6694 33.6108 12 10.9937952703 1.7649543575 16.9396483705
5524 1 0.0709084 26.4258 33.6346 12 11.3508444091 1.7647710482 18.8545849518
5525 1 3.64772 24.7141 31.7593 12 10.9992101758 1.7475174004 14.5541527927
5526 1 5.37571 26.4733 31.7841 12 10.8007414183 1.7452767021 14.1795280688
5527 1 5.32133 24.7782 33.5419 12 11.2737099041 1.7486346765 14.7093473933
5528 1 3.64356 26.6588 33.509 12 10.8743543439 1.7469078274 16.4377143984
5529 1 7.09426 24.7936 31.8307 12 11.0337103504 1.7739116642 12.4646202774
5530 1 8.72287 26.5252 31.7798 12 10.8757795607 1.7463415274 12.452611968
5531 1 8.78991 24.696 33.6478 12 11.0998971628 1.751366212 13.0541265369
5532 1 7.09059 26.5869 33.5546 12 10.868600796 1.7710993724 14.5453098092
5533 1 10.5548 24.8382 31.7339 12 11.109261704 1.7542751286 10.7996697677
5534 1 12.2617 26.4464 31.8247 12 10.8612787982 1.7520147682 10.8699207291
5535 1 12.2853 24.6892 33.5658 12 11.0999812215 1.7535809353 11.3633736569
5536 1 10.5576 26.4595 33.6122 12 11.1540460225 1.7527194241 12.9485050559
5537 1 14.0502 24.6681 31.8335 12 10.8993157052 1.7513154689 9.3735933537
5538 1 15.8381 26.4173 31.8335 12 11.4258149295 1.770834092 9.8631675744
5539 1 15.792 24.8476 33.6388 12 11.165337715 1.8076580967 10.5055851204
5540 1 14.0766 26.4884 33.5202 12 11.4226619932 1.7694659402 11.6495560438
5541 1 17.7168 24.78 31.797 12 11.2557773928 1.7537747052 8.6889195811
5542 1 19.544 26.4807 31.8458 12 11.1398523035 1.7629516663 9.8926126295
5543 1 19.5605 24.7342 33.623 12 11.349001037 1.782971975 10.4286259776
5544 1 17.7239 26.4876 33.5625 12 11.1396567462 1.7649872197 11.1024195088
5545 1 21.2916 24.7509 31.6821 12 11.1944056621 1.7651055712 9.2379986407
5546 1 23.0287 26.5477 31.705 12 11.2719059346 1.7706885079 10.6773826243
5547 1 22.8756 24.7225 33.6947 12 11.2414815047 1.770094165 11.3294748829
5548 1 21.2478 26.6525 33.5764 12 11.2047567344 1.770094165 11.728452863
5549 1 24.6768 24.7124 31.7709 12 11.0552317741 1.7442895533 10.547183267
5550 1 26.5401 26.5367 31.9079 12 11.141968928 1.7777357053 12.4354304769
5551 1 26.43 24.7245 33.5835 12 10.5353871466 1.7508334642 12.7330363538
5552 1 24.7713 26.4289 33.5933 12 11.0647813613 1.770094165 12.7783464645
5553 1 28.1104 24.8413 31.7412 12 11.065418319 1.754632915 12.2699017333
5554 1 29.9878 26.4698 31.8484 12 10.8741014633 1.754632915 14.2217884918
5555 1 30.0825 24.7856 33.5927 12 10.8327352389 1.7529292081 14.662470212
5556 1 28.3031 26.5526 33.6036 12 10.9704669602 1.7455886465 14.5228918316
5557 1 31.7638 24.8371 31.8177 12 10.886909371 1.7542064618 14.6233735968
5558 1 33.5762 26.6597 31.6737 12 10.9203702851 1.7325445878 16.615534788
5559 1 33.5382 24.7404 33.5287 12 10.8736256968 1.7365974781 16.8752016943
5560 1 31.8234 26.5069 33.5155 12 11.0248643212 1.7600619713 16.4102614107
5561 1 35.3163 24.765 31.7926 12 10.9261494852 1.7437812385 17.2341258577
5562 1 37.0107 26.5139 31.7612 12 10.8567627168 1.7338874764 19.1295396439
5563 1 37.1068 24.7517 33.4999 12 11.2463093037 1.7612908427 19.5578548965
5564 1 35.1552 26.6139 33.5668 12 11.2505038541 1.7437812385 18.7672921862
5565 1 38.7946 24.8963 31.7481 12 10.9657871214 1.7612908427 19.9444270401
5566 1 40.6367 26.5545 31.852 12 11.1041846006 1.763370593 19.3147310658
5567 1 40.6211 24.7341 33.6047 12 11.2874789941 1.7612908427 19.7128273806
5568 1 38.9237 26.6007 33.5671 12 11.1211236325 1.7612908427 21.5601221596
5569 1 0.175787 28.294 31.8224 12 11.1881658677 1.7647710482 18.5871098058
5570 1 1.8844 29.9876 31.7593 12 10.9595906936 1.7654374913 18.2259258491
5571 1 1.92073 28.325 33.5924 12 10.78657192 1.7578665567 18.3447081944
5572 1 0.0803924 30.0204 33.5751 12 10.9896424077 1.77274766 20.3962187081
5573 1 3.70601 28.3628 31.8052 12 11.1787926914 1.7426305253 16.1916067363
5574 1 5.49229 30.1223 31.7678 12 10.9576425461 1.744691337 16.1731856289
5575 1 5.34957 28.3836 33.6278 12 10.8744980142 1.7712223634 16.3753551235
5576 1 3.58547 30.0922 33.5836 12 10.8959790821 1.7273923323 18.2572381756
5577 1 7.0099 28.2008 31.7424 12 10.8556744184 1.7712223634 14.2045430518
5578 1 8.78918 30.0406 31.7592 12 11.2253112426 1.7585434688 14.4079911338
5579 1 8.88695 28.3291 33.4942 12 10.9906023926 1.7712223634 14.5211372351
5580 1 7.06602 30.1344 33.6813 12 10.9372868948 1.7712223634 16.533176267
5581 1 10.5137 28.3205 31.7891 12 10.8849201741 1.7463415274 12.5630340961
5582 1 12.3125 30.0586 31.7787 12 10.9284835363 1.7790567003 12.978178295
5583 1 12.215 28.174 33.5068 12 11.2236476708 1.7694659402 13.1139235614
5584 1 10.5829 30.0516 33.5648 12 10.731781583 1.7506270453 14.793781533
5585 1 14.0716 28.2827 31.7169 12 11.4361072545 1.7707789778 11.3236051288
5586 1 15.9182 30.0374 31.7592 12 10.9637027943 1.7679988123 12.0263640485
5587 1 15.9199 28.3224 33.5197 12 11.2920168126 1.7707789778 12.3367577157
5588 1 14.0674 30.0224 33.4908 12 11.0980514574 1.7694659402 13.7270802324
5589 1 17.6996 28.2737 31.9083 12 11.19691531 1.7687614341 11.0097122825
5590 1 19.2438 30.0677 31.8285 12 10.9977531317 1.7634664841 12.0913614479
5591 1 19.481 28.3641 33.6183 12 10.9534442165 1.7623917995 12.4245505047
5592 1 17.7039 30.0773 33.6155 12 10.5922701282 1.7399346207 13.422621354
5593 1 21.214 28.2518 31.6914 12 11.2715342682 1.7704537571 11.1190776483
5594 1 22.9434 30.0857 31.7683 12 11.4778983016 1.7706885079 12.8025253984
5595 1 22.9833 28.3253 33.555 12 11.0066407051 1.7706885079 13.0423328803
5596 1 21.2196 30.0823 33.539 12 10.8118816051 1.7521908617 13.6743218325
5597 1 24.7817 28.1936 31.7835 12 11.1955916094 1.7706885079 12.3280687412
5598 1 26.3709 30.0749 31.8338 12 10.8188486015 1.7277619849 14.2303171131
5599 1 26.4058 28.3048 33.6704 12 10.9472828625 1.7406194638 14.4997099287
5600 1 24.7187 29.9678 33.6611 12 10.974624219 1.7736884059 14.6416497392
5601 1 28.1968 28.3369 31.8198 12 10.84186801 1.7401213686 14.1825722882
5602 1 29.8738 30.0619 31.7607 12 10.6062109407 1.7540723412 15.9349889859
5603 1 29.9711 28.3196 33.4426 12 10.8004888988 1.7600619713 16.1916925801
5604 1 28.1388 30.1564 33.4431 12 10.7480285327 1.7540723412 16.1994321698
5605 1 31.6497 28.2988 31.7134 12 10.7201242328 1.7590592949 16.0577440235
5606 1 33.4974 30.1495 31.7587 12 11.1568733929 1.7366346324 18.1654941965
5607 1 33.4864 28.3398 33.4714 12 11.2275786609 1.7769034566 18.317903081
5608 1 31.654 30.0595 33.51 12 11.0988618393 1.76695916 18.0570727068
5609 1 35.364 28.3973 31.6882 12 10.6628753611 1.7267034102 18.67007994
5610 1 37.0258 30.0627 31.688 12 10.9713955525 1.7731906326 20.6089140129
5611 1 37.069 28.3035 33.4087 12 11.1821257957 1.7425530583 20.7953289208
5612 1 35.2374 29.975 33.6243 12 11.0769172111 1.7379519641 20.3332289989
5613 1 38.8688 28.2848 31.6883 12 11.045364753 1.7731906326 21.2157913382
5614 1 40.6095 29.9543 31.7852 12 11.2458126418 1.7728062468 20.8257359428
5615 1 40.8062 28.2729 33.5198 12 11.2776506616 1.7730549024 20.7612125715
5616 1 38.86 30.0729 33.5332 12 11.4228268766 1.7731906326 22.9243287596
5617 1 0.0305464 31.6985 31.8822 12 11.2728213278 1.7646590148 20.4397885096
5618 1 1.75501 33.5109 31.8037 12 11.2017119978 1.7750459112 20.3107213765
5619 1 1.80265 31.7133 33.6185 12 11.1042677804 1.7716069152 20.252334572
5620 1 42.3158 33.4665 33.6777 12 10.9676352205 1.7750459112 22.4438576813
5621 1 3.63872 31.8071 31.7568 12 11.2131983654 1.7654374913 18.1850636748
5622 1 5.38799 33.5979 31.9086 12 11.3466892726 1.7679846847 18.4858273566
5623 1 5.38472 31.7957 33.5366 12 11.1172118402 1.7669739353 18.3081875168
5624 1 3.47137 33.4776 33.5926 12 11.3962536965 1.7745962748 20.3655362506
5625 1 7.1267 31.8009 31.7617 12 11.1635215189 1.7734787532 16.368370814
5626 1 9.00214 33.4678 31.6785 12 11.5041452604 1.7734787532 16.6057883827
5627 1 8.8321 31.8227 33.5915 12 11.1727669609 1.750968034 16.6396262902
5628 1 7.06808 33.5908 33.7079 12 11.1835668257 1.7734787532 18.6904618417
5629 1 10.7436 31.7367 31.7787 12 10.8630735167 1.7287095918 14.6891201219
5630 1 12.3903 33.6042 31.7356 12 10.8214746515 1.7464021215 15.3232247736
5631 1 12.3174 31.8695 33.5714 12 10.7312505941 1.753110989 15.3879688943
5632 1 10.6347 33.4504 33.5982 12 11.1442151129 1.764323828 17.0263860231
5633 1 14.1219 31.742 31.7998 12 11.1143161464 1.753110989 13.5337521567
5634 1 15.87 33.5687 31.8785 12 10.824241552 1.7585311594 14.5768974541
5635 1 15.906 31.7604 33.5434 12 10.7637602637 1.7508197781 14.4802166752
5636 1 14.1289 33.5367 33.5746 12 10.9569997917 1.753110989 15.984344482
5637 1 17.5725 31.8244 31.736 12 10.7718222526 1.7464452644 13.090890942
5638 1 19.4121 33.5182 31.759 12 11.247656855 1.7795403095 14.4707191549
5639 1 19.4436 31.6559 33.6015 12 11.0028883156 1.7795403095 14.4753001364
5640 1 17.5706 33.5409 33.5889 12 11.1293805113 1.7769911626 15.6148183786
5641 1 21.1197 31.8804 31.8779 12 11.0860960355 1.7682879582 13.6822005311
5642 1 23.0371 33.6043 31.8523 12 11.1822006519 1.7682879582 15.4455942874
5643 1 22.9056 31.8279 33.5433 12 11.0242468749 1.7736884059 15.1849525363
5644 1 21.2981 33.5635 33.5714 12 11.2649749164 1.7795403095 16.047717456
5645 1 24.7218 31.8333 31.8423 12 11.0310890643 1.7691893299 14.6822849507
5646 1 26.4525 33.69 31.8608 12 10.9409964471 1.7491758402 16.7392369286
5647 1 26.4377 31.8011 33.5361 12 10.9949740283 1.7736884059 16.401450624
5648 1 24.6828 33.5863 33.6825 12 10.928332848 1.7719814499 17.0315335693
5649 1 28.1957 31.9411 31.7992 12 10.7473394611 1.7589796616 16.2545155998
5650 1 29.937 33.5708 31.7532 12 10.7411408539 1.7510522598 18.1078473605
5651 1 29.9303 31.8774 33.59 12 10.8684876332 1.76695916 18.1730480216
5652 1 28.2703 33.67 33.4565 12 10.889833787 1.7657325461 18.4157071354
5653 1 31.6528 31.8479 31.7519 12 10.974714298 1.76695916 17.921470921
5654 1 33.4368 33.5209 31.7862 12 11.091541436 1.7787392018 19.9851505289
5655 1 33.4615 31.8076 33.5565 12 10.981285875 1.76695916 20.0324341217
5656 1 31.6716 33.6073 33.5382 12 11.1615553023 1.76688144 20.0383702379
5657 1 35.227 31.7993 31.8292 12 11.1048111232 1.7625925764 20.1958865776
5658 1 37.1 33.6542 31.7886 12 11.0549854823 1.7657200316 22.4576515138
5659 1 37.1066 31.7407 33.4683 12 11.1567594116 1.7663710856 22.339005455
5660 1 35.2508 33.4483 33.493 12 10.9785978286 1.7663710856 21.9764183855
5661 1 38.799 31.8278 31.7215 12 11.2656430292 1.7731906326 22.7554403226
5662 1 40.6359 33.4336 31.7141 12 11.2076296361 1.78822793 22.5157244994
5663 1 40.5659 31.8024 33.4935 12 11.2090502958 1.7730549024 22.6058279641
5664 1 38.8394 33.6075 33.5634 12 11.066568686 1.7635970397 24.5123022493
5665 1 42.4104 35.1841 31.8879 12 11.2940486849 1.7907625927 22.4437703605
5666 1 1.78144 37.1326 31.8085 12 11.3899003251 1.7677504895 22.6537531664
5667 1 1.71008 35.4468 33.6232 12 10.9906352344 1.7750459112 22.5233409287
5668 1 0.00116817 37.1656 33.5444 12 11.0918714831 1.7632899709 24.518799796
5669 1 3.51053 35.3035 32.0284 12 11.3384127235 1.766039702 20.6118418345
5670 1 5.27909 37.0424 31.9498 12 11.4557831059 1.7959884075 20.9792448733
5671 1 5.39976 35.3498 33.6984 12 10.8269573494 1.766120076 20.6705221465
5672 1 3.466 37.1434 33.6575 12 10.8153012337 1.7442960245 22.7869027227
5673 1 7.08293 35.3199 31.7968 12 11.2573404783 1.7959884075 18.8569001088
5674 1 8.88437 37.0129 31.8494 12 11.0068223712 1.7957818935 19.2961606437
5675 1 8.85469 35.2612 33.5875 12 11.2474491761 1.764323828 18.9867251088
5676 1 7.15196 37.0843 33.6625 12 11.020839167 1.7959884075 21.082977677
5677 1 10.6742 35.2505 31.7068 12 11.0375874303 1.7798495023 17.1545142352
5678 1 12.2407 37.0994 31.7817 12 11.222757794 1.7379638876 18.0787617817
5679 1 12.3726 35.2931 33.5896 12 11.2953153169 1.764323828 17.6879900274
5680 1 10.5678 37.0278 33.569 12 11.092789692 1.7631221996 19.5405376073
5681 1 14.1318 35.2552 31.828 12 10.9204431004 1.7475831868 16.1450763442
5682 1 15.8488 37.0604 31.7561 12 10.9956854706 1.7489639256 17.3071626297
5683 1 15.848 35.3357 33.6075 12 11.044510868 1.749178328 17.0310348647
5684 1 14.0016 37.1539 33.5412 12 11.3157277318 1.7514629342 18.6641041971
5685 1 17.6791 35.2578 31.857 12 11.0397970336 1.7721199876 15.7863662783
5686 1 19.3857 37.2181 31.8361 12 11.1567476014 1.7721199876 17.4846403317
5687 1 19.4409 35.301 33.5558 12 11.116412028 1.7760950688 16.979522005
5688 1 17.6267 37.0528 33.5429 12 10.9172279099 1.7461789455 18.2332778872
5689 1 21.2025 35.3402 31.8559 12 11.5584225302 1.7848404263 16.2550109122
5690 1 23.0311 37.1213 31.7688 12 10.9477267846 1.7613953633 18.0955718746
5691 1 23.0778 35.3729 33.6127 12 10.8187811331 1.7609937763 17.8260495593
5692 1 21.248 37.1629 33.4863 12 11.1553556506 1.7905797878 18.6462753508
5693 1 24.7548 35.3545 31.8701 12 11.0605383769 1.7795755316 17.3180948421
5694 1 26.4541 37.1802 31.6642 12 10.8469475824 1.7303991471 19.171198422
5695 1 26.4627 35.451 33.4364 12 10.695978796 1.7246014875 18.8922127531
5696 1 24.6865 37.1906 33.5497 12 10.8199464837 1.7554034939 19.6458300492
5697 1 28.1921 35.4662 31.7855 12 10.5941551913 1.7410171649 18.7110083079
5698 1 30.015 37.121 31.7246 12 10.6441359951 1.7384265256 20.6733610434
5699 1 30.0428 35.3607 33.5037 12 10.7567650296 1.7484090762 20.3832379699
5700 1 28.2487 37.0537 33.4221 12 10.5831276561 1.7526268608 20.781193842
5701 1 31.6627 35.3494 31.7439 12 11.0020889226 1.7510522598 20.1641773667
5702 1 33.6704 37.1029 31.7672 12 10.9420775353 1.7586971365 22.4567705948
5703 1 33.5663 35.2997 33.4669 12 11.2754443438 1.753435636 22.0568277505
5704 1 31.8654 37.0295 33.5968 12 11.1153389757 1.7726650026 22.4097322382
5705 1 35.3894 35.3605 31.8517 12 11.0262989646 1.756289446 22.3508717149
5706 1 37.1707 37.0394 31.7793 12 11.1031668356 1.7683568251 24.5103226664
5707 1 37.1454 35.2631 33.567 12 11.1410897154 1.7663710856 24.2455563063
5708 1 35.3683 37.1339 33.4942 12 10.9995386715 1.7645698464 24.2611485666
5709 1 38.8446 35.3185 31.7232 12 11.3242391449 1.7907625927 24.5839422946
5710 1 40.8004 37.1388 31.728 12 11.326614666 1.7907625927 24.605058882
5711 1 40.571 35.3127 33.5496 12 11.2454439892 1.7897522906 24.5125921219
5712 1 38.8854 37.0891 33.5642 12 11.1588898286 1.7731925892 26.4490922495
5713 1 42.3761 38.9802 31.7278 12 10.8928204666 1.7663151546 24.6446055672
5714 1 1.79632 40.6613 31.8282 12 11.2101971126 1.7677504895 22.5090033848
5715 1 1.84634 38.978 33.6142 12 11.0005635938 1.7677504895 24.5545714803
5716 1 42.3384 40.596 33.5257 12 11.1009718396 1.7466379872 24.4420430022
5717 1 3.65877 38.9131 31.9388 12 10.9867756336 1.7677504895 22.8878135212
5718 1 5.36842 40.5783 31.7443 12 10.8579568071 1.7551363803 20.7741488361
5719 1 5.31927 38.8673 33.6669 12 11.1123405559 1.7551363803 23.0375421565
5720 1 3.58922 40.715 33.5516 12 10.9086672284 1.7550067095 22.4872486372
5721 1 7.11133 38.9031 31.7116 12 11.3532797741 1.7959884075 21.1853184789
5722 1 8.79674 40.6998 31.6964 12 11.1678223999 1.7612732387 19.1824017107
5723 1 8.85561 38.8319 33.5552 12 11.2272415928 1.7612732387 21.5432666608
5724 1 7.10464 40.5406 33.6029 12 11.2359661311 1.7612121089 21.0753092621
5725 1 10.5111 38.9061 31.7835 12 11.0298422394 1.7431002579 20.0498989479
5726 1 12.2446 40.5031 31.8025 12 11.2708754208 1.7799578498 18.2651751392
5727 1 12.2505 38.8929 33.6013 12 10.9284442752 1.7515095574 20.4753483093
5728 1 10.6167 40.6484 33.6423 12 11.0413677702 1.7612732387 19.7259191631
5729 1 14.1156 38.9155 31.8643 12 11.0397795447 1.7538410187 19.1427543491
5730 1 15.9317 40.544 31.6076 12 10.757742868 1.7801119492 17.3883065285
5731 1 15.8238 38.8236 33.5043 12 11.0184378675 1.7801119492 19.73154726
5732 1 14.1118 40.5888 33.5251 12 10.8730262747 1.7795029231 18.7387282832
5733 1 17.6186 38.8769 31.7892 12 10.8652726434 1.7456742956 18.7920438762
5734 1 19.4081 40.6254 31.8431 12 10.964019963 1.7756074261 17.4555063506
5735 1 19.3879 38.8601 33.4522 12 10.8997251493 1.790599862 19.7328226104
5736 1 17.6861 40.732 33.4588 12 10.9640125366 1.7801119492 18.2475356552
5737 1 21.2306 38.9905 31.7118 12 11.1859473418 1.790599862 19.0050992053
5738 1 23.0286 40.6973 31.6561 12 11.1897990005 1.7400686531 17.9057999668
5739 1 22.9629 39.0061 33.5921 12 11.1369935583 1.790599862 20.3560724407
5740 1 21.1948 40.7442 33.5219 12 11.2277623631 1.790599862 18.6172646478
5741 1 24.6625 38.8311 31.8281 12 10.8225514908 1.7421944731 19.8748001418
5742 1 26.4255 40.5849 31.8129 12 10.9666497648 1.7857120749 19.0453028873
5743 1 26.4135 38.8686 33.5456 12 10.9930587064 1.758333224 21.3047857212
5744 1 24.7517 40.6808 33.5144 12 10.853172789 1.7393274747 19.4414791114
5745 1 28.2091 38.8047 31.7627 12 10.988978702 1.7846258146 21.0673059701
5746 1 29.9913 40.6491 31.7062 12 11.4443267441 1.7857120749 20.5162397799
5747 1 29.983 38.7647 33.4285 12 11.443176557 1.7993317193 22.7297084831
5748 1 28.0567 40.662 33.5747 12 11.5210319593 1.7857120749 20.6335343075
5749 1 31.8164 38.8141 31.7425 12 11.0968358163 1.7726650026 22.7675357143
5750 1 33.5281 40.6644 31.8029 12 10.9084386414 1.754640697 22.5297510676
5751 1 33.5979 38.8735 33.5072 12 11.001656535 1.7722565558 24.5013824293
5752 1 31.7331 40.5672 33.5987 12 11.1520287058 1.7726650026 22.485953806
5753 1 35.4527 38.8625 31.7356 12 10.8526465039 1.7646869521 24.676294628
5754 1 37.0886 40.593 31.8559 12 10.9594806101 1.7835305827 24.7235323698
5755 1 37.1288 38.836 33.5864 12 10.9857012823 1.784265807 26.4494597641
5756 1 35.2674 40.7052 33.4943 12 11.0741626913 1.784265807 24.3357380282
5757 1 38.9358 38.8498 31.7265 12 11.2064305367 1.7731925892 26.8020496415
5758 1 40.6934 40.6279 31.657 12 10.6552898999 1.7379474783 24.5196115031
5759 1 40.6627 38.8224 33.5145 12 10.8722482108 1.7571251028 26.5552286465
5760 1 38.9665 40.5394 33.5992 12 11.2301824231 1.782228609 26.575155377
5761 1 0.0631192 42.2888 35.4168 12 11.0377757501 1.7530517122 24.3848339631
5762 1 1.85132 1.7375 35.3287 12 10.8293703039 1.7586449695 22.2879708684
5763 1 1.81728 0.0776781 37.1999 12 10.8869034072 1.7482906189 24.4497855932
5764 1 -0.0156065 1.66858 36.9649 12 10.8602776624 1.7561679615 24.3683680412
5765 1 3.54828 42.3632 35.2458 12 10.887784459 1.75657358 22.4456064967
5766 1 5.36223 1.67183 35.2683 12 11.3720708985 1.7958422281 20.5938838443
5767 1 5.23045 42.3976 37.1651 12 11.6103808962 1.7932802105 22.927962962
5768 1 3.54986 1.86086 37.0084 12 10.9992724903 1.7614811121 22.441872029
5769 1 7.06385 0.0124265 35.3473 12 11.2022955943 1.7930277388 20.9560123942
5770 1 8.79195 1.73485 35.2318 12 10.8827319841 1.7502547542 19.0565940646
5771 1 8.82719 42.3197 37.1103 12 11.1353641449 1.7922885148 21.487188134
5772 1 7.14695 1.70749 37.1755 12 11.4047486885 1.7932802105 21.0395461926
5773 1 10.5869 42.4136 35.2844 12 10.9356927797 1.760579576 19.572094724
5774 1 12.4204 1.69305 35.2965 12 10.828809646 1.7570449602 17.9197606612
5775 1 12.4009 42.4029 37.0667 12 11.2644504691 1.7805233931 20.2862408395
5776 1 10.491 1.67282 37.0617 12 11.1537033572 1.7602293692 19.784050566
5777 1 14.1973 -0.0109565 35.2416 12 10.9204097156 1.7607758246 18.5490792419
5778 1 15.8168 1.71524 35.2748 12 10.5396976255 1.7531190607 17.207336078
5779 1 15.8918 42.4092 37.0882 12 10.9210245593 1.7525967206 19.6856091526
5780 1 14.054 1.73954 37.0236 12 10.8794668973 1.7531190607 18.8312348154
5781 1 17.5435 0.0642497 35.3026 12 10.8519307996 1.7699434544 18.2170968038
5782 1 19.3453 1.77492 35.25 12 11.1187728367 1.7696567111 17.1355033053
5783 1 19.464 0.0453905 37.1053 12 11.0257989083 1.7699434544 19.6665193933
5784 1 17.6109 1.72135 37.1076 12 10.9497776137 1.7645821673 18.5626097776
5785 1 21.2083 0.0320604 35.2487 12 10.7788204535 1.7671516506 18.5431116416
5786 1 22.9327 1.74479 35.2586 12 10.7998089405 1.768835999 17.7734064029
5787 1 22.9803 0.0701913 37.0111 12 10.8845369635 1.7606879286 20.1501274124
5788 1 21.1577 1.74945 37.0006 12 11.0563179591 1.7628346994 18.7437091004
5789 1 24.6523 42.3649 35.3561 12 10.7176061388 1.7552785543 19.4809963687
5790 1 26.5279 1.75255 35.3603 12 10.5912243531 1.7552785543 18.9369614945
5791 1 26.4756 0.0202744 37.0651 12 10.8117693602 1.7727065591 21.1768141475
5792 1 24.7836 1.70047 37.0967 12 11.0218431811 1.7540213134 19.5943897373
5793 1 28.1913 0.0140592 35.3085 12 10.9820693544 1.7719348854 20.6396389624
5794 1 30.0575 1.74502 35.3967 12 10.9680439135 1.7424284927 20.5808839776
5795 1 30.0159 42.3819 37.0912 12 11.2243623017 1.7727065591 22.6845332095
5796 1 28.2193 1.74744 37.1284 12 10.8180591132 1.7711469113 20.8472020671
5797 1 31.7844 -0.00552602 35.2154 12 10.8533098372 1.7433146065 22.3448738311
5798 1 33.4647 1.70563 35.3461 12 11.0161160821 1.7783290304 22.3678931968
5799 1 33.5391 42.3669 37.2053 12 11.0457012926 1.7783290304 24.5774819164
5800 1 31.6909 1.63986 37.0737 12 11.0848038242 1.7783290304 22.5805418967
5801 1 35.3052 42.3761 35.319 12 11.0574775715 1.7560534301 24.3543716997
5802 1 37.0115 1.66739 35.2224 12 11.0756175497 1.7790945986 24.4165701846
5803 1 36.9538 42.3964 37.0578 12 11.0749403265 1.7778659336 26.3470764809
5804 1 35.2685 1.67174 37.0227 12 11.095622261 1.7790945986 24.441015193
5805 1 38.8296 42.3523 35.3604 12 11.3897418865 1.7655527442 26.5554858746
5806 1 40.625 1.65679 35.207 12 11.0935213459 1.7655527442 24.4168955983
5807 1 40.7128 42.412 37.0805 12 11.1358428573 1.7609512553 26.3391135587
5808 1 38.8197 1.76728 37.0933 12 11.1529035386 1.7790945986 26.5965681487
5809 1 42.3822 3.41087 35.3476 12 11.0072539269 1.7526549187 22.4765890171
5810 1 1.66596 5.22644 35.2244 12 11.2364157239 1.7623351537 20.4090192996
5811 1 1.7642 3.34811 37.1461 12 10.9781961022 1.7623351537 22.5604103775
5812 1 42.3969 5.26442 36.9197 12 11.1816637761 1.764388258 22.4781588903
5813 1 3.5551 3.55915 35.2296 12 11.0848587036 1.7587033418 20.2873518502
5814 1 5.16403 5.22859 35.2657 12 10.8234880355 1.7562825746 18.5555043673
5815 1 5.3417 3.49149 37.0026 12 11.0980292869 1.7640150303 20.667939824
5816 1 3.48561 5.20805 37.0886 12 11.4027932999 1.7633190735 20.6399624789
5817 1 7.10745 3.43746 35.355 12 11.0684103813 1.75761005 18.8029488107
5818 1 8.74591 5.15055 35.2666 12 11.139162185 1.7607820931 17.0602047707
5819 1 8.89536 3.56842 37.0076 12 11.0282075572 1.7335130156 19.1460575265
5820 1 6.94801 5.33909 36.9855 12 11.0961662668 1.7405502889 18.9654173559
5821 1 10.6483 3.39476 35.3329 12 10.8664220862 1.7568309444 17.4169326469
5822 1 12.3593 5.24479 35.365 12 10.897347474 1.7717498303 15.869989447
5823 1 12.3034 3.37677 37.077 12 10.8624037158 1.7576039753 18.3034840466
5824 1 10.6828 5.14767 37.0612 12 10.8465574354 1.73538358 17.7323838768
5825 1 14.1953 3.47483 35.239 12 10.6967852654 1.7576039753 16.3924611213
5826 1 15.9261 5.30533 35.2699 12 10.7467016055 1.7733499575 15.1872717788
5827 1 15.8649 3.52271 36.9712 12 10.9752871815 1.7783827349 17.550436191
5828 1 14.1328 5.21895 36.9532 12 11.1082132227 1.7784473361 16.8672154282
5829 1 17.5565 3.55557 35.3607 12 10.9675508392 1.7664068439 16.0820104554
5830 1 19.4709 5.25668 35.2817 12 11.3891467348 1.7716014738 15.1490539658
5831 1 19.378 3.39475 37.1539 12 11.2608903809 1.7623686993 17.7296310621
5832 1 17.6736 5.37437 37.0414 12 11.2489831705 1.7784473361 16.6072909649
5833 1 21.2804 3.49008 35.3721 12 11.1582447037 1.791582729 16.4252673056
5834 1 23.0677 5.34527 35.3214 12 11.1812021936 1.7708688466 15.6458794003
5835 1 23.024 3.52157 37.0123 12 11.4696042757 1.7708688466 17.9972083213
5836 1 21.1188 5.21947 36.9998 12 11.3981770742 1.7697145641 16.7399581077
5837 1 24.846 3.5191 35.3258 12 11.0585096028 1.7708688466 17.2151790649
5838 1 26.488 5.33837 35.3067 12 10.6470926825 1.7565806175 16.8336348614
5839 1 26.6028 3.60008 37.1117 12 11.0490958522 1.7567620462 19.1327713105
5840 1 24.8327 5.29789 37.014 12 10.7653465769 1.7561010862 17.5531963975
5841 1 28.2232 3.39385 35.312 12 11.0197347929 1.7634743144 18.6775333374
5842 1 30.0482 5.10976 35.2833 12 11.1402000388 1.7645694506 18.6203797034
5843 1 29.9183 3.50343 37.2166 12 11.2099674645 1.7645694506 20.740153599
5844 1 28.278 5.35222 37.1013 12 11.1952372631 1.7640780396 18.9332635663
5845 1 31.791 3.41962 35.4053 12 11.055131603 1.7698483132 20.5576168463
5846 1 33.636 5.23672 35.3388 12 11.0240680998 1.7708655836 20.5687771497
5847 1 33.5921 3.5018 37.1999 12 11.1815478291 1.7782996533 22.6129941601
5848 1 31.854 5.26834 37.0515 12 11.1651538604 1.7645694506 20.6245951398
5849 1 35.3533 3.404 35.2056 12 11.2393087751 1.770432497 22.4865654833
5850 1 37.1113 5.22034 35.2245 12 11.1468258344 1.7450417364 22.795481206
5851 1 37.0948 3.56121 37.1703 12 11.1809093893 1.7790945986 24.6735273669
5852 1 35.3562 5.25462 37.0056 12 11.2146819717 1.7690627824 22.6327828783
5853 1 38.7906 3.45924 35.3453 12 11.1452136207 1.7655527442 24.8351730304
5854 1 40.5548 5.24149 35.3465 12 11.0048588678 1.7473645511 22.7606669348
5855 1 40.5645 3.41786 36.9571 12 11.1457167487 1.7714596988 24.5491966302
5856 1 38.8188 5.28175 36.9688 12 11.0504359814 1.7780166775 24.8718358049
5857 1 42.3966 7.13105 35.3003 12 11.0019628768 1.764388258 20.6457837713
5858 1 1.76712 8.73219 35.4758 12 10.9266326318 1.7909980415 18.951630695
5859 1 1.78413 6.97757 37.0125 12 10.9855655963 1.764388258 20.6887310657
5860 1 42.3553 8.78968 37.1077 12 10.8539398448 1.764088072 21.2258862965
5861 1 3.53495 7.03684 35.2875 12 10.8908939987 1.7527466489 18.4727358883
5862 1 5.24491 8.84701 35.3654 12 10.9619038804 1.7703125996 16.8108493089
5863 1 5.28242 7.10423 37.0951 12 11.257459499 1.7533068472 18.8628900522
5864 1 3.53016 8.77026 36.9784 12 10.9336966865 1.7858123207 18.9666245252
5865 1 7.03546 7.04574 35.2829 12 10.9671855354 1.770360325 16.7570909305
5866 1 8.82013 8.79963 35.2958 12 11.0742961554 1.7705759942 15.2459185408
5867 1 8.84755 6.89031 37.0194 12 11.1244723757 1.7590061618 17.5084879425
5868 1 7.14677 8.73733 37.1526 12 11.2305804772 1.770360325 17.4189628775
5869 1 10.5436 7.02088 35.3164 12 11.2778008071 1.7617572655 15.4554352561
5870 1 12.3661 8.85317 35.3921 12 10.8685077687 1.7576350541 14.1730027864
5871 1 12.3112 6.96151 37.1769 12 10.9450918293 1.7695646809 16.5286645201
5872 1 10.6157 8.80563 37.0527 12 11.1554453756 1.7568538858 16.1679203735
5873 1 13.9972 7.0685 35.3934 12 11.0705912296 1.7647382082 14.6167718652
5874 1 15.881 8.89311 35.3259 12 11.2942108369 1.7646789934 13.5230863058
5875 1 15.8298 7.08245 37.182 12 11.2650742253 1.7784473361 16.0084284438
5876 1 14.0745 8.72523 37.1455 12 10.8307027254 1.7555705885 15.4642542912
5877 1 17.6583 7.18527 35.3633 12 11.1324758657 1.7716014738 14.2762601114
5878 1 19.4341 8.86984 35.4755 12 10.9740419253 1.7892417491 13.5629506858
5879 1 19.4188 7.0786 37.1011 12 11.002104234 1.7712258511 15.820591564
5880 1 17.677 8.80281 37.169 12 10.9885429493 1.7419578382 15.062263027
5881 1 21.1929 7.03886 35.3674 12 11.1633809799 1.7716014738 14.4514740872
5882 1 22.9899 8.79504 35.397 12 10.7402241884 1.7512768652 14.0782428661
5883 1 23.0404 7.0254 37.0231 12 10.9792456896 1.7709799368 16.2687989063
5884 1 21.2058 8.81803 37.1268 12 10.7873248938 1.7709799368 15.1476611775
5885 1 24.74 7.08816 35.3118 12 10.5921304939 1.7596451854 15.2998786039
5886 1 26.543 8.75143 35.2433 12 10.8566601788 1.7507006428 15.125795274
5887 1 26.466 7.07261 36.9926 12 10.8762556973 1.7570224946 17.2890428545
5888 1 24.7635 8.84273 37.1061 12 10.4643136376 1.7398041085 15.9033129645
5889 1 28.4021 6.92429 35.2968 12 10.9712192271 1.7602290796 16.8513535973
5890 1 30.1096 8.77736 35.3377 12 10.9950424093 1.7603795093 16.8096693904
5891 1 30.1749 7.01236 37.1036 12 10.9592014736 1.7645694506 18.938595054
5892 1 28.3346 8.74533 37.1073 12 10.9980435249 1.7507006428 17.2986807349
5893 1 31.8371 6.96166 35.2397 12 11.0333161144 1.7480975596 18.555736028
5894 1 33.6026 8.82377 35.32 12 11.1678567827 1.7609832516 18.8904629233
5895 1 33.7096 6.98983 36.9322 12 11.1335069219 1.7517538109 20.7664672988
5896 1 31.8986 8.7435 36.9954 12 11.3326326538 1.7499811344 19.014009222
5897 1 35.3383 7.04353 35.1975 12 11.0358564467 1.7609832516 20.7245182908
5898 1 37.1202 8.89017 35.3157 12 11.0507313481 1.7609832516 21.2562703073
5899 1 37.1079 7.0882 37.003 12 11.1516809011 1.7450178131 22.9948117065
5900 1 35.338 8.84047 37.1313 12 11.1762758721 1.7609832516 21.2181658072
5901 1 38.8203 7.08644 35.3148 12 11.1347855558 1.7505285342 23.2100432947
5902 1 40.5783 8.89752 35.3158 12 11.0176219853 1.7544702929 21.2906833217
5903 1 40.6335 7.08943 37.0468 12 11.1749686765 1.7629021402 22.9395583138
5904 1 38.7643 8.92366 37.0749 12 10.8943942957 1.7497420051 23.4536293186
5905 1 42.3442 10.5534 35.3437 12 11.3759785171 1.7936294662 19.5381325332
5906 1 1.70429 12.4829 35.2704 12 11.4841527578 1.7936294662 17.7623329923
5907 1 1.77675 10.5101 37.0786 12 11.2706064579 1.7936294662 19.5148044387
5908 1 -0.0255707 12.2751 37.0755 12 11.456742945 1.7658468525 20.2349544079
5909 1 3.49408 10.5995 35.1226 12 11.2083846228 1.7936294662 16.9939921429
5910 1 5.28543 12.3564 35.2649 12 11.0433414521 1.7687150369 15.6031102858
5911 1 5.32983 10.6376 37.1087 12 11.4768791662 1.7858123207 17.5214414519
5912 1 3.47523 12.3332 37.0421 12 11.244007722 1.7858123207 18.0428459506
5913 1 7.01335 10.58 35.2846 12 11.1164665113 1.770717213 15.2425942194
5914 1 8.86772 12.3477 35.3878 12 11.0355626484 1.770717213 14.0669971547
5915 1 8.7733 10.5122 37.1572 12 11.0760752598 1.7703501875 16.2069803841
5916 1 7.16475 12.3195 37.0873 12 11.0084233224 1.7539097383 16.2515461585
5917 1 10.5504 10.5356 35.3718 12 10.8138767631 1.770717213 14.0836469344
5918 1 12.3563 12.3629 35.482 12 10.7272858526 1.7511006972 13.1921353156
5919 1 12.333 10.5913 37.1546 12 10.8982940079 1.755647745 15.2476343292
5920 1 10.5907 12.3117 37.1553 12 10.7186397158 1.7568538858 15.1925739862
5921 1 14.0643 10.5722 35.4627 12 11.0113045183 1.7577588867 13.272746198
5922 1 15.7884 12.3882 35.3368 12 11.1124535428 1.7589734489 12.201716891
5923 1 15.8123 10.522 37.1587 12 11.0122514631 1.7589734489 14.5123959358
5924 1 14.1845 12.3901 37.1887 12 10.714943236 1.7585407783 14.2567950164
5925 1 17.6231 10.639 35.355 12 11.2878580521 1.7892417491 12.6258847937
5926 1 19.5874 12.4334 35.3807 12 11.1543997697 1.7892417491 11.8092413225
5927 1 19.424 10.4989 37.2538 12 11.0358906308 1.7876653212 14.3259612352
5928 1 17.702 12.1985 37.0345 12 11.1885654366 1.7589734489 13.5579153566
5929 1 21.2214 10.537 35.2622 12 11.0552338311 1.7880818748 12.67468682
5930 1 22.9738 12.2991 35.2673 12 11.1821980448 1.7741678192 12.244479175
5931 1 22.9686 10.4646 37.0767 12 10.6339363415 1.75565706 14.5882673206
5932 1 21.3567 12.3106 37.142 12 11.1671124733 1.7559171409 13.6116302474
5933 1 24.7156 10.4089 35.3603 12 10.75076891 1.7507155768 13.7215329354
5934 1 26.4542 12.2893 35.355 12 11.4273407906 1.7905914596 13.5275674109
5935 1 26.5039 10.4911 37.0239 12 10.7454742358 1.724342675 15.6713926285
5936 1 24.6778 12.1739 37.0505 12 10.9743936149 1.7463771776 14.3820456517
5937 1 28.3548 10.4894 35.4647 12 11.2621764169 1.7905914596 15.2635929751
5938 1 30.0588 12.3421 35.4237 12 11.4433684558 1.7890940105 15.4362743251
5939 1 30.1362 10.4569 37.0698 12 11.0415752452 1.7738944084 17.3911686743
5940 1 28.2891 12.3756 37.1104 12 11.1928846986 1.7905914596 15.7572542468
5941 1 31.8671 10.5636 35.3028 12 11.1488966415 1.7784747715 17.1211616047
5942 1 33.6094 12.3495 35.2831 12 11.1644706455 1.7791356961 17.6941543898
5943 1 33.6071 10.761 37.2058 12 11.0597512078 1.7495524456 19.4680880029
5944 1 31.8816 12.3433 37.1084 12 11.2525627112 1.7775277391 17.7725108887
5945 1 35.2937 10.644 35.3358 12 11.1899187627 1.7601742514 19.3689409674
5946 1 37.1137 12.3487 35.3258 12 10.9040356087 1.7591563045 20.0957159733
5947 1 36.9547 10.644 37.1123 12 10.8613400624 1.7486519239 21.6578423191
5948 1 35.3694 12.3821 37.1648 12 10.6589257921 1.751657442 20.1611234083
5949 1 38.8103 10.6452 35.2348 12 10.7992623508 1.7539845596 21.7808569941
5950 1 40.5852 12.4398 35.3427 12 11.0239341015 1.7658459212 20.3033891788
5951 1 40.5676 10.5092 37.1007 12 10.9612706656 1.754525668 21.9568006593
5952 1 38.8933 12.3491 37.0308 12 10.8848852518 1.7604930522 22.4829691037
5953 1 42.3823 14.1562 35.3929 12 11.2491067695 1.7769898316 18.648087923
5954 1 1.76062 15.8609 35.3275 12 11.2609613811 1.769972753 17.1083565064
5955 1 1.77412 14.1326 37.1495 12 11.1917748912 1.7634619726 18.730532008
5956 1 42.3481 15.9193 37.1823 12 11.1724169069 1.7636268087 19.6965526915
5957 1 3.54839 14.128 35.3582 12 11.062477366 1.7705679253 16.2798547717
5958 1 5.43283 15.8198 35.343 12 11.0162753625 1.7680621593 14.9257570091
5959 1 5.32023 14.0167 37.0654 12 11.0921291008 1.7789056041 16.7509852033
5960 1 3.71207 15.7694 37.0723 12 11.4312853479 1.7939882918 17.2990208471
5961 1 7.04463 14.0351 35.2695 12 11.0284936226 1.7538872708 14.3891725476
5962 1 8.82294 15.8436 35.3258 12 11.231085707 1.7635175475 13.4248503508
5963 1 8.91774 14.0178 37.1868 12 10.8888470369 1.7525292234 15.3659351025
5964 1 7.13632 15.8218 37.0732 12 11.2768392456 1.7568380971 15.680870113
5965 1 10.6821 14.1405 35.4307 12 10.9296639754 1.7635175475 13.1181127127
5966 1 12.3798 15.7915 35.3438 12 10.7401837351 1.7626192407 12.1458718164
5967 1 12.4527 13.9942 37.1533 12 10.494752241 1.7598680873 14.2002595106
5968 1 10.6309 15.8371 37.1643 12 11.356088837 1.7635175475 14.4191344806
5969 1 13.9913 14.083 35.3552 12 10.9169313447 1.7553276926 12.0908068532
5970 1 15.8691 15.8627 35.5623 12 11.211632302 1.7738598532 11.3574722964
5971 1 15.8582 14.0651 37.087 12 10.8057530035 1.757748451 13.2785335194
5972 1 14.0796 15.9293 37.1528 12 10.8511878246 1.7522119384 13.2612886247
5973 1 17.6534 14.1089 35.3639 12 11.0245768832 1.7472351602 11.3949705912
5974 1 19.4164 15.8532 35.3007 12 10.8506199791 1.7418515512 10.8664811526
5975 1 19.5084 14.1332 37.162 12 11.0912685916 1.7398595376 12.9887580235
5976 1 17.6617 15.9141 37.0802 12 10.7876290194 1.7398595376 12.674698936
5977 1 21.1891 14.1483 35.3604 12 10.8516644867 1.7722493247 11.353278632
5978 1 23.0103 15.8382 35.4217 12 11.3105561394 1.7741678192 11.4672233238
5979 1 23.0626 14.0124 37.1437 12 11.0619939814 1.773788204 13.4625827013
5980 1 21.1842 15.8889 37.0511 12 11.1914942903 1.7728021197 12.7086659855
5981 1 24.8537 14.0387 35.2977 12 11.1261441817 1.7741678192 12.261046052
5982 1 26.5284 15.8446 35.371 12 10.9232527628 1.757988952 12.6054990145
5983 1 26.5194 14.1707 37.2075 12 11.2778062018 1.7687329905 14.5431060405
5984 1 24.7987 15.92 36.983 12 10.8498601245 1.7389888455 13.4069680013
5985 1 28.3077 14.1523 35.3687 12 11.4064702481 1.7878913733 13.8409619334
5986 1 30.1361 15.8642 35.3137 12 10.980558696 1.7628895206 14.5768311062
5987 1 30.0739 14.2296 37.1616 12 11.2797384816 1.7714231772 16.2410710621
5988 1 28.3566 15.9386 37.1426 12 11.2063798167 1.7810030728 15.0141036677
5989 1 31.8771 14.1729 35.3242 12 11.3620051513 1.7791356961 16.042081918
5990 1 33.6118 15.9615 35.2898 12 11.2211233142 1.7729001833 16.9906603091
5991 1 33.6077 14.1663 37.1132 12 11.2743977119 1.7699701065 18.4812240773
5992 1 31.7716 15.9998 37.0809 12 10.9370749201 1.7683003441 16.9545064398
5993 1 35.3756 14.0692 35.3357 12 10.9774739306 1.7577652824 18.481630812
5994 1 36.984 15.8536 35.3581 12 11.2318964208 1.7759785116 19.4062880864
5995 1 37.1362 14.0892 37.0621 12 10.7944084754 1.757348967 20.9045251477
5996 1 35.34 15.9362 37.0721 12 10.9116356874 1.7538012949 19.4618698435
5997 1 38.912 14.113 35.3534 12 10.9200979113 1.7591563045 21.0894012675
5998 1 40.6209 15.9251 35.3511 12 10.7934135375 1.7512662858 19.6757926083
5999 1 40.5912 14.2243 37.1389 12 10.926304722 1.7636268087 21.0988349251
6000 1 38.9022 15.9427 37.0593 12 11.0160383604 1.7592833795 21.954516409
6001 1 0.0246418 17.5869 35.3465 12 11.1415643398 1.7998802232 18.2385507208
6002 1 1.87605 19.442 35.3307 12 11.1790404754 1.7998402903 17.0323102111
6003 1 1.78449 17.6281 37.057 12 11.5155671276 1.7939882918 18.3167674328
6004 1 0.106549 19.4697 37.1444 12 11.2233087803 1.7998802232 19.5547258769
6005 1 3.52589 17.6651 35.2271 12 11.1382994266 1.7939882918 15.8021270689
6006 1 5.30173 19.4336 35.2912 12 10.9938598425 1.7559955536 14.9430185668
6007 1 5.36459 17.7045 37.0154 12 11.152403253 1.7939882918 16.2930917392
6008 1 3.66451 19.3591 37.1747 12 11.1538344991 1.7930403314 17.3905432638
6009 1 7.18323 17.6413 35.3468 12 11.0315157443 1.7687939248 13.9785605465
6010 1 9.0069 19.428 35.2726 12 10.8649103691 1.7857914145 13.2310574865
6011 1 8.82129 17.7153 37.0636 12 11.0996047578 1.7631965852 14.8902267615
6012 1 7.06386 19.4265 37.1034 12 11.1598139655 1.7671586743 15.72853405
6013 1 10.6077 17.6624 35.3184 12 10.795548784 1.7635175475 12.5336930284
6014 1 12.3332 19.4659 35.32 12 11.1346464885 1.7529966949 11.7242439663
6015 1 12.3484 17.5875 37.0618 12 11.0420943956 1.7649764337 13.4978469056
6016 1 10.6239 19.3707 37.0694 12 10.8550237809 1.7741494257 14.0019543813
6017 1 14.1264 17.6812 35.3475 12 11.2077553197 1.757857433 11.3259989751
6018 1 15.9319 19.4245 35.2617 12 11.0963816131 1.7447642265 10.8615553388
6019 1 15.8858 17.6484 37.0999 12 10.7968816797 1.7447642265 12.6488274201
6020 1 14.1075 19.3872 37.1251 12 11.1487540771 1.7533341288 12.9853727579
6021 1 17.5815 17.6384 35.3332 12 11.0431374506 1.7588262996 10.754570059
6022 1 19.4134 19.4506 35.3112 12 11.2984805547 1.7964638254 10.8053103967
6023 1 19.3487 17.6618 36.9869 12 10.9878740521 1.7710836967 12.4614993125
6024 1 17.5893 19.4869 37.0582 12 10.8736233452 1.7447642265 12.5332188578
6025 1 21.2055 17.6951 35.2899 12 11.171239124 1.7719140375 10.9142413942
6026 1 22.9417 19.5344 35.2252 12 10.9403398841 1.7730814082 11.2336268293
6027 1 23.0143 17.714 37.0207 12 11.2642207324 1.7730814082 12.9008685603
6028 1 21.1875 19.4327 37.0936 12 11.3768115136 1.7730814082 12.6994297964
6029 1 24.7447 17.6678 35.2876 12 11.0739434556 1.7619425981 11.6771895012
6030 1 26.5073 19.408 35.3536 12 11.2369753495 1.7644335154 12.580662142
6031 1 26.4859 17.5923 37.107 12 11.0030867672 1.7548826572 14.0213558309
6032 1 24.73 19.4764 37.0582 12 10.8247548087 1.7730464068 13.4763304734
6033 1 28.2513 17.6459 35.3571 12 11.2114176595 1.76289201 13.3565855187
6034 1 30.0324 19.4368 35.3531 12 11.0531127867 1.7644335154 14.545981702
6035 1 30.0025 17.7157 37.132 12 10.8753308633 1.7465623607 15.816333372
6036 1 28.2564 19.4002 37.1218 12 10.9229972433 1.764135678 14.9556643886
6037 1 31.8233 17.7127 35.4049 12 10.8179177395 1.7444720068 15.6849360499
6038 1 33.4976 19.4594 35.3567 12 11.1324236501 1.7739077125 16.9789834862
6039 1 33.5228 17.6378 37.1383 12 10.8170153484 1.7466098045 18.1121197903
6040 1 31.8135 19.5287 37.0892 12 10.7188297123 1.7398570749 17.0168043133
6041 1 35.2784 17.7278 35.419 12 11.2247015643 1.7797842643 18.1388118852
6042 1 37.0843 19.6086 35.3423 12 11.178655657 1.7576161198 19.5016164113
6043 1 37.0644 17.7109 37.0972 12 10.9987056528 1.7531973763 20.587571886
6044 1 35.4244 19.5853 37.0559 12 11.0453586374 1.7621128168 19.5410091862
6045 1 38.8817 17.6949 35.3656 12 11.09897338 1.7640049172 20.7884180034
6046 1 40.6729 19.4034 35.3747 12 11.3037848469 1.7998802232 19.6523775086
6047 1 40.7204 17.7262 37.1788 12 11.1793469982 1.7597496385 20.7523000352
6048 1 38.7538 19.4729 37.0458 12 11.0749487387 1.7597496385 21.8577559028
6049 1 0.120906 21.2275 35.3568 12 11.5338928855 1.7988612737 18.5232514947
6050 1 1.83098 22.9427 35.3505 12 10.9811093554 1.7712234665 17.7315505637
6051 1 1.81891 21.1509 37.1885 12 11.3088612601 1.768893665 18.7270251775
6052 1 -0.0307895 22.9227 37.1515 12 11.2899610074 1.7793357035 20.2488319968
6053 1 3.47893 21.1843 35.3065 12 10.9668764479 1.7737423354 16.277543775
6054 1 5.42727 22.9225 35.2855 12 11.2026633146 1.7737423354 15.4731651262
6055 1 5.28622 21.2128 36.9752 12 11.1905315575 1.7466614103 16.6526993495
6056 1 3.73539 22.9344 37.1188 12 11.1507363335 1.7737423354 17.895121067
6057 1 7.24607 21.1384 35.3561 12 10.9475554489 1.7751680144 14.3100817216
6058 1 8.85162 22.9224 35.3647 12 10.7196258211 1.7468057191 13.8244483582
6059 1 8.85944 21.1565 37.0667 12 10.8804327573 1.7441477276 14.9155717749
6060 1 7.14631 22.8949 37.059 12 11.1069316104 1.7466614103 16.1272136517
6061 1 10.6225 21.1849 35.3244 12 10.8707694524 1.7467645958 12.549483488
6062 1 12.3334 22.8991 35.3778 12 11.2583079614 1.7468057191 12.2509334629
6063 1 12.3441 21.1492 37.1734 12 11.0468838706 1.7426290708 13.5662330681
6064 1 10.5295 22.7969 37.2546 12 11.0170570482 1.7787426035 14.5799247211
6065 1 14.1812 21.1336 35.251 12 11.2712100666 1.7426290708 11.2483802573
6066 1 15.9226 22.8694 35.3658 12 10.8990386684 1.8076580967 11.4087024945
6067 1 15.868 21.2156 37.114 12 10.6261167717 1.7445758491 12.8529871425
6068 1 14.1394 22.8633 37.0849 12 10.85768453 1.7434829097 13.3627099044
6069 1 17.6394 21.1995 35.3325 12 11.079275203 1.7974169871 10.9567979656
6070 1 19.3727 23.0883 35.4607 12 11.3251705513 1.7974169871 11.5309185956
6071 1 19.507 21.3018 37.083 12 11.2788921689 1.7974169871 12.7592432224
6072 1 17.6652 23.0433 37.0808 12 10.9232262704 1.7403758118 12.9767065393
6073 1 21.2731 21.2533 35.2446 12 11.3266564258 1.7971242195 11.1074017342
6074 1 23.0825 22.9605 35.3941 12 10.848858851 1.7510216469 12.1169689835
6075 1 23.0543 21.2536 37.0976 12 11.0136274496 1.7730814082 13.2652744989
6076 1 21.2665 22.9616 37.1593 12 11.2216946199 1.76983609 13.3687002039
6077 1 24.7261 21.1897 35.3534 12 11.0675789694 1.7638902624 12.2054408379
6078 1 26.4587 23.064 35.3052 12 11.1347480908 1.7638902624 13.452170092
6079 1 26.5114 21.2163 37.1371 12 11.0073140253 1.7638902624 14.5089544083
6080 1 24.7334 23.0749 37.1401 12 11.0803226214 1.7624124703 14.2564725607
6081 1 28.2774 21.2588 35.4123 12 11.3876863697 1.7715039634 13.9000334533
6082 1 29.9181 23.0517 35.3478 12 11.1020151661 1.7606804422 15.300257913
6083 1 30.0225 21.2493 37.1018 12 10.8859367706 1.7602707746 16.2134735865
6084 1 28.2133 23.0128 37.1379 12 10.9135914549 1.7670309091 15.7832080241
6085 1 31.791 21.2043 35.2429 12 11.0673275117 1.7606804422 15.9424392161
6086 1 33.5116 23.0489 35.4004 12 10.7356343851 1.7340768512 17.5974046462
6087 1 33.5648 21.251 37.0466 12 10.8489904905 1.7601253221 18.4347384916
6088 1 31.7861 22.977 37.0586 12 11.4084282683 1.7999348124 17.6758992987
6089 1 35.2333 21.3235 35.4107 12 11.1727346578 1.7631308483 18.4776921806
6090 1 37.0982 23.0765 35.3147 12 11.3326378099 1.7465400272 20.1404421146
6091 1 37.1642 21.313 37.2396 12 11.1013944697 1.7631308483 21.0928411275
6092 1 35.2358 23.1193 37.1304 12 11.1147795929 1.7659044468 19.9972094726
6093 1 38.9176 21.1807 35.2437 12 11.1107711249 1.7750700724 21.0529965202
6094 1 40.6106 22.9476 35.368 12 11.3595820536 1.7785142419 20.3175158582
6095 1 40.6199 21.1406 37.1036 12 11.0566198581 1.7771180981 21.062103109
6096 1 38.8701 22.9881 37.0099 12 10.9552949966 1.7528545005 22.49735216
6097 1 0.155181 24.6801 35.3389 12 11.332082093 1.7793357035 19.2965235106
6098 1 1.86487 26.3855 35.2405 12 10.9886643783 1.760943055 18.6062351847
6099 1 1.90741 24.6769 37.0836 12 11.0799867591 1.7730876013 19.3468594625
6100 1 0.134856 26.4914 37.1123 12 11.2424091525 1.7790075721 21.0337577605
6101 1 3.5917 24.7182 35.2395 12 10.9465699715 1.7737423354 16.9651253095
6102 1 5.35356 26.5037 35.3142 12 10.9227495853 1.7473145952 16.6757543294
6103 1 5.3207 24.7415 37.0292 12 11.2578449647 1.7698168847 17.4186221027
6104 1 3.64312 26.393 37.0701 12 11.0668899561 1.760943055 18.8629525348
6105 1 7.09658 24.6902 35.3424 12 10.9370246308 1.7464621983 15.1776479495
6106 1 8.81117 26.5168 35.3123 12 10.9126492927 1.7586905538 15.08745032
6107 1 8.77965 24.7085 37.114 12 11.184326373 1.7797870363 15.7825443289
6108 1 7.08109 26.5285 37.0701 12 11.0594070047 1.7653733118 17.2888194147
6109 1 10.5982 24.6706 35.4607 12 11.2701396778 1.7797870363 13.582428283
6110 1 12.4072 26.2908 35.4553 12 11.332381489 1.7551043408 13.6215400576
6111 1 12.3944 24.5589 37.2609 12 11.0049818384 1.7793293092 14.4414912477
6112 1 10.6069 26.4481 37.1056 12 11.2456244524 1.7797870363 15.6536418301
6113 1 14.2016 24.6265 35.4383 12 11.0091009747 1.7567716537 12.3759398122
6114 1 15.9396 26.5761 35.3088 12 11.0677510194 1.7632630539 12.7475922476
6115 1 15.92 24.7273 37.032 12 10.9029994459 1.7409223914 13.5218186923
6116 1 14.1206 26.5568 37.0151 12 10.9165484662 1.7567716537 14.5627704629
6117 1 17.6479 24.7809 35.2469 12 11.0995033244 1.7649872197 11.7596760904
6118 1 19.5096 26.6585 35.3164 12 11.0085990781 1.7649872197 12.7988780221
6119 1 19.3765 24.9635 37.1155 12 11.1958805747 1.7586315849 13.6641218839
6120 1 17.595 26.5907 37.0841 12 10.8178658306 1.7649872197 14.190141924
6121 1 21.2014 24.6648 35.3907 12 11.2616232968 1.7586315849 12.3177797284
6122 1 23.0768 26.5311 35.2872 12 11.0346824967 1.7675966466 13.5872971995
6123 1 22.9052 24.7905 37.1882 12 11.1233354252 1.7582388486 14.3436916827
6124 1 21.1945 26.6078 37.0227 12 11.0102452571 1.7586315849 14.5649264438
6125 1 24.7464 24.724 35.3766 12 10.7290467735 1.7510216469 13.3467424138
6126 1 26.5063 26.4726 35.3849 12 10.8829608611 1.7449352543 14.9249852989
6127 1 26.4755 24.7732 37.2008 12 10.9789074476 1.7671005441 15.5787749955
6128 1 24.6944 26.5136 37.1744 12 10.8308694812 1.754059998 15.6083334571
6129 1 28.1661 24.8087 35.3167 12 10.8658748416 1.7671005441 14.9497832305
6130 1 30.05 26.5279 35.3232 12 11.1094250384 1.7455886465 16.6245487472
6131 1 30.005 24.7375 37.098 12 11.223423214 1.7797356886 17.254693103
6132 1 28.2133 26.5508 37.0871 12 11.132211735 1.7671005441 17.0455626348
6133 1 31.7451 24.8343 35.3778 12 10.9033064004 1.7794563727 16.9464508298
6134 1 33.503 26.5051 35.3422 12 11.3088114749 1.7769034566 18.650154828
6135 1 33.5688 24.7982 37.2393 12 11.2829418638 1.7799344181 19.3986863643
6136 1 31.6947 26.5299 37.2062 12 11.174469988 1.7799344181 18.8802616592
6137 1 35.2647 24.9037 35.4222 12 11.2458192514 1.7440996496 19.3378098926
6138 1 37.0987 26.5338 35.2088 12 11.2454392895 1.7415292039 21.0873207274
6139 1 37.0939 24.7571 37.1814 12 11.2228273956 1.7528545005 21.7279721109
6140 1 35.4337 26.6721 37.1972 12 11.1212305458 1.7697691909 21.1891485525
6141 1 38.8013 24.7794 35.3205 12 10.8615603092 1.7607148426 21.8934292563
6142 1 40.6569 26.4814 35.3609 12 11.1883290514 1.7573770124 21.2323009526
6143 1 40.6062 24.7287 37.0301 12 11.2405622298 1.7793357035 21.8213130784
6144 1 38.8795 26.4876 37.0642 12 11.1335498455 1.7553493312 23.4682682226
6145 1 0.074789 28.2524 35.3304 12 11.0374935507 1.7578665567 20.5786180752
6146 1 1.80152 29.9373 35.3368 12 10.684259174 1.74308715 20.2735623012
6147 1 1.81206 28.3076 37.0591 12 10.941246776 1.760943055 20.6399507982
6148 1 42.3442 30.1226 37.0412 12 10.804829312 1.7455577288 22.5730768886
6149 1 3.52747 28.2457 35.3092 12 10.7227864761 1.758527795 18.425695037
6150 1 5.24377 29.9425 35.4339 12 10.6611860278 1.7588515413 18.4942118738
6151 1 5.38274 28.1764 37.087 12 10.8308269842 1.7588515413 18.7401144147
6152 1 3.54918 29.998 37.1167 12 10.6264171621 1.7588515413 20.521240787
6153 1 7.18035 28.3011 35.2748 12 10.7532437795 1.7710815094 16.6076279405
6154 1 8.8052 30.1555 35.3893 12 10.887754825 1.7827843881 16.8719130401
6155 1 8.89924 28.2227 37.0261 12 11.1591233972 1.787977737 17.1202111649
6156 1 7.07043 29.9349 37.0721 12 10.9563177895 1.7827843881 18.7812160478
6157 1 10.5686 28.2796 35.2869 12 11.0819527852 1.7511749315 15.1231357522
6158 1 12.2758 30.1012 35.2319 12 10.9257176828 1.7409027028 15.5277953595
6159 1 12.2954 28.1864 37.0926 12 10.9026976299 1.7409066738 15.9295220096
6160 1 10.6695 29.9681 37.0815 12 10.9488006301 1.7827311107 17.3652701779
6161 1 13.9992 28.3425 35.2808 12 11.3463080743 1.7693524872 14.0798039317
6162 1 15.8814 30.0955 35.2107 12 10.838787022 1.7455076145 14.7635863655
6163 1 15.8051 28.3644 36.9734 12 10.9933568625 1.7728330712 15.1019087219
6164 1 13.9955 30.007 37.0445 12 11.0425406577 1.7499102073 16.4197615676
6165 1 17.6657 28.3059 35.3226 12 10.8413239203 1.7649844576 13.5928680056
6166 1 19.5024 30.0468 35.4319 12 10.5072650572 1.7220951283 14.8835852163
6167 1 19.3792 28.2317 37.1107 12 10.6231584468 1.7229811959 15.1167823709
6168 1 17.6732 29.9714 37.0794 12 10.9756497676 1.7713810465 15.9992525157
6169 1 21.3182 28.3452 35.2923 12 10.6903693746 1.728405263 14.0417672422
6170 1 22.9502 30.0776 35.3291 12 10.7069426701 1.7521791147 15.4005600442
6171 1 23.0589 28.3591 37.0835 12 10.6603800152 1.754059998 15.9609343407
6172 1 21.181 30.0476 37.0509 12 10.7254156421 1.7724521944 16.3832376012
6173 1 24.675 28.2897 35.4174 12 10.5577732699 1.7372385555 15.0702475209
6174 1 26.4178 30.1079 35.3353 12 10.6471196946 1.7372385555 16.6242229607
6175 1 26.4468 28.2455 36.9754 12 10.5818663484 1.731415335 16.9565153969
6176 1 24.7988 30.0115 37.1514 12 10.5954227666 1.7560364684 17.3468624254
6177 1 28.2617 28.3848 35.204 12 11.0056957201 1.7455886465 16.553713922
6178 1 29.9837 30.0446 35.2633 12 10.9770178146 1.7540723412 18.3242084908
6179 1 30.0611 28.2596 37.1128 12 11.0101940903 1.7473337694 18.756403546
6180 1 28.2335 29.8618 37.0221 12 11.0191456297 1.7449999295 18.5819139168
6181 1 31.7083 28.3317 35.2782 12 11.3803123734 1.7762553066 18.3549323279
6182 1 33.5046 30.0513 35.3581 12 11.1384770462 1.7769034566 20.3108680119
6183 1 33.5327 28.3242 37.1179 12 11.3230815863 1.7738508183 20.6207517826
6184 1 31.7148 30.0679 37.2508 12 11.3176410112 1.7473337694 20.5784580573
6185 1 35.3264 28.1953 35.3513 12 11.0027374445 1.7769034566 20.5788908294
6186 1 37.0654 29.9332 35.3325 12 10.9813764982 1.7660647677 22.5427631841
6187 1 37.1234 28.3343 37.1295 12 10.8341373984 1.7615534649 22.9218275665
6188 1 35.2848 29.9484 37.0948 12 11.0499549172 1.7919199607 22.4243056113
6189 1 38.8426 28.2267 35.3013 12 11.1657109397 1.7688221558 23.078523557
6190 1 40.6834 29.946 35.3849 12 11.1732486077 1.7730549024 22.5907569999
6191 1 40.7296 28.1907 37.0507 12 10.8845812779 1.7402748928 22.814233096
6192 1 38.8237 29.929 37.0902 12 10.7521646097 1.7686632336 24.7540450731
6193 1 0.0144155 31.7609 35.3273 12 10.8369478356 1.7480742 22.3195571719
6194 1 1.63453 33.5821 35.341 12 11.0499969264 1.7750459112 22.4355845287
6195 1 1.77957 31.7836 37.0588 12 11.0567198175 1.7455577288 22.3488056108
6196 1 42.3858 33.5858 36.9938 12 11.0854153307 1.7696884993 24.3306012763
6197 1 3.61026 31.744 35.42 12 11.1369781471 1.7419168451 20.3312704125
6198 1 5.28576 33.6352 35.4326 12 10.9699407415 1.7669739353 20.6162734563
6199 1 5.30198 31.7008 37.1629 12 10.6229071016 1.760585849 20.597794412
6200 1 3.53731 33.5605 37.0633 12 11.2036009965 1.7871009072 22.4677926118
6201 1 7.00131 31.7172 35.4751 12 10.8543943801 1.7298435697 18.6351836053
6202 1 8.71256 33.4738 35.473 12 11.1682544019 1.7550169914 18.9616112929
6203 1 8.90072 31.7849 37.2644 12 11.3148131522 1.7825745136 19.0996970994
6204 1 6.91193 33.4723 37.1715 12 10.8265002315 1.7347994546 20.8309709606
6205 1 10.6037 31.7585 35.3033 12 10.8658337025 1.7550169914 17.0675781074
6206 1 12.4129 33.5147 35.4577 12 11.2750687725 1.7610598578 17.7497291119
6207 1 12.3427 31.8343 37.1458 12 11.1752248033 1.7526699243 18.0068761738
6208 1 10.5758 33.6058 37.1637 12 11.270760218 1.7550169914 19.5693410289
6209 1 14.1951 31.7667 35.3 12 11.0296359708 1.753110989 16.1354762451
6210 1 15.869 33.5775 35.2996 12 10.9423886794 1.7699845 16.9841918369
6211 1 15.837 31.8046 37.0704 12 10.9851273903 1.7502622228 17.27745275
6212 1 14.2152 33.6327 37.1436 12 10.8951842664 1.7502622228 18.6739986541
6213 1 17.7043 31.7014 35.3991 12 10.9489749589 1.7699845 15.8142853684
6214 1 19.4002 33.568 35.303 12 11.3526221795 1.7795403095 16.9866217432
6215 1 19.4407 31.7718 37.0416 12 11.0232798246 1.7945489667 17.2146458844
6216 1 17.5909 33.5142 37.14 12 11.0782515841 1.7699845 18.2894050488
6217 1 21.1963 31.7573 35.2804 12 10.8763822026 1.7733087662 16.0566997331
6218 1 22.9505 33.6373 35.5834 12 11.1253465526 1.7400724201 17.8432338566
6219 1 22.9789 31.7448 37.177 12 11.0750472768 1.7733087662 17.8166108883
6220 1 21.1339 33.6122 37.0247 12 11.1527704858 1.7733087662 18.5514974273
6221 1 24.6588 31.8686 35.455 12 11.1480486164 1.7736884059 17.0518726438
6222 1 26.5109 33.6837 35.2844 12 11.4158991137 1.7657325461 18.7645313108
6223 1 26.5563 31.8095 36.9445 12 11.1946905087 1.7562291252 18.7799021892
6224 1 24.8266 33.5775 37.2111 12 11.3952769972 1.7562291252 19.4311351338
6225 1 28.2338 31.8126 35.239 12 11.0494037114 1.7657325461 18.3483186483
6226 1 30.0312 33.5828 35.3746 12 11.0410296641 1.7657325461 20.3661697223
6227 1 29.9904 31.7429 37.0728 12 11.0668806056 1.7449999295 20.4330121354
6228 1 28.2461 33.6018 37.059 12 11.0211008498 1.7627520751 20.6053598457
6229 1 31.7549 31.7764 35.3657 12 11.084021075 1.7663491704 20.231447212
6230 1 33.6661 33.502 35.2588 12 11.2563677101 1.7817640221 22.1052982995
6231 1 33.6141 31.7717 37.0076 12 11.2715303906 1.7921721426 22.3119650301
6232 1 31.8131 33.5145 37.025 12 11.2617896631 1.781838212 22.2927768209
6233 1 35.3817 31.6859 35.2558 12 11.0325993346 1.7921196107 22.197231114
6234 1 37.0205 33.4336 35.3376 12 11.1740019226 1.7663710856 24.1404226545
6235 1 37.1957 31.7195 37.1114 12 11.1350686133 1.7921721426 24.4914139925
6236 1 35.4086 33.5662 37.1849 12 11.0873556884 1.7921721426 24.3520532283
6237 1 38.792 31.7579 35.3379 12 11.0378832341 1.7688221558 24.5653268245
6238 1 40.6007 33.5448 35.2087 12 10.8795707332 1.7696884993 24.3996221638
6239 1 40.5565 31.7161 36.9759 12 11.1521434667 1.7881608004 24.4303287509
6240 1 38.8526 33.4976 37.083 12 11.196002285 1.7696884993 26.3916511691
6241 1 42.3393 35.3421 35.2639 12 10.7204430661 1.7631033718 24.396143922
6242 1 1.75774 37.1385 35.2988 12 10.7517585399 1.7688855774 24.5353935733
6243 1 1.71451 35.4045 36.9534 12 11.0470268703 1.7688855774 24.4607853028
6244 1 42.3691 37.0634 37.0683 12 10.8781252597 1.7677121765 26.4636002327
6245 1 3.55945 35.311 35.2744 12 11.2847902584 1.7551760702 22.4498755955
6246 1 5.39923 37.1159 35.3153 12 11.1692418153 1.7687968903 22.7882109831
6247 1 5.45065 35.3602 37.2032 12 10.9870869222 1.7681875912 22.6787780062
6248 1 3.51333 37.1726 37.0447 12 11.3354190984 1.7688855774 24.6949333365
6249 1 7.08683 35.3079 35.3964 12 10.4862701904 1.7444900501 20.8165589477
6250 1 8.76845 36.9274 35.3901 12 10.8616906501 1.7393219624 21.2357595843
6251 1 8.76052 35.2352 37.1762 12 10.8577045778 1.7396613411 21.2215847284
6252 1 7.09929 37.1081 37.1865 12 10.9151383629 1.7680529488 23.1176620932
6253 1 10.558 35.2543 35.3145 12 11.3906418628 1.7611004609 19.372312584
6254 1 12.3388 37.0672 35.3957 12 11.0993128828 1.7611004609 20.1224011421
6255 1 12.4431 35.4693 37.2556 12 11.1362284481 1.7611004609 20.280704325
6256 1 10.5706 36.9863 37.1859 12 10.9196238185 1.7396613411 21.7633857176
6257 1 14.068 35.2984 35.4562 12 11.083434034 1.7611004609 18.5192660485
6258 1 15.8337 37.1662 35.2955 12 11.014927002 1.7514629342 19.5096895066
6259 1 15.9264 35.3206 37.0969 12 10.7624012818 1.749178328 19.4678434691
6260 1 14.268 37.1782 37.0521 12 11.0726422583 1.7506578117 20.9038113785
6261 1 17.6256 35.3396 35.284 12 11.0661830665 1.7671233254 18.0852246718
6262 1 19.4733 37.0634 35.1974 12 11.0943021469 1.7680220707 19.3773356004
6263 1 19.3121 35.3615 37.1053 12 11.1427123057 1.7680220707 19.5033994875
6264 1 17.5523 37.1963 36.9783 12 11.0854425151 1.7680220707 20.5966780942
6265 1 21.158 35.3855 35.3378 12 11.0882842186 1.7523357552 18.4999919566
6266 1 22.9055 37.0614 35.3145 12 10.956259479 1.753860007 20.0750686158
6267 1 22.9421 35.3876 37.2053 12 11.1142205588 1.7531019348 20.1722499186
6268 1 21.0996 37.0614 37.1437 12 11.1274606436 1.7678196065 20.9117969842
6269 1 24.6449 35.3239 35.2741 12 10.976429736 1.7554034939 19.2623380965
6270 1 26.5272 36.9987 35.2563 12 11.2588171155 1.778426298 21.0857055892
6271 1 26.5447 35.315 37.1989 12 11.1732942586 1.778426298 21.1032943639
6272 1 24.7024 37.0679 37.053 12 11.2465932746 1.778426298 21.6670756145
6273 1 28.417 35.3646 35.2456 12 10.9290751118 1.765045225 20.6715550469
6274 1 30.0661 37.0639 35.2646 12 10.8185732017 1.7983421264 22.5800195288
6275 1 30.0125 35.4234 37.0551 12 11.2219078361 1.7612054677 22.5348427365
6276 1 28.2685 37.0394 37.0977 12 11.0781760619 1.7783885105 22.8536608566
6277 1 31.9298 35.3367 35.3592 12 11.1859591406 1.7540524705 22.3503599424
6278 1 33.5934 37.2053 35.2757 12 11.1960633133 1.7579693512 24.3028768851
6279 1 33.5814 35.3334 37.0895 12 11.3002293564 1.7821088503 24.2545469154
6280 1 31.7425 37.161 36.9909 12 10.9743674401 1.7561622634 24.4177718191
6281 1 35.3578 35.2876 35.3248 12 11.6217306411 1.7494778544 24.1088837516
6282 1 37.0643 37.2055 35.2327 12 11.2089747312 1.7704626771 26.1948894434
6283 1 37.1315 35.326 37.105 12 11.1216462632 1.7389602385 26.2239102639
6284 1 35.417 37.0968 37.1403 12 11.3280802511 1.7579693512 26.2718906276
6285 1 38.8146 35.2989 35.4548 12 11.2302688505 1.7704626771 26.3376167764
6286 1 40.6074 37.0694 35.2957 12 11.0099270721 1.7703142171 26.4378658362
6287 1 40.6655 35.3221 37.0361 12 10.8906473009 1.7688153268 26.3638824692
6288 1 38.8289 37.1978 37.099 12 11.0964700744 1.7704626771 28.2740020935
6289 1 0.136976 38.8935 35.2529 12 10.9921372371 1.7632899709 26.345473501
6290 1 1.831 40.6682 35.3917 12 10.9009199652 1.7482906189 24.4165305539
6291 1 1.61147 38.928 37.2043 12 11.0220772057 1.7688855774 26.7300320694
6292 1 0.0179346 40.6367 37.1303 12 10.7639806052 1.7592140513 26.407314312
6293 1 3.54133 38.8857 35.4179 12 11.0334195066 1.7505232772 24.8306296217
6294 1 5.32361 40.6444 35.4077 12 11.1643566268 1.7618673883 22.8861276547
6295 1 5.2639 38.9263 37.127 12 11.1288040741 1.7687968903 25.1143429896
6296 1 3.48303 40.7131 37.1224 12 11.1764794656 1.7781136066 24.7141384752
6297 1 7.17055 38.9165 35.3513 12 11.0405674843 1.7618673883 23.2373974914
6298 1 8.85451 40.6609 35.3706 12 10.9819663559 1.7617223164 21.4339540339
6299 1 8.86959 38.735 37.1575 12 11.064676381 1.7419789976 23.5211407654
6300 1 7.12027 40.5508 37.1968 12 11.1998879352 1.7932802105 23.348987704
6301 1 10.5578 38.7055 35.4015 12 11.2126048911 1.7515187039 21.8471457413
6302 1 12.3943 40.6408 35.2787 12 11.1688798177 1.7802612075 20.2048920519
6303 1 12.3191 38.8215 37.1389 12 11.1151302181 1.7804864041 22.519763261
6304 1 10.5908 40.5724 37.0569 12 11.3698564398 1.7805233931 21.9723299616
6305 1 14.05 38.8959 35.3484 12 10.9778802862 1.7607758246 21.0973413709
6306 1 15.9369 40.6233 35.1704 12 10.9819014082 1.7798492561 19.5230894498
6307 1 15.9927 39.0632 36.9635 12 11.0556781762 1.7511853467 21.8742557904
6308 1 14.1502 40.6438 37.0904 12 11.1635246028 1.7805233931 21.0742742552
6309 1 17.7311 38.8657 35.171 12 11.1182355669 1.7480292555 20.6630636252
6310 1 19.4224 40.653 35.3207 12 11.4000583734 1.7699434544 19.607413884
6311 1 19.3598 38.8868 37.0776 12 11.3595791146 1.7680220707 21.9684575316
6312 1 17.6517 40.812 37.0441 12 10.983191178 1.7482924948 20.631635309
6313 1 21.2157 38.7995 35.3051 12 11.2316225982 1.7904773434 21.0055809078
6314 1 22.9085 40.6904 35.226 12 10.9135132208 1.7606879286 20.1190514611
6315 1 22.9527 38.8678 37.0363 12 11.0704984802 1.7599429371 22.5012353958
6316 1 21.2375 40.6922 36.9219 12 11.090961809 1.7606879286 20.9341001268
6317 1 24.7281 38.8608 35.4352 12 11.0560578866 1.7547547481 21.9818689767
6318 1 26.358 40.6713 35.3806 12 10.8446280043 1.7552785543 21.1322344492
6319 1 26.4365 38.8623 37.0301 12 11.0398404992 1.778426298 23.471665271
6320 1 24.744 40.6382 37.1797 12 10.8638516359 1.7606879286 21.9300459646
6321 1 28.2067 38.7125 35.2646 12 11.4523034158 1.7993317193 22.9818038489
6322 1 29.9324 40.693 35.2363 12 11.514726883 1.7993317193 22.4471587772
6323 1 30.0497 38.8895 37.0216 12 11.24984454 1.7993317193 24.7709817392
6324 1 28.1142 40.5732 37.0079 12 11.3412102671 1.7727065591 22.9099996049
6325 1 31.811 38.836 35.3084 12 10.8908642037 1.7992525948 24.5958651876
6326 1 33.5299 40.6588 35.2399 12 11.0250062574 1.7445218483 24.342580591
6327 1 33.5343 38.841 37.0783 12 11.1140117254 1.7579693512 26.396692638
6328 1 31.7971 40.6101 36.9955 12 11.3483765331 1.7800266649 24.5067994597
6329 1 35.3219 38.971 35.2601 12 11.0149710116 1.7646869521 26.3488649827
6330 1 37.0736 40.5876 35.4345 12 11.1829954125 1.784265807 26.4904001036
6331 1 37.0687 38.8962 37.1318 12 10.8850351381 1.7593134836 28.2611991483
6332 1 35.2431 40.5813 37.1366 12 11.0119916343 1.7532468902 26.4499288342
6333 1 38.9269 38.8336 35.2736 12 10.7686895612 1.770377197 28.3414676503
6334 1 40.6412 40.5876 35.3478 12 11.1306876038 1.7609512553 26.4026311342
6335 1 40.7356 38.8364 37.0067 12 11.0534911619 1.760058054 28.3320011665
6336 1 38.8382 40.5608 37.0717 12 11.2120050837 1.7609512553 28.464894271
6337 1 42.4006 42.3947 38.8343 12 10.8430814268 1.7561679615 26.4838270566
6338 1 1.69287 1.81771 38.84 12 10.8035923693 1.7595899452 24.551484281
6339 1 1.7564 -0.00350294 40.6452 12 10.8273535857 1.7595899452 26.5192940877
6340 1 42.3882 1.66726 40.5191 12 11.1117028367 1.7611119682 26.6288422082
6341 1 3.46229 0.177877 38.964 12 11.2386773869 1.7781136066 24.7834483921
6342 1 5.33741 1.76213 38.9106 12 11.2889923104 1.7757352464 22.9910705171
6343 1 5.21778 -0.0150339 40.7129 12 11.1979016891 1.7757352464 24.7849841555
6344 1 3.57661 1.84654 40.8217 12 11.0647579592 1.7595899452 24.4658553918
6345 1 7.07749 42.4246 39.0316 12 11.4659613663 1.7932802105 23.3701002593
6346 1 8.80644 1.8668 39.0645 12 11.2107512103 1.7401765351 21.6697709574
6347 1 8.81207 42.2772 40.7431 12 11.2314459352 1.7622060178 23.4793427406
6348 1 7.04552 1.84195 40.7074 12 11.1217790755 1.747326307 22.9649608721
6349 1 10.4899 -0.00631577 38.7943 12 11.4511330869 1.7608642672 22.0882913453
6350 1 12.3327 1.73697 38.8587 12 11.0477354869 1.763098853 20.6462141957
6351 1 12.3853 0.00740072 40.6946 12 11.061395773 1.763098853 22.3854125811
6352 1 10.5925 1.76479 40.6411 12 11.2208152944 1.763098853 21.8430678401
6353 1 14.068 0.0442616 38.9334 12 11.105574636 1.7618207557 21.3292193232
6354 1 15.8907 1.73897 38.7778 12 11.0593336879 1.7649573551 20.0132057971
6355 1 15.8933 0.082565 40.6573 12 11.1333938604 1.7678457843 21.8035204233
6356 1 14.1324 1.73076 40.6722 12 10.9656513193 1.8074773306 20.9635184718
6357 1 17.6653 -0.0388395 38.8665 12 10.8760633521 1.7619241242 21.0211208935
6358 1 19.4108 1.72165 38.84 12 11.115103897 1.7649573551 20.060526019
6359 1 19.4488 0.00322667 40.6596 12 11.0921933659 1.7776120146 21.854924063
6360 1 17.6735 1.80113 40.6431 12 11.0588567278 1.7649573551 20.6428739995
6361 1 21.2427 0.0126313 38.8267 12 11.0608592989 1.7587265862 21.2418056666
6362 1 22.9247 1.79826 38.8129 12 11.2318325908 1.7628346994 20.3971266907
6363 1 22.9013 42.4195 40.6317 12 10.962864592 1.7718389595 21.9425173456
6364 1 21.2252 1.77994 40.5943 12 11.0777872692 1.763133951 20.778050218
6365 1 24.7117 0.014827 38.8106 12 10.9482626284 1.7724766336 21.8813199877
6366 1 26.4647 1.826 38.8846 12 11.0704799738 1.7724766336 21.385216376
6367 1 26.439 0.0929848 40.6446 12 11.4579727558 1.7897797215 22.3971461489
6368 1 24.7036 1.80199 40.5444 12 11.1942267428 1.7715029822 21.0681034244
6369 1 28.2806 0.044115 38.8954 12 10.9161225748 1.7727065591 23.0984760001
6370 1 29.8691 1.7589 38.8756 12 10.8530249486 1.7467530525 22.8117350927
6371 1 29.979 42.3902 40.7268 12 11.106631236 1.787920831 23.4719960456
6372 1 28.3594 1.66968 40.6906 12 10.8703057121 1.7524985389 21.9129225618
6373 1 31.7688 42.3883 38.9454 12 11.3494319154 1.7880497338 24.7691201362
6374 1 33.5222 1.75974 38.9014 12 11.1464325201 1.7783290304 24.6338763474
6375 1 33.564 -0.0338415 40.7649 12 11.1812565009 1.7880497338 24.9866867384
6376 1 31.7666 1.84199 40.6583 12 11.26513316 1.7880497338 23.1523147449
6377 1 35.23 0.0114014 38.902 12 11.127605981 1.7744127889 26.5130515548
6378 1 37.095 1.72168 38.8206 12 11.2711634331 1.7779809664 26.5881819135
6379 1 37.0484 42.3471 40.6179 12 11.339998648 1.7744127889 26.970026724
6380 1 35.3482 1.82106 40.7485 12 11.0322541503 1.764059397 24.9177509399
6381 1 38.8309 42.3631 38.8155 12 11.2510762843 1.773080255 28.5236297098
6382 1 40.5187 1.67873 38.8765 12 11.2221964449 1.7752874755 26.6156354838
6383 1 40.633 0.00143529 40.6401 12 10.9427514523 1.7617884345 28.4133743108
6384 1 38.8783 1.75317 40.6313 12 11.1381401893 1.7642334382 27.158178731
6385 1 42.3315 3.4733 38.8067 12 11.2693990746 1.7747370524 24.5974445056
6386 1 1.62123 5.33451 38.747 12 11.3124352782 1.7633190735 22.718465006
6387 1 1.6749 3.58385 40.5512 12 11.2791741804 1.758484604 24.7102736396
6388 1 0.0231832 5.26862 40.5767 12 11.0475827132 1.773084931 24.7932596419
6389 1 3.54727 3.51744 38.8375 12 11.2766769811 1.7628274898 22.7281686472
6390 1 5.30505 5.18717 38.8961 12 11.0348374296 1.7558759593 21.1488950052
6391 1 5.325 3.51928 40.6653 12 10.5531682028 1.7403588265 22.794861911
6392 1 3.60166 5.30704 40.5956 12 11.047280519 1.7633190735 22.8004678968
6393 1 7.10905 3.538 38.8084 12 11.0626067454 1.7387754925 21.2154265951
6394 1 8.76961 5.22291 38.8404 12 10.9464788866 1.7380324197 19.7812710307
6395 1 8.88698 3.58927 40.8073 12 10.9964607632 1.726598528 21.1925587478
6396 1 6.98533 5.23855 40.6119 12 10.6131841681 1.7620792318 21.1555627879
6397 1 10.5676 3.43961 38.9159 12 11.1262095661 1.7301634568 20.1456584479
6398 1 12.4384 5.12139 38.7861 12 11.004577069 1.7695646809 18.7378041838
6399 1 12.4818 3.52691 40.6581 12 10.7408526621 1.763098853 20.2838114847
6400 1 10.6839 5.21355 40.7342 12 10.8759936595 1.7346097803 19.7093757752
6401 1 14.126 3.43118 38.8751 12 10.9921830992 1.7469574373 19.4212211908
6402 1 15.8662 5.21482 38.9162 12 11.0458582542 1.7784473361 18.4274846716
6403 1 15.9162 3.40688 40.6719 12 11.0026217583 1.7542629224 19.750285231
6404 1 14.1376 5.21376 40.5823 12 10.7825661062 1.7530803611 18.9012635205
6405 1 17.5349 3.59806 38.8545 12 11.1238435403 1.7649573551 19.0537185642
6406 1 19.3087 5.27132 38.887 12 10.8766260349 1.7602000954 18.237153839
6407 1 19.3939 3.52542 40.6805 12 11.0713939435 1.763133951 19.6739260979
6408 1 17.7017 5.27641 40.6987 12 10.7026996715 1.7542629224 18.4477421884
6409 1 21.0474 3.62593 38.9732 12 11.4131686869 1.7628346994 19.2322026612
6410 1 22.9713 5.29187 38.881 12 11.5912113418 1.7619883611 18.6286625549
6411 1 22.9882 3.53228 40.5539 12 11.288682166 1.7726498719 19.8484263251
6412 1 21.0686 5.33264 40.7589 12 11.1017119381 1.7462669222 18.6486060132
6413 1 24.7548 3.57399 38.8255 12 11.2652203066 1.7726498719 19.8591658979
6414 1 26.4374 5.39499 38.8118 12 10.9465388027 1.7570224946 19.5300476426
6415 1 26.5255 3.52629 40.7149 12 11.2407625816 1.7726498719 20.3164150545
6416 1 24.8416 5.37148 40.7669 12 11.1512127034 1.7726498719 18.9548580818
6417 1 28.2546 3.56388 39.0557 12 11.0801436781 1.7567620462 21.2981039825
6418 1 30.1406 5.34079 38.8555 12 11.0510406067 1.7908316746 21.0470031697
6419 1 30.0298 3.50448 40.6887 12 11.0484406034 1.7908316746 21.5052048283
6420 1 28.2335 5.35801 40.5727 12 11.3051627221 1.7908316746 20.02242579
6421 1 31.755 3.43028 38.8908 12 11.232809735 1.7493882921 22.8163432617
6422 1 33.5796 5.27896 38.8763 12 11.261133115 1.768326484 22.786290322
6423 1 33.6282 3.52562 40.6767 12 11.1982274865 1.7667738323 23.1870397575
6424 1 31.826 5.26192 40.6553 12 11.3473669383 1.7906187086 21.4978443638
6425 1 35.2761 3.4993 38.8199 12 11.2472656671 1.7692846598 24.5859810547
6426 1 37.1367 5.35467 38.8948 12 11.321577406 1.7780166775 24.896816151
6427 1 37.0212 3.50294 40.6744 12 11.0635682772 1.7622467533 25.1559006532
6428 1 35.3368 5.32785 40.729 12 11.0497179882 1.7692846598 23.3121775987
6429 1 38.7691 3.48417 38.8504 12 11.2518410872 1.7780166775 26.782261412
6430 1 40.6828 5.20923 38.7226 12 11.5892082555 1.7780166775 24.7307813453
6431 1 40.6042 3.56469 40.7093 12 11.2928287531 1.7752874755 26.5311435212
6432 1 38.8411 5.2645 40.6482 12 11.1188860656 1.7779315688 25.5458949611
6433 1 42.325 7.11592 38.8188 12 11.0967695713 1.764388258 23.0145384656
6434 1 1.73752 8.76704 38.8874 12 11.0879483692 1.769502882 21.4084103964
6435 1 1.72585 7.0264 40.5727 12 11.1783676145 1.7691953185 23.1093800087
6436 1 42.3826 8.77871 40.6384 12 11.0694580123 1.769502882 23.4340143107
6437 1 3.54593 7.06243 38.8532 12 11.2293108379 1.7633190735 21.0515959908
6438 1 5.28957 8.84244 38.8554 12 11.1610758942 1.7680864884 19.5601124951
6439 1 5.31577 7.00988 40.5775 12 10.8524754615 1.7623652739 21.1263244629
6440 1 3.52309 8.8168 40.5853 12 11.0844144811 1.7758084387 21.3775686882
6441 1 7.16093 6.99897 38.8741 12 11.0547332666 1.7685776101 19.577706496
6442 1 8.89683 8.62083 38.8256 12 11.1877160147 1.7685776101 18.3127396535
6443 1 8.85552 6.85416 40.5935 12 11.0374875495 1.764862738 19.5986508047
6444 1 7.02239 8.82539 40.6848 12 11.1655839668 1.7685776101 19.383755673
6445 1 10.5647 6.80994 38.8763 12 11.1443776986 1.7694738465 18.531791046
6446 1 12.272 8.74166 38.8997 12 11.1131311531 1.7677297537 17.4172493447
6447 1 12.3523 6.96576 40.7117 12 10.9666857523 1.7695646809 18.206068195
6448 1 10.5363 8.67271 40.6863 12 10.9588812093 1.7647160812 17.9841193491
6449 1 14.12 6.95494 38.8359 12 11.0233597143 1.7695646809 17.6965792704
6450 1 15.8631 8.80917 38.9455 12 10.7999104796 1.751220115 16.7992399097
6451 1 15.8588 6.91159 40.7268 12 10.913683162 1.7542629224 17.5342019559
6452 1 14.1097 8.701 40.5822 12 10.9379347215 1.74846726 16.9849576673
6453 1 17.6089 6.94616 38.929 12 11.0317302638 1.7549882975 17.4994139616
6454 1 19.3969 8.77953 38.8878 12 10.9340832403 1.7566689714 16.5777237592
6455 1 19.4078 7.02592 40.6553 12 10.683862505 1.7564284402 17.5309446789
6456 1 17.5342 8.79759 40.6411 12 10.9755829871 1.748726979 16.5197221992
6457 1 21.1841 6.91992 38.9006 12 11.0812296228 1.7709799368 17.6513176128
6458 1 22.9114 8.68133 38.7251 12 10.8307997097 1.7614017199 16.8276853707
6459 1 22.9099 7.00543 40.5938 12 11.215843676 1.7614017199 18.1060501253
6460 1 21.1866 8.73856 40.4789 12 10.9564211077 1.7610116246 17.0665829283
6461 1 24.7708 7.08924 38.8701 12 11.0200579229 1.7557937897 18.2299369091
6462 1 26.5032 8.90181 38.8169 12 10.8433650978 1.7570224946 17.8575639341
6463 1 26.5164 7.07349 40.5034 12 10.9490804793 1.7569283477 18.814456612
6464 1 24.7234 8.86656 40.6214 12 11.2081140122 1.7614017199 17.6435571387
6465 1 28.3093 7.09323 38.777 12 11.0405269469 1.7570224946 19.3812291854
6466 1 30.1109 8.82838 38.9096 12 11.0241981678 1.7547399687 19.4479873305
6467 1 30.0775 7.08334 40.7102 12 11.179995421 1.7908316746 19.9089528019
6468 1 28.3365 8.8347 40.5281 12 11.1430711498 1.7485006399 18.7604830128
6469 1 31.7579 6.96066 38.871 12 10.9837915471 1.7491027026 21.0524864333
6470 1 33.5864 8.70029 38.9323 12 11.3552336226 1.7499811344 21.3949840103
6471 1 33.5647 7.09112 40.6244 12 11.2189061485 1.7592071842 21.6755728604
6472 1 31.7885 8.85562 40.5829 12 11.1178513817 1.7540638398 20.1571801576
6473 1 35.3027 7.02755 38.9093 12 11.0354601006 1.7692846598 23.0557813305
6474 1 37.0192 8.74945 38.7697 12 10.9388270571 1.7526584671 23.4534639129
6475 1 37.0837 7.06126 40.6213 12 10.8403232524 1.760453813 23.7362535385
6476 1 35.4251 8.81995 40.7047 12 11.0121905197 1.7588683341 22.0550658369
6477 1 38.8828 7.06903 38.7959 12 11.2233578329 1.7778224954 25.2547709882
6478 1 40.5153 8.8329 38.8875 12 10.9223525373 1.7497420051 23.6465330206
6479 1 40.5989 6.94382 40.5831 12 11.1248167996 1.760453813 25.2052077548
6480 1 38.7301 8.81938 40.5841 12 10.8724191035 1.760453813 24.2744385238
6481 1 42.3206 10.4855 38.8407 12 11.1273283849 1.7691563124 21.9971929982
6482 1 1.72387 12.34 38.8235 12 10.9827859658 1.7691563124 20.4502638218
6483 1 1.71577 10.5809 40.6117 12 11.0321532608 1.7771285176 21.7802595081
6484 1 0.0195474 12.2284 40.5828 12 10.9706728397 1.7707474111 22.3825520363
6485 1 3.43649 10.5192 38.8011 12 11.1577269962 1.7792101183 19.8964739538
6486 1 5.21805 12.3183 38.8677 12 11.146648735 1.7746619289 18.6685210742
6487 1 5.26654 10.5656 40.6026 12 11.1591190882 1.7771285176 19.6752624292
6488 1 3.46421 12.4202 40.607 12 11.2734556769 1.7771285176 20.204748065
6489 1 7.07058 10.5419 38.9035 12 11.263841509 1.7685503652 18.3370582532
6490 1 8.78646 12.3838 38.9223 12 10.9061978904 1.7548816222 17.3283036398
6491 1 8.82745 10.5098 40.7141 12 11.1446211608 1.7618725272 17.8086743571
6492 1 6.99215 12.388 40.6358 12 11.0467469835 1.7709280236 18.1106310995
6493 1 10.4616 10.5235 38.9312 12 11.1648744875 1.7590616406 17.3738261561
6494 1 12.2992 12.276 38.8292 12 10.9228980245 1.7628598102 16.3003936843
6495 1 12.3556 10.4374 40.6235 12 11.0333630647 1.7590616406 16.6555907008
6496 1 10.6933 12.2653 40.657 12 11.064489247 1.7553540568 16.4856850017
6497 1 14.0428 10.3814 38.9325 12 10.9551510919 1.7485097362 16.539847436
6498 1 15.9327 12.3331 38.843 12 11.0529395345 1.7611680035 15.464703557
6499 1 15.8406 10.5538 40.6874 12 11.0396641395 1.7611680035 15.7969804114
6500 1 14.0399 12.2956 40.5931 12 11.4253645369 1.7611680035 15.589556314
6501 1 17.5249 10.5812 38.8598 12 10.7656428678 1.749073132 15.8556063828
6502 1 19.4932 12.2855 38.8207 12 11.0169824708 1.7513644586 15.084682944
6503 1 19.3581 10.5153 40.5727 12 11.1865274154 1.7631995809 15.9119870767
6504 1 17.6233 12.2871 40.6229 12 11.3199669971 1.760192335 15.1468413935
6505 1 21.2706 10.5137 38.883 12 10.6221385861 1.75565706 15.8801316821
6506 1 23.05 12.3505 38.8961 12 10.6935954301 1.75565706 15.5338576503
6507 1 22.9504 10.521 40.5798 12 11.0905790104 1.7614017199 16.6805143181
6508 1 21.1486 12.2097 40.4933 12 10.7070593499 1.7501486332 15.6953627873
6509 1 24.7785 10.558 38.8048 12 10.745108843 1.75565706 16.5435681573
6510 1 26.4769 12.3273 38.7242 12 10.9880401256 1.7353705558 16.3866977973
6511 1 26.5546 10.634 40.4794 12 10.8695553742 1.7353705558 17.723137952
6512 1 24.7587 12.2161 40.6805 12 10.9841758702 1.757940895 16.5645354379
6513 1 28.3641 10.5988 38.7648 12 11.1402214522 1.7547805324 17.7844216495
6514 1 30.084 12.3817 38.9598 12 11.4283434969 1.7738944084 18.1473141046
6515 1 30.1493 10.7169 40.6806 12 10.7686861425 1.7547805324 18.7618846681
6516 1 28.3318 12.2886 40.6263 12 10.9996890297 1.7494520546 17.737014456
6517 1 31.8629 10.5915 38.8348 12 11.2144843766 1.7547805324 19.5994598009
6518 1 33.5422 12.4794 38.897 12 10.8976959331 1.7562207744 20.0796493279
6519 1 33.651 10.5649 40.5972 12 11.4358334576 1.7779219458 20.6103744301
6520 1 31.9466 12.4274 40.7367 12 11.156304802 1.7602052231 19.1858825858
6521 1 35.2841 10.6801 38.8621 12 11.1218698359 1.7620408357 21.7171423918
6522 1 37.2167 12.4047 38.8927 12 10.8462754096 1.7489330748 22.5982149198
6523 1 37.1651 10.5157 40.7067 12 10.9792656708 1.7620408357 22.6972630614
6524 1 35.4286 12.4158 40.6182 12 11.3090469281 1.7832616464 21.2744409913
6525 1 38.7701 10.5665 38.83 12 10.928561393 1.7526584671 24.0601638527
6526 1 40.554 12.3018 38.8932 12 11.2735832701 1.7704081573 22.7339391591
6527 1 40.5445 10.571 40.6296 12 10.9747369856 1.7707474111 24.0516458986
6528 1 38.8427 12.4105 40.7025 12 10.7127976726 1.7673383311 23.504515351
6529 1 -0.00618164 13.994 38.9114 12 11.2091435489 1.7636268087 21.2033293341
6530 1 1.78952 15.9253 38.9032 12 11.3137318592 1.7583214507 19.8676075814
6531 1 1.68753 14.1415 40.6129 12 10.9280949717 1.7337824131 20.9178496922
6532 1 42.3596 15.888 40.547 12 11.0584247365 1.765086517 21.8714107053
6533 1 3.49765 14.1133 38.8641 12 11.0506314392 1.7789056041 19.1570741406
6534 1 5.44426 15.9428 38.8859 12 11.1395559879 1.7789056041 18.0035149671
6535 1 5.32291 14.057 40.6114 12 10.7594454464 1.7789056041 18.6751433292
6536 1 3.57442 15.861 40.5309 12 10.8974226175 1.7486550378 19.5925922534
6537 1 7.08907 14.0411 38.864 12 10.8303682462 1.7781174814 17.5920629779
6538 1 8.82176 15.7984 38.9774 12 11.3468138381 1.7613270718 16.7593576991
6539 1 8.92841 14.0301 40.699 12 10.902685075 1.7542568503 16.6916350002
6540 1 7.07265 15.6607 40.6426 12 10.7754976129 1.7617255317 17.4056289322
6541 1 10.6411 14.0413 38.853 12 10.9101776926 1.7628598102 16.3080643458
6542 1 12.3589 15.8135 38.961 12 11.1745137972 1.7664231657 15.5075661334
6543 1 12.3963 14.0681 40.7211 12 11.0306303711 1.7628598102 15.3953565315
6544 1 10.6615 15.8979 40.6588 12 11.1065630949 1.7509053514 15.7046793888
6545 1 14.1504 14.1671 38.7914 12 10.780903905 1.7628598102 15.1720824956
6546 1 15.9104 15.7967 38.8813 12 11.0856316078 1.7358334652 14.594055132
6547 1 15.8754 14.0719 40.5963 12 11.1661589477 1.7611680035 14.8376232172
6548 1 14.0961 15.7969 40.6618 12 11.1478772112 1.7452543844 14.7781922706
6549 1 17.6847 14.0609 38.7702 12 11.2452237726 1.749073132 14.680686817
6550 1 19.4283 15.9564 38.7777 12 10.9279497281 1.7656731861 14.3189490069
6551 1 19.5493 14.0225 40.5281 12 11.1324470355 1.7510331608 14.9359465892
6552 1 17.7513 15.8029 40.5134 12 11.1053850946 1.7502721142 14.5919369594
6553 1 21.3227 14.1224 38.7975 12 10.9067249385 1.771912355 14.6964630666
6554 1 23.1397 15.8565 38.731 12 11.2526742124 1.7728021197 14.7032157709
6555 1 22.9601 13.9782 40.5601 12 11.0221240193 1.7454181833 15.6056968602
6556 1 21.2424 15.8028 40.5782 12 11.1296419855 1.7728021197 14.8842115689
6557 1 24.785 14.0987 38.9366 12 10.9337569409 1.7454181833 15.5704126291
6558 1 26.4553 15.8662 39.0145 12 11.0893096136 1.7810030728 15.8663630157
6559 1 26.4858 14.0945 40.5863 12 11.0603090195 1.7501053722 16.8729914654
6560 1 24.6852 15.9508 40.6293 12 10.7159538489 1.7478857471 15.7855307198
6561 1 28.2837 13.9917 38.8968 12 11.2262151119 1.7810030728 16.814281645
6562 1 30.0479 15.9202 38.9951 12 10.9954329952 1.7787346411 17.466906262
6563 1 30.0917 14.223 40.7128 12 11.1909498098 1.7698432316 18.0893547656
6564 1 28.3355 15.9386 40.6814 12 11.1047538929 1.7810030728 17.2927244018
6565 1 31.8484 14.2626 38.8684 12 11.2958283349 1.7701465191 18.6177707474
6566 1 33.6464 15.982 38.8599 12 11.1911676106 1.7579666479 19.5195161064
6567 1 33.6728 14.2034 40.6832 12 10.9914533693 1.7591992667 19.9547616564
6568 1 31.8774 15.9403 40.6904 12 11.1147247731 1.7602052231 18.8908094471
6569 1 35.4514 14.0918 38.8349 12 10.9300525335 1.7562207744 20.975962576
6570 1 37.0341 15.9281 38.7897 12 11.1178647422 1.7592833795 21.8635393818
6571 1 37.0768 14.088 40.692 12 10.9992891129 1.7432750606 22.1029497463
6572 1 35.388 15.949 40.5738 12 11.1723266989 1.7707241323 21.0253779872
6573 1 38.8417 14.117 38.7609 12 10.9105341988 1.7592833795 23.277443637
6574 1 40.5854 15.8862 38.8509 12 10.9820828664 1.7664113164 22.1125978773
6575 1 40.5619 14.1019 40.5932 12 11.3556327902 1.7707474111 23.2759107578
6576 1 38.7938 15.8839 40.5731 12 11.4963575221 1.7696758076 23.3254605145
6577 1 42.3992 17.7149 38.9024 12 10.9901092204 1.7600104073 20.8871928212
6578 1 1.82109 19.3757 38.915 12 11.0664251669 1.7656376697 19.8577095325
6579 1 1.77658 17.7272 40.6345 12 10.9970918983 1.7486550378 20.5533969296
6580 1 0.0236982 19.6038 40.6762 12 10.9341806489 1.7600104073 21.7390684446
6581 1 3.64443 17.6297 38.8365 12 11.0871717972 1.7938767309 18.7272750608
6582 1 5.31553 19.4889 38.9195 12 11.1040349187 1.7670961888 18.1005561466
6583 1 5.26716 17.5635 40.6472 12 11.0044915647 1.7617255317 18.3445186388
6584 1 3.55938 19.3939 40.6175 12 10.9801813358 1.7579044593 19.5456126095
6585 1 7.12006 17.6666 38.8144 12 11.3342008368 1.7671586743 17.1769006698
6586 1 8.90906 19.4418 38.7917 12 11.348530973 1.7752235474 16.3057913572
6587 1 8.8225 17.6175 40.6011 12 11.3916966019 1.7612117139 16.4445262741
6588 1 7.01144 19.3566 40.702 12 11.4120391104 1.767093146 17.3731807233
6589 1 10.6345 17.6741 38.8409 12 11.1542124456 1.7752193673 15.7321729998
6590 1 12.4517 19.3281 38.7975 12 10.9923343442 1.7752235474 14.9940363726
6591 1 12.4201 17.6784 40.7357 12 10.8168166094 1.7664231657 14.9677178828
6592 1 10.7051 19.2747 40.6422 12 11.0374845361 1.7752235474 15.7037968956
6593 1 14.2874 17.6291 38.8937 12 11.2266367087 1.7664231657 14.7122152703
6594 1 15.9521 19.4603 38.8205 12 10.8153526135 1.7550674994 14.3897307718
6595 1 16.0095 17.7462 40.5794 12 11.1686431129 1.74306857 14.5222822448
6596 1 14.1472 19.437 40.6666 12 11.1230754748 1.7550674994 14.7681006184
6597 1 17.7216 17.6571 38.8045 12 10.9306611454 1.7353685968 14.2214193171
6598 1 19.3267 19.5122 38.7387 12 11.2360205216 1.7843868719 14.2286624383
6599 1 19.4059 17.6405 40.5996 12 11.1662502959 1.7733591528 14.5318357481
6600 1 17.7403 19.4768 40.5828 12 10.8693880831 1.7438355128 14.4808995
6601 1 21.1326 17.6766 38.8294 12 11.5933404104 1.7728021197 14.414600543
6602 1 23.0176 19.4541 38.7892 12 11.1023346746 1.772470679 14.6976451324
6603 1 23.0016 17.5654 40.4993 12 11.0524422815 1.7625202561 15.2646965515
6604 1 21.2122 19.4635 40.5955 12 11.2046460788 1.7625202561 14.8830899273
6605 1 24.7861 17.6948 38.8189 12 10.7989670272 1.7522991509 15.0527414512
6606 1 26.4145 19.4521 38.7702 12 10.8981093022 1.7579452468 15.6331915164
6607 1 26.4941 17.6451 40.6055 12 10.9909612885 1.7618966139 16.5055579358
6608 1 24.7265 19.4354 40.6172 12 11.1208709996 1.7625202561 15.8469000204
6609 1 28.299 17.6277 38.849 12 10.9229319127 1.7753658529 16.3815108083
6610 1 30.0079 19.4681 38.7991 12 10.886561343 1.743236748 17.2951099554
6611 1 30.0453 17.7386 40.6153 12 11.2585646956 1.7616472721 17.9864155606
6612 1 28.2387 19.4513 40.4946 12 11.084780291 1.7618966139 17.3837393087
6613 1 31.8365 17.7324 38.8167 12 11.0575528454 1.7445428534 18.2635017632
6614 1 33.5778 19.4355 38.8325 12 10.804090554 1.7466098045 19.4684276651
6615 1 33.5131 17.7743 40.624 12 10.9105297979 1.7701016893 19.8354322924
6616 1 31.8602 19.5162 40.6804 12 11.0250809642 1.7417258671 18.9026103466
6617 1 35.328 17.8578 38.8676 12 11.0453512145 1.7707241323 20.6127391223
6618 1 37.1452 19.5114 38.8741 12 10.9151541446 1.7412587441 22.021921897
6619 1 37.0881 17.8122 40.61 12 11.0544770621 1.7707241323 22.1398498173
6620 1 35.2918 19.4963 40.6573 12 10.6976345014 1.7703309835 20.9201667658
6621 1 38.7418 17.6372 38.8669 12 11.139016433 1.7597496385 23.0249934678
6622 1 40.5747 19.3883 38.9065 12 11.1109808573 1.7599455744 22.157053194
6623 1 40.7281 17.7138 40.6061 12 11.1316145987 1.7648643883 22.880596099
6624 1 38.8957 19.5151 40.5859 12 11.0634641263 1.7477274386 23.3200589847
6625 1 42.4144 21.2295 38.8413 12 11.1323750396 1.7600104073 21.1340474868
6626 1 1.89747 23.049 38.8828 12 11.1313588832 1.7688106897 20.3765581732
6627 1 1.84013 21.2221 40.6639 12 11.0582024282 1.7579044593 20.8034989324
6628 1 0.153616 22.9826 40.5904 12 11.1658372464 1.7477196888 22.1180948855
6629 1 3.57309 21.1725 38.9739 12 10.9853208361 1.7572613405 19.2027465698
6630 1 5.34762 22.829 38.99 12 11.2750893816 1.7660228485 18.6208160879
6631 1 5.35137 21.1515 40.7684 12 11.0415289698 1.7643648759 18.5430983155
6632 1 3.6607 22.9165 40.7315 12 10.9616486226 1.7664193925 19.875065803
6633 1 7.10317 21.1943 39.0037 12 11.1573850793 1.7671586743 17.4785710231
6634 1 8.81048 22.8836 38.9346 12 10.9477991502 1.7497078348 16.8161048396
6635 1 8.87057 21.0628 40.7295 12 11.3487491138 1.7536781719 16.6750190623
6636 1 7.18666 22.837 40.7415 12 11.2554862814 1.7700744537 17.9150927828
6637 1 10.7956 21.2118 39.0464 12 10.9861275141 1.7752235474 15.8437978473
6638 1 12.4069 22.9002 38.9431 12 10.6860199871 1.7449676028 15.5158365905
6639 1 12.451 21.0906 40.6129 12 10.9510775628 1.7305725196 15.479098408
6640 1 10.5594 22.8607 40.748 12 11.0336304566 1.7683565958 16.439082781
6641 1 14.2051 21.1926 38.9228 12 10.8420921837 1.7550674994 14.8340938796
6642 1 15.8807 22.9995 38.7724 12 10.8097352075 1.7449676028 14.7372182338
6643 1 15.9653 21.1633 40.6285 12 10.9401876235 1.738326482 14.7611304805
6644 1 14.2161 22.8919 40.6743 12 11.4003549422 1.772975339 15.4367126562
6645 1 17.569 21.2856 38.7462 12 10.8967991665 1.7851596034 14.3657653659
6646 1 19.3926 23.1125 38.9043 12 11.4250051149 1.7851596034 14.8646880315
6647 1 19.4541 21.2407 40.641 12 10.9863979419 1.7851596034 14.7983429759
6648 1 17.5441 22.9329 40.5461 12 11.105695551 1.7403758118 15.2034582944
6649 1 21.1907 21.1707 38.8814 12 10.9686821921 1.7816331151 14.6297721529
6650 1 22.8756 22.9287 38.9203 12 10.9693118223 1.7624124703 15.3079570178
6651 1 22.8459 21.1737 40.6071 12 11.0459083487 1.7653652794 15.5488944669
6652 1 21.167 23.0135 40.6482 12 10.8034913571 1.7470716143 15.5540902599
6653 1 24.7694 21.1871 38.9241 12 10.9266813424 1.7624124703 15.4892187667
6654 1 26.5344 22.898 38.9011 12 10.8922181555 1.7613444011 16.4731017357
6655 1 26.5491 21.241 40.5691 12 10.7473723428 1.7579241605 16.9489516817
6656 1 24.7022 22.9428 40.6563 12 10.874940814 1.7624124703 16.5285892711
6657 1 28.3019 21.2263 38.8001 12 10.7099337912 1.726908246 16.7314984739
6658 1 29.9614 22.9165 38.9323 12 11.4069302003 1.7999348124 18.0756700558
6659 1 29.9971 21.2104 40.6451 12 10.9975659522 1.7489268335 18.1935328786
6660 1 28.2628 23.0545 40.7245 12 10.7595956146 1.74561732 17.620046282
6661 1 31.8021 21.1493 38.7684 12 10.9986902634 1.7962355747 18.5417833363
6662 1 33.547 22.8717 38.9674 12 11.1848048704 1.7999348124 20.1559189383
6663 1 33.6036 21.168 40.5906 12 10.8259411105 1.7449490851 20.0792055622
6664 1 31.8691 22.9052 40.714 12 11.5880242069 1.7977448045 19.2799732428
6665 1 35.3713 21.2046 38.9207 12 10.9603840552 1.765904411 20.9869632837
6666 1 37.0722 23.044 38.9329 12 11.1424989 1.7659044468 22.5081757231
6667 1 37.0843 21.267 40.7025 12 11.2646930735 1.7477274386 22.0796526623
6668 1 35.3058 22.9787 40.6571 12 11.0703196443 1.765805424 21.2103305593
6669 1 39.0147 21.3752 38.7235 12 10.9386629171 1.7477274386 23.3498209782
6670 1 40.7441 23.0074 38.8505 12 10.9001477789 1.7677620235 22.5733946787
6671 1 40.6486 21.1534 40.623 12 10.8984369048 1.744614395 23.1689142765
6672 1 38.9799 22.9944 40.5291 12 11.0968818111 1.769500968 23.6655164156
6673 1 0.0789094 24.8046 38.8802 12 11.2501536103 1.7793357035 21.8499580781
6674 1 1.89426 26.5597 38.793 12 11.116863624 1.7592159965 21.1950886734
6675 1 1.86044 24.697 40.6553 12 11.1218456183 1.7666438752 21.2088198768
6676 1 0.0512484 26.4919 40.6061 12 11.5441535274 1.7900590178 22.6993836484
6677 1 3.5954 24.676 38.8604 12 11.04785499 1.7698168847 19.7698466166
6678 1 5.37075 26.6374 38.8561 12 11.3019386372 1.7731288853 19.523925694
6679 1 5.36384 24.7336 40.6479 12 11.4398351179 1.7679166942 19.3322274311
6680 1 3.56057 26.4343 40.5452 12 11.3869231566 1.7734567177 20.6967985114
6681 1 7.10491 24.6369 38.8983 12 11.4231516427 1.7698168847 18.0475894296
6682 1 8.88161 26.3786 38.9438 12 11.358746898 1.787977737 17.8221652455
6683 1 8.75647 24.6796 40.6772 12 11.0584248195 1.7622966261 17.7348273926
6684 1 7.09139 26.5618 40.6285 12 11.3739697809 1.7743792494 18.9368478246
6685 1 10.6001 24.5362 39.0138 12 10.9426663808 1.7797870363 16.5706119494
6686 1 12.3425 26.298 38.8823 12 10.7660051772 1.7403673597 16.5505448251
6687 1 12.4142 24.6598 40.5532 12 11.1122792956 1.773683418 16.6279939227
6688 1 10.6849 26.4224 40.5832 12 11.1339913012 1.7727364148 17.5907073151
6689 1 14.1736 24.8002 38.8382 12 10.9441369236 1.7461661401 15.5419777159
6690 1 15.8504 26.4906 38.7983 12 11.0048199683 1.7728330712 15.8078309942
6691 1 15.8957 24.771 40.6169 12 11.2581121326 1.7645883835 15.8896824308
6692 1 14.0748 26.5814 40.5802 12 11.0314988336 1.7671859944 16.9641677274
6693 1 17.6087 24.8595 38.8814 12 10.8737733191 1.7403758118 15.1958266807
6694 1 19.3835 26.5723 38.837 12 10.7110850529 1.7311571632 15.854391341
6695 1 19.3604 24.7822 40.6248 12 10.8179564457 1.7367155004 15.9006497942
6696 1 17.637 26.5701 40.6067 12 10.9941564361 1.7667397847 16.6317529602
6697 1 21.1577 24.8687 38.8961 12 10.8669705027 1.7586315849 15.5719889764
6698 1 22.8261 26.6212 38.8407 12 10.9738732243 1.7529280512 16.5439030926
6699 1 22.8654 24.7504 40.5927 12 10.9023653377 1.7618052516 16.5809724079
6700 1 21.0881 26.5132 40.5665 12 10.9296999318 1.7655295973 16.9315924882
6701 1 24.6428 24.7131 38.9344 12 11.2018071739 1.7621831826 16.3376471356
6702 1 26.4506 26.5891 38.8059 12 11.0023261954 1.7470870601 17.6058153553
6703 1 26.3815 24.6329 40.6576 12 10.9921592359 1.7464227974 17.3141566773
6704 1 24.7542 26.5896 40.6118 12 11.2164543858 1.74878516 17.4998919611
6705 1 28.2836 24.7787 38.9075 12 11.2097380339 1.7658693576 17.8149509346
6706 1 29.9713 26.5535 38.9207 12 11.0138146979 1.7461249192 19.3169719951
6707 1 30.0254 24.8217 40.7414 12 11.0582754637 1.7531204606 18.6491046732
6708 1 28.1126 26.4182 40.6716 12 11.2880587408 1.7603062879 18.3279115413
6709 1 31.739 24.8189 38.9589 12 11.5681544273 1.7999348124 19.6472491211
6710 1 33.5872 26.6 38.9258 12 11.1633993667 1.7682162538 21.2340269656
6711 1 33.5643 24.86 40.6647 12 11.3563450978 1.7582394686 20.5779519734
6712 1 31.7782 26.4952 40.7591 12 10.7698644693 1.7438251564 19.9068086989
6713 1 35.2711 24.7346 38.8945 12 10.9769462434 1.7659044468 21.6525378646
6714 1 37.1 26.5013 38.9229 12 11.1826922745 1.76436516 23.3867068437
6715 1 37.0103 24.7411 40.7172 12 11.1455537683 1.7696561343 22.5528669562
6716 1 35.4232 26.5353 40.7344 12 11.1997887324 1.7677882629 22.0361306027
6717 1 38.9393 24.7845 38.8831 12 11.2070747381 1.7696561343 24.1644829902
6718 1 40.718 26.5476 38.7758 12 11.1969578825 1.7678725395 23.4007366671
6719 1 40.6593 24.7497 40.5586 12 10.9828376575 1.7678725395 23.6084380775
6720 1 38.8921 26.528 40.6342 12 11.1217827296 1.7696561343 24.2946282558
6721 1 0.0847577 28.3558 38.8045 12 11.1808567677 1.7870933224 22.9012872297
6722 1 1.81248 30.0407 38.8907 12 10.7732092446 1.7455577288 22.6931589563
6723 1 1.80642 28.2771 40.6221 12 11.4798616623 1.7965724132 22.1114218637
6724 1 0.0132518 30.0619 40.6232 12 11.2350570565 1.7900590178 23.7714697718
6725 1 3.48954 28.3881 38.7998 12 10.9910496481 1.758527795 21.0385772162
6726 1 5.38412 30.0757 38.9427 12 11.0979410615 1.771337887 21.0288986599
6727 1 5.16156 28.4034 40.6937 12 11.3420069517 1.7743792494 20.3283926474
6728 1 3.49448 30.1575 40.6186 12 11.0263046953 1.7676405942 21.8683345333
6729 1 7.06008 28.2711 38.8442 12 11.2532782113 1.787977737 19.3728045665
6730 1 8.93616 29.9687 38.9451 12 11.210499394 1.7868607035 19.437718802
6731 1 8.92422 28.2695 40.5951 12 11.1982573862 1.787977737 18.6900379561
6732 1 7.0471 30.0951 40.7401 12 11.2852327159 1.7743792494 19.9877588786
6733 1 10.6408 28.2435 38.8535 12 10.7369481098 1.7876004185 17.8972424284
6734 1 12.2451 30.0408 38.8197 12 10.8260215858 1.7526282015 18.284239144
6735 1 12.2661 28.2012 40.6225 12 10.7581264688 1.7515282167 17.6946808824
6736 1 10.5991 29.9499 40.6212 12 10.4553934319 1.7520793224 18.7569448827
6737 1 14.073 28.2042 38.7315 12 11.0675418793 1.7720120315 16.8018243657
6738 1 15.7638 30.0313 38.7881 12 11.0217545869 1.7728330712 17.5248507925
6739 1 15.8588 28.3873 40.6078 12 11.1343719287 1.772585198 17.3294858389
6740 1 14.0992 29.97 40.5133 12 11.0474143898 1.7520793224 18.2156703599
6741 1 17.6417 28.25 38.8545 12 10.8775551577 1.7728330712 16.5326993123
6742 1 19.3542 29.9577 38.8596 12 10.942815403 1.7945489667 17.510893381
6743 1 19.3494 28.3901 40.6443 12 10.9606824618 1.7645932484 17.3119719942
6744 1 17.6291 30.0641 40.6111 12 10.9739025338 1.7713810465 17.9613838404
6745 1 21.1902 28.3738 38.8073 12 10.8813854984 1.7654882816 16.9136028684
6746 1 22.9532 30.0439 38.8499 12 10.7863906283 1.7529515015 18.2260054497
6747 1 22.9215 28.3247 40.539 12 11.0862876495 1.7655295973 17.9486961667
6748 1 21.1073 30.0397 40.6625 12 10.9642194951 1.7655295973 18.2535033842
6749 1 24.7893 28.2953 38.7674 12 10.7064269278 1.7337221778 17.8078840926
6750 1 26.5278 30.054 38.8276 12 11.1114773909 1.7486700346 19.311795622
6751 1 26.5005 28.3405 40.6855 12 10.8033145176 1.7501913622 18.4780861692
6752 1 24.7685 29.9827 40.5995 12 10.8736792559 1.7330367853 18.8895157622
6753 1 28.243 28.268 38.8549 12 11.0560786086 1.7501913622 19.1758989315
6754 1 29.9146 29.9619 38.9148 12 11.0409424389 1.7505346274 20.8266843971
6755 1 29.9797 28.2491 40.7683 12 11.1957619984 1.7505346274 19.6143012872
6756 1 28.1917 30.0336 40.7564 12 11.0967139363 1.7505346274 19.6763644561
6757 1 31.7457 28.2279 39.0546 12 11.0713347219 1.7473337694 20.9985860894
6758 1 33.5562 29.9548 38.9518 12 11.0352354457 1.7618109781 22.6505421884
6759 1 33.565 28.2959 40.7215 12 10.9864981047 1.7667401046 21.470548004
6760 1 31.7657 30.0445 40.722 12 10.9447669437 1.7514849107 21.2009359089
6761 1 35.3352 28.3035 38.9304 12 10.9311259655 1.7677882629 22.9182221482
6762 1 37.0377 30.0647 38.9932 12 10.9362281913 1.7640505008 24.7629028705
6763 1 37.1778 28.3181 40.7466 12 11.0060744986 1.7677882629 23.6471895813
6764 1 35.2728 30.065 40.7076 12 10.876328341 1.7735607323 23.1229795922
6765 1 38.8564 28.2904 38.8386 12 11.0588742512 1.76436516 25.1462476319
6766 1 40.6642 29.9685 38.7372 12 11.0047804821 1.7866867729 24.6442839708
6767 1 40.5877 28.263 40.5726 12 11.3880829569 1.7900590178 24.3984717573
6768 1 38.8628 29.966 40.6804 12 10.8788890337 1.7639416386 25.2759380863
6769 1 0.0303386 31.7976 38.8539 12 11.4999773517 1.7881608004 24.4896922473
6770 1 1.69843 33.7165 38.757 12 11.3742587455 1.7871009072 24.5710198234
6771 1 1.82338 31.8155 40.6475 12 11.367721955 1.7673384275 23.4304395867
6772 1 42.3981 33.6151 40.5708 12 11.3050046629 1.7996491119 25.3430529197
6773 1 3.4901 31.817 38.7362 12 11.1563064387 1.7870123368 22.6318364045
6774 1 5.28202 33.5904 38.9103 12 11.0516383544 1.7866208833 22.827469113
6775 1 5.2913 31.8367 40.696 12 11.0984917945 1.7606898903 21.5720011851
6776 1 3.54418 33.6242 40.6346 12 11.5547135657 1.7871009072 23.3415899324
6777 1 7.08214 31.8024 38.8761 12 11.1817188743 1.7719000905 21.038144978
6778 1 8.90552 33.6763 38.9072 12 11.0101239916 1.7368464306 21.3962511459
6779 1 8.78583 31.8024 40.7094 12 10.9201077277 1.7494543222 20.0830642929
6780 1 7.01291 33.6028 40.6016 12 10.9693827282 1.7494543222 21.7422908683
6781 1 10.6132 31.7876 39.0377 12 10.910933208 1.7526699243 19.8950767077
6782 1 12.4255 33.5549 38.9108 12 11.2178869561 1.7526699243 20.3808444239
6783 1 12.4188 31.7562 40.6548 12 10.806214142 1.7546290153 19.1510605999
6784 1 10.6612 33.5474 40.5907 12 11.0468584801 1.7546775978 20.5263928704
6785 1 14.1126 31.7917 38.8679 12 10.8673313327 1.7526699243 18.8772739552
6786 1 15.8521 33.6187 38.8903 12 10.5961547994 1.7447513701 19.830591162
6787 1 15.8723 31.8216 40.6147 12 10.9266188468 1.7456796811 18.8958922502
6788 1 14.1235 33.4815 40.6707 12 10.8055376316 1.7530576924 19.8480413052
6789 1 17.4934 31.8448 38.8259 12 11.2385499381 1.7945489667 18.5327361299
6790 1 19.4867 33.5921 38.8207 12 11.3094030902 1.7944956999 19.7497316153
6791 1 19.4004 31.7814 40.6199 12 11.2894958806 1.7945489667 18.9062195985
6792 1 17.6581 33.5313 40.6059 12 11.3022531431 1.7838438695 19.8167345026
6793 1 21.1169 31.7377 38.8658 12 11.2288586998 1.7920133878 18.8001567819
6794 1 22.8959 33.5451 38.8858 12 11.3731219714 1.7529515015 20.201197742
6795 1 22.8795 31.7748 40.6829 12 11.0414474584 1.7561159673 19.3455176248
6796 1 21.1799 33.6842 40.6133 12 11.2285183103 1.7799278745 20.1771710404
6797 1 24.7195 31.7054 38.9528 12 11.2531983766 1.7562291252 19.638248991
6798 1 26.6946 33.5155 38.8817 12 11.1481338132 1.7486700346 21.2194674238
6799 1 26.5606 31.8504 40.6677 12 10.9534532084 1.7413343524 20.1773274317
6800 1 24.7694 33.504 40.5992 12 10.9839457057 1.7539951569 20.7105271995
6801 1 28.325 31.7322 38.8688 12 11.1063565999 1.7413129664 20.9016687885
6802 1 29.9933 33.5234 38.7345 12 11.4405345709 1.7669559512 22.5089819321
6803 1 30.0332 31.7441 40.6753 12 10.9764556419 1.7509894991 21.2642089526
6804 1 28.3527 33.4966 40.7309 12 11.0585932951 1.7386488044 21.5726490031
6805 1 31.7173 31.7946 38.9109 12 11.3096826173 1.7669559512 22.6079617887
6806 1 33.6014 33.4828 38.8685 12 11.0610395997 1.7821088503 24.4433992825
6807 1 33.5482 31.7361 40.6649 12 11.0693006063 1.7694024735 22.9145110234
6808 1 31.7089 33.5432 40.6567 12 11.3704794845 1.7667081736 22.9476564597
6809 1 35.2289 31.7389 38.8663 12 10.9920817344 1.7921721426 24.4079726272
6810 1 37.0752 33.4208 38.9227 12 11.0051567233 1.7589113496 26.3616711348
6811 1 37.0854 31.7985 40.6328 12 10.8230552162 1.7694238193 24.9155226461
6812 1 35.3138 33.6015 40.6076 12 10.8491537258 1.7694238193 24.7848049883
6813 1 38.8946 31.5926 38.9074 12 11.1431156366 1.7881608004 26.6005452529
6814 1 40.7017 33.5766 38.8179 12 11.4529583633 1.7988193711 26.394445248
6815 1 40.6111 31.6951 40.6507 12 11.4247563486 1.7996491119 25.5143540014
6816 1 38.8056 33.5286 40.585 12 11.297717807 1.7996491119 26.7190307258
6817 1 42.3781 35.3644 38.8457 12 10.8033373412 1.7451792649 26.4823862087
6818 1 1.70805 37.0966 38.84 12 11.1469179958 1.768862152 26.6249300747
6819 1 1.73932 35.3166 40.5909 12 11.1617103757 1.7556887867 25.2058296652
6820 1 42.3362 37.0502 40.6049 12 11.116415079 1.7624320828 27.1604505748
6821 1 3.55326 35.3985 38.7677 12 11.2246583633 1.7871009072 24.6110697996
6822 1 5.27061 37.1036 38.8476 12 10.9615237098 1.7687968903 24.8971330342
6823 1 5.2538 35.4026 40.7192 12 11.1533988846 1.7596086812 23.3939612112
6824 1 3.50519 37.0541 40.6076 12 10.920447133 1.7479966923 25.2432895562
6825 1 7.0867 35.4 38.982 12 10.8041066938 1.7596086812 23.15585868
6826 1 8.87559 37.0052 38.9921 12 10.9265138666 1.7419789976 23.5655545343
6827 1 8.7538 35.3087 40.6715 12 10.8447556919 1.7405973615 22.0244346437
6828 1 7.07117 37.239 40.6995 12 11.0917497291 1.7628323513 23.7726538082
6829 1 10.6793 35.3869 38.874 12 10.8850199289 1.7411469101 21.8956292924
6830 1 12.5045 37.2177 38.9447 12 10.8036539033 1.7352789529 22.6190519094
6831 1 12.4609 35.4891 40.6896 12 11.0751357434 1.7546039451 21.2392054925
6832 1 10.6752 37.0759 40.6373 12 10.8491085505 1.7532062103 22.6416982527
6833 1 14.2168 35.4237 38.92 12 11.0121397909 1.7375811147 21.1377588459
6834 1 16.028 37.1229 38.8509 12 10.9685994115 1.7511853467 21.9599830405
6835 1 15.8105 35.3074 40.6453 12 10.9578251564 1.7842108879 20.9002786241
6836 1 14.2484 37.1862 40.748 12 11.1394286268 1.7549939547 22.109550475
6837 1 17.5583 35.3265 38.8232 12 10.8317494158 1.7842108879 20.7282497431
6838 1 19.2707 37.0992 38.8501 12 10.8489804611 1.763053652 21.9501243703
6839 1 19.3851 35.3927 40.5435 12 11.1578671313 1.7840784236 21.1053028205
6840 1 17.6008 37.1414 40.5731 12 10.8361720464 1.7842108879 22.1804744183
6841 1 21.1191 35.4648 38.8161 12 10.7793385564 1.7319529464 21.0873930595
6842 1 22.9991 37.2485 38.8816 12 10.8861566388 1.7454412202 22.6308094289
6843 1 22.9303 35.3752 40.4768 12 11.0001190291 1.7419879134 21.5025663059
6844 1 21.1043 37.144 40.5482 12 11.0037821945 1.7814980671 22.3588620925
6845 1 24.7444 35.3024 38.9496 12 10.9914972078 1.7509071685 21.7591728753
6846 1 26.4326 37.1105 38.8653 12 10.9428027815 1.7766999863 23.3760571081
6847 1 26.4658 35.3521 40.5845 12 10.8574542023 1.7405504823 22.2402885273
6848 1 24.7634 37.2036 40.5576 12 10.653234771 1.7414246311 22.9502098861
6849 1 28.2111 35.4031 38.9476 12 10.9971604543 1.7555242897 22.9599060368
6850 1 29.9699 37.2234 38.9044 12 11.2116596122 1.7593423326 24.8073310469
6851 1 29.982 35.3754 40.5562 12 11.4385468805 1.7612054677 23.3888972232
6852 1 28.1597 37.1702 40.6908 12 11.0712069619 1.7496260259 23.8289262427
6853 1 31.9047 35.3179 38.7863 12 11.6542788901 1.7669559512 24.4982748858
6854 1 33.6387 37.1962 38.8869 12 11.252339516 1.7575861277 26.5238891636
6855 1 33.4527 35.2298 40.614 12 11.0614981962 1.7514686917 24.7325139554
6856 1 31.8993 37.0556 40.6428 12 11.1793217738 1.7647642737 25.1399685608
6857 1 35.3025 35.2378 38.7853 12 10.8348356235 1.734924669 26.2029237812
6858 1 37.0339 37.04 38.8584 12 10.9096966603 1.7593134836 28.1672658568
6859 1 37.0022 35.3673 40.4751 12 10.9344957414 1.7707304187 26.6590659287
6860 1 35.3044 37.0138 40.7388 12 11.1559014148 1.7392324933 26.5387979719
6861 1 38.9368 35.2476 38.784 12 11.1383114967 1.770836027 28.3039942512
6862 1 40.5556 37.0735 38.7802 12 10.9257000025 1.754988412 28.4532281201
6863 1 40.6201 35.3576 40.622 12 11.092430148 1.7980538248 27.2156034481
6864 1 38.7704 37.0671 40.5143 12 11.0719873614 1.7731689784 28.5207475542
6865 1 42.359 38.8513 38.8485 12 11.0178348045 1.7624320828 28.5859371985
6866 1 1.7896 40.7515 38.9215 12 10.9683534874 1.7781136066 26.6222689389
6867 1 1.84337 38.8919 40.6574 12 10.9416362693 1.7624320828 27.1530746498
6868 1 0.0323926 40.6474 40.6778 12 11.0538849679 1.7611250057 28.4035523007
6869 1 3.43919 38.8886 38.9042 12 11.230069623 1.7733154622 26.9299441094
6870 1 5.33228 40.6287 38.9529 12 11.3638011323 1.7781136066 25.1471828486
